*SPEF "ieee 1481-1999"
*DESIGN "ro_array"
*DATE "10:05:35 Thursday July 09, 2026"
*VENDOR "The OpenROAD Project"
*PROGRAM "OpenROAD"
*VERSION "dcf36133a369abc8f3c5e5738cd4d82e4903c0e0"
*DESIGN_FLOW "NAME_SCOPE LOCAL" "PIN_CAP NONE"
*DIVIDER /
*DELIMITER :
*BUS_DELIMITER []
*T_UNIT 1 NS
*C_UNIT 1 PF
*R_UNIT 1 OHM
*L_UNIT 1 HENRY

*NAME_MAP
*3 en
*4 out[0]
*5 out[10]
*6 out[11]
*7 out[12]
*8 out[13]
*9 out[14]
*10 out[15]
*11 out[1]
*12 out[2]
*13 out[3]
*14 out[4]
*15 out[5]
*16 out[6]
*17 out[7]
*18 out[8]
*19 out[9]
*20 net1
*21 net10
*22 net11
*23 net12
*24 net13
*25 net14
*26 net15
*27 net16
*28 net17
*29 net18
*30 net2
*31 net3
*32 net4
*33 net5
*34 net6
*35 net7
*36 net8
*37 net9
*38 FILLER_0_100
*39 FILLER_0_103
*40 FILLER_0_106
*41 FILLER_0_109
*42 FILLER_0_113
*43 FILLER_0_116
*44 FILLER_0_119
*45 FILLER_0_12
*46 FILLER_0_122
*47 FILLER_0_125
*48 FILLER_0_128
*49 FILLER_0_131
*50 FILLER_0_134
*51 FILLER_0_137
*52 FILLER_0_141
*53 FILLER_0_144
*54 FILLER_0_147
*55 FILLER_0_15
*56 FILLER_0_150
*57 FILLER_0_153
*58 FILLER_0_156
*59 FILLER_0_159
*60 FILLER_0_162
*61 FILLER_0_165
*62 FILLER_0_169
*63 FILLER_0_172
*64 FILLER_0_175
*65 FILLER_0_178
*66 FILLER_0_18
*67 FILLER_0_181
*68 FILLER_0_184
*69 FILLER_0_187
*70 FILLER_0_190
*71 FILLER_0_193
*72 FILLER_0_197
*73 FILLER_0_207
*74 FILLER_0_21
*75 FILLER_0_210
*76 FILLER_0_213
*77 FILLER_0_216
*78 FILLER_0_219
*79 FILLER_0_222
*80 FILLER_0_225
*81 FILLER_0_228
*82 FILLER_0_231
*83 FILLER_0_234
*84 FILLER_0_237
*85 FILLER_0_24
*86 FILLER_0_240
*87 FILLER_0_243
*88 FILLER_0_246
*89 FILLER_0_249
*90 FILLER_0_253
*91 FILLER_0_256
*92 FILLER_0_259
*93 FILLER_0_262
*94 FILLER_0_265
*95 FILLER_0_268
*96 FILLER_0_27
*97 FILLER_0_271
*98 FILLER_0_274
*99 FILLER_0_277
*100 FILLER_0_281
*101 FILLER_0_284
*102 FILLER_0_287
*103 FILLER_0_29
*104 FILLER_0_290
*105 FILLER_0_293
*106 FILLER_0_296
*107 FILLER_0_299
*108 FILLER_0_3
*109 FILLER_0_302
*110 FILLER_0_305
*111 FILLER_0_309
*112 FILLER_0_312
*113 FILLER_0_315
*114 FILLER_0_318
*115 FILLER_0_32
*116 FILLER_0_321
*117 FILLER_0_324
*118 FILLER_0_327
*119 FILLER_0_337
*120 FILLER_0_340
*121 FILLER_0_343
*122 FILLER_0_346
*123 FILLER_0_349
*124 FILLER_0_35
*125 FILLER_0_352
*126 FILLER_0_355
*127 FILLER_0_358
*128 FILLER_0_361
*129 FILLER_0_365
*130 FILLER_0_368
*131 FILLER_0_371
*132 FILLER_0_374
*133 FILLER_0_377
*134 FILLER_0_38
*135 FILLER_0_380
*136 FILLER_0_383
*137 FILLER_0_386
*138 FILLER_0_389
*139 FILLER_0_393
*140 FILLER_0_396
*141 FILLER_0_399
*142 FILLER_0_402
*143 FILLER_0_405
*144 FILLER_0_408
*145 FILLER_0_41
*146 FILLER_0_411
*147 FILLER_0_414
*148 FILLER_0_417
*149 FILLER_0_421
*150 FILLER_0_424
*151 FILLER_0_427
*152 FILLER_0_430
*153 FILLER_0_433
*154 FILLER_0_436
*155 FILLER_0_439
*156 FILLER_0_44
*157 FILLER_0_442
*158 FILLER_0_445
*159 FILLER_0_449
*160 FILLER_0_452
*161 FILLER_0_455
*162 FILLER_0_458
*163 FILLER_0_467
*164 FILLER_0_47
*165 FILLER_0_470
*166 FILLER_0_473
*167 FILLER_0_477
*168 FILLER_0_480
*169 FILLER_0_483
*170 FILLER_0_486
*171 FILLER_0_489
*172 FILLER_0_492
*173 FILLER_0_495
*174 FILLER_0_498
*175 FILLER_0_50
*176 FILLER_0_501
*177 FILLER_0_505
*178 FILLER_0_508
*179 FILLER_0_511
*180 FILLER_0_514
*181 FILLER_0_517
*182 FILLER_0_520
*183 FILLER_0_523
*184 FILLER_0_526
*185 FILLER_0_529
*186 FILLER_0_53
*187 FILLER_0_533
*188 FILLER_0_536
*189 FILLER_0_539
*190 FILLER_0_542
*191 FILLER_0_545
*192 FILLER_0_548
*193 FILLER_0_551
*194 FILLER_0_554
*195 FILLER_0_557
*196 FILLER_0_561
*197 FILLER_0_564
*198 FILLER_0_567
*199 FILLER_0_57
*200 FILLER_0_570
*201 FILLER_0_6
*202 FILLER_0_60
*203 FILLER_0_63
*204 FILLER_0_66
*205 FILLER_0_69
*206 FILLER_0_72
*207 FILLER_0_75
*208 FILLER_0_78
*209 FILLER_0_81
*210 FILLER_0_85
*211 FILLER_0_88
*212 FILLER_0_9
*213 FILLER_0_91
*214 FILLER_0_94
*215 FILLER_0_97
*216 FILLER_10_531
*217 FILLER_10_534
*218 FILLER_10_537
*219 FILLER_10_540
*220 FILLER_10_543
*221 FILLER_10_546
*222 FILLER_10_549
*223 FILLER_10_552
*224 FILLER_10_555
*225 FILLER_10_557
*226 FILLER_10_560
*227 FILLER_10_563
*228 FILLER_10_566
*229 FILLER_10_569
*230 FILLER_10_572
*231 FILLER_11_531
*232 FILLER_11_534
*233 FILLER_11_537
*234 FILLER_11_540
*235 FILLER_11_543
*236 FILLER_11_546
*237 FILLER_11_549
*238 FILLER_11_552
*239 FILLER_11_555
*240 FILLER_11_558
*241 FILLER_11_561
*242 FILLER_11_564
*243 FILLER_11_567
*244 FILLER_11_570
*245 FILLER_12_531
*246 FILLER_12_534
*247 FILLER_12_537
*248 FILLER_12_540
*249 FILLER_12_543
*250 FILLER_12_546
*251 FILLER_12_549
*252 FILLER_12_552
*253 FILLER_12_555
*254 FILLER_12_557
*255 FILLER_12_560
*256 FILLER_12_563
*257 FILLER_12_566
*258 FILLER_12_569
*259 FILLER_12_572
*260 FILLER_13_531
*261 FILLER_13_534
*262 FILLER_13_537
*263 FILLER_13_540
*264 FILLER_13_543
*265 FILLER_13_546
*266 FILLER_13_549
*267 FILLER_13_552
*268 FILLER_13_555
*269 FILLER_13_558
*270 FILLER_13_561
*271 FILLER_13_564
*272 FILLER_13_567
*273 FILLER_13_570
*274 FILLER_14_531
*275 FILLER_14_534
*276 FILLER_14_537
*277 FILLER_14_540
*278 FILLER_14_543
*279 FILLER_14_546
*280 FILLER_14_549
*281 FILLER_14_552
*282 FILLER_14_555
*283 FILLER_14_557
*284 FILLER_14_560
*285 FILLER_14_563
*286 FILLER_14_566
*287 FILLER_14_569
*288 FILLER_14_572
*289 FILLER_15_531
*290 FILLER_15_534
*291 FILLER_15_537
*292 FILLER_15_540
*293 FILLER_15_543
*294 FILLER_15_546
*295 FILLER_15_549
*296 FILLER_15_552
*297 FILLER_15_555
*298 FILLER_15_558
*299 FILLER_15_561
*300 FILLER_15_564
*301 FILLER_15_567
*302 FILLER_15_570
*303 FILLER_16_531
*304 FILLER_16_534
*305 FILLER_16_537
*306 FILLER_16_540
*307 FILLER_16_543
*308 FILLER_16_546
*309 FILLER_16_549
*310 FILLER_16_552
*311 FILLER_16_555
*312 FILLER_16_557
*313 FILLER_16_560
*314 FILLER_16_563
*315 FILLER_16_566
*316 FILLER_16_569
*317 FILLER_16_572
*318 FILLER_17_531
*319 FILLER_17_534
*320 FILLER_17_537
*321 FILLER_17_540
*322 FILLER_17_543
*323 FILLER_17_546
*324 FILLER_17_549
*325 FILLER_17_552
*326 FILLER_17_555
*327 FILLER_17_558
*328 FILLER_17_561
*329 FILLER_17_564
*330 FILLER_17_567
*331 FILLER_17_570
*332 FILLER_18_531
*333 FILLER_18_534
*334 FILLER_18_537
*335 FILLER_18_540
*336 FILLER_18_543
*337 FILLER_18_546
*338 FILLER_18_549
*339 FILLER_18_552
*340 FILLER_18_555
*341 FILLER_18_557
*342 FILLER_18_560
*343 FILLER_18_563
*344 FILLER_18_566
*345 FILLER_18_569
*346 FILLER_18_572
*347 FILLER_19_100
*348 FILLER_19_103
*349 FILLER_19_106
*350 FILLER_19_109
*351 FILLER_19_11
*352 FILLER_19_113
*353 FILLER_19_116
*354 FILLER_19_119
*355 FILLER_19_122
*356 FILLER_19_125
*357 FILLER_19_128
*358 FILLER_19_131
*359 FILLER_19_134
*360 FILLER_19_137
*361 FILLER_19_14
*362 FILLER_19_141
*363 FILLER_19_144
*364 FILLER_19_147
*365 FILLER_19_150
*366 FILLER_19_153
*367 FILLER_19_156
*368 FILLER_19_159
*369 FILLER_19_162
*370 FILLER_19_165
*371 FILLER_19_169
*372 FILLER_19_17
*373 FILLER_19_172
*374 FILLER_19_175
*375 FILLER_19_178
*376 FILLER_19_181
*377 FILLER_19_184
*378 FILLER_19_187
*379 FILLER_19_190
*380 FILLER_19_193
*381 FILLER_19_197
*382 FILLER_19_20
*383 FILLER_19_200
*384 FILLER_19_203
*385 FILLER_19_206
*386 FILLER_19_209
*387 FILLER_19_212
*388 FILLER_19_215
*389 FILLER_19_218
*390 FILLER_19_221
*391 FILLER_19_225
*392 FILLER_19_228
*393 FILLER_19_23
*394 FILLER_19_231
*395 FILLER_19_234
*396 FILLER_19_237
*397 FILLER_19_240
*398 FILLER_19_243
*399 FILLER_19_246
*400 FILLER_19_249
*401 FILLER_19_253
*402 FILLER_19_256
*403 FILLER_19_259
*404 FILLER_19_26
*405 FILLER_19_262
*406 FILLER_19_265
*407 FILLER_19_268
*408 FILLER_19_271
*409 FILLER_19_274
*410 FILLER_19_277
*411 FILLER_19_281
*412 FILLER_19_284
*413 FILLER_19_287
*414 FILLER_19_29
*415 FILLER_19_290
*416 FILLER_19_293
*417 FILLER_19_296
*418 FILLER_19_299
*419 FILLER_19_302
*420 FILLER_19_305
*421 FILLER_19_309
*422 FILLER_19_312
*423 FILLER_19_315
*424 FILLER_19_318
*425 FILLER_19_32
*426 FILLER_19_321
*427 FILLER_19_324
*428 FILLER_19_327
*429 FILLER_19_330
*430 FILLER_19_333
*431 FILLER_19_337
*432 FILLER_19_340
*433 FILLER_19_343
*434 FILLER_19_346
*435 FILLER_19_349
*436 FILLER_19_35
*437 FILLER_19_352
*438 FILLER_19_355
*439 FILLER_19_358
*440 FILLER_19_361
*441 FILLER_19_365
*442 FILLER_19_368
*443 FILLER_19_371
*444 FILLER_19_374
*445 FILLER_19_377
*446 FILLER_19_38
*447 FILLER_19_380
*448 FILLER_19_383
*449 FILLER_19_386
*450 FILLER_19_389
*451 FILLER_19_393
*452 FILLER_19_396
*453 FILLER_19_399
*454 FILLER_19_402
*455 FILLER_19_405
*456 FILLER_19_408
*457 FILLER_19_41
*458 FILLER_19_411
*459 FILLER_19_414
*460 FILLER_19_417
*461 FILLER_19_421
*462 FILLER_19_424
*463 FILLER_19_427
*464 FILLER_19_430
*465 FILLER_19_433
*466 FILLER_19_436
*467 FILLER_19_439
*468 FILLER_19_44
*469 FILLER_19_442
*470 FILLER_19_445
*471 FILLER_19_449
*472 FILLER_19_452
*473 FILLER_19_455
*474 FILLER_19_458
*475 FILLER_19_461
*476 FILLER_19_464
*477 FILLER_19_467
*478 FILLER_19_47
*479 FILLER_19_470
*480 FILLER_19_473
*481 FILLER_19_477
*482 FILLER_19_480
*483 FILLER_19_483
*484 FILLER_19_486
*485 FILLER_19_489
*486 FILLER_19_492
*487 FILLER_19_495
*488 FILLER_19_498
*489 FILLER_19_50
*490 FILLER_19_501
*491 FILLER_19_505
*492 FILLER_19_508
*493 FILLER_19_511
*494 FILLER_19_514
*495 FILLER_19_517
*496 FILLER_19_520
*497 FILLER_19_523
*498 FILLER_19_526
*499 FILLER_19_529
*500 FILLER_19_53
*501 FILLER_19_533
*502 FILLER_19_536
*503 FILLER_19_539
*504 FILLER_19_542
*505 FILLER_19_545
*506 FILLER_19_548
*507 FILLER_19_551
*508 FILLER_19_554
*509 FILLER_19_557
*510 FILLER_19_561
*511 FILLER_19_564
*512 FILLER_19_567
*513 FILLER_19_57
*514 FILLER_19_570
*515 FILLER_19_60
*516 FILLER_19_63
*517 FILLER_19_66
*518 FILLER_19_69
*519 FILLER_19_72
*520 FILLER_19_75
*521 FILLER_19_78
*522 FILLER_19_81
*523 FILLER_19_85
*524 FILLER_19_88
*525 FILLER_19_91
*526 FILLER_19_94
*527 FILLER_19_97
*528 FILLER_1_100
*529 FILLER_1_103
*530 FILLER_1_106
*531 FILLER_1_109
*532 FILLER_1_113
*533 FILLER_1_116
*534 FILLER_1_119
*535 FILLER_1_12
*536 FILLER_1_122
*537 FILLER_1_125
*538 FILLER_1_128
*539 FILLER_1_131
*540 FILLER_1_134
*541 FILLER_1_137
*542 FILLER_1_141
*543 FILLER_1_144
*544 FILLER_1_147
*545 FILLER_1_15
*546 FILLER_1_150
*547 FILLER_1_153
*548 FILLER_1_156
*549 FILLER_1_159
*550 FILLER_1_162
*551 FILLER_1_165
*552 FILLER_1_169
*553 FILLER_1_172
*554 FILLER_1_175
*555 FILLER_1_178
*556 FILLER_1_18
*557 FILLER_1_181
*558 FILLER_1_184
*559 FILLER_1_187
*560 FILLER_1_190
*561 FILLER_1_193
*562 FILLER_1_197
*563 FILLER_1_200
*564 FILLER_1_203
*565 FILLER_1_206
*566 FILLER_1_209
*567 FILLER_1_21
*568 FILLER_1_212
*569 FILLER_1_215
*570 FILLER_1_218
*571 FILLER_1_221
*572 FILLER_1_225
*573 FILLER_1_228
*574 FILLER_1_231
*575 FILLER_1_234
*576 FILLER_1_237
*577 FILLER_1_24
*578 FILLER_1_240
*579 FILLER_1_243
*580 FILLER_1_246
*581 FILLER_1_249
*582 FILLER_1_253
*583 FILLER_1_256
*584 FILLER_1_259
*585 FILLER_1_262
*586 FILLER_1_265
*587 FILLER_1_268
*588 FILLER_1_27
*589 FILLER_1_271
*590 FILLER_1_274
*591 FILLER_1_277
*592 FILLER_1_281
*593 FILLER_1_284
*594 FILLER_1_287
*595 FILLER_1_29
*596 FILLER_1_290
*597 FILLER_1_293
*598 FILLER_1_296
*599 FILLER_1_299
*600 FILLER_1_3
*601 FILLER_1_302
*602 FILLER_1_305
*603 FILLER_1_309
*604 FILLER_1_312
*605 FILLER_1_315
*606 FILLER_1_318
*607 FILLER_1_32
*608 FILLER_1_321
*609 FILLER_1_324
*610 FILLER_1_327
*611 FILLER_1_330
*612 FILLER_1_333
*613 FILLER_1_345
*614 FILLER_1_348
*615 FILLER_1_35
*616 FILLER_1_351
*617 FILLER_1_354
*618 FILLER_1_357
*619 FILLER_1_360
*620 FILLER_1_363
*621 FILLER_1_365
*622 FILLER_1_368
*623 FILLER_1_371
*624 FILLER_1_374
*625 FILLER_1_377
*626 FILLER_1_38
*627 FILLER_1_380
*628 FILLER_1_383
*629 FILLER_1_386
*630 FILLER_1_389
*631 FILLER_1_393
*632 FILLER_1_396
*633 FILLER_1_399
*634 FILLER_1_402
*635 FILLER_1_405
*636 FILLER_1_408
*637 FILLER_1_41
*638 FILLER_1_411
*639 FILLER_1_414
*640 FILLER_1_417
*641 FILLER_1_421
*642 FILLER_1_424
*643 FILLER_1_427
*644 FILLER_1_430
*645 FILLER_1_433
*646 FILLER_1_436
*647 FILLER_1_439
*648 FILLER_1_44
*649 FILLER_1_442
*650 FILLER_1_445
*651 FILLER_1_449
*652 FILLER_1_452
*653 FILLER_1_455
*654 FILLER_1_458
*655 FILLER_1_461
*656 FILLER_1_464
*657 FILLER_1_467
*658 FILLER_1_47
*659 FILLER_1_470
*660 FILLER_1_473
*661 FILLER_1_477
*662 FILLER_1_480
*663 FILLER_1_483
*664 FILLER_1_486
*665 FILLER_1_489
*666 FILLER_1_492
*667 FILLER_1_495
*668 FILLER_1_498
*669 FILLER_1_50
*670 FILLER_1_501
*671 FILLER_1_505
*672 FILLER_1_508
*673 FILLER_1_511
*674 FILLER_1_514
*675 FILLER_1_517
*676 FILLER_1_520
*677 FILLER_1_523
*678 FILLER_1_526
*679 FILLER_1_529
*680 FILLER_1_53
*681 FILLER_1_533
*682 FILLER_1_536
*683 FILLER_1_539
*684 FILLER_1_542
*685 FILLER_1_545
*686 FILLER_1_548
*687 FILLER_1_551
*688 FILLER_1_554
*689 FILLER_1_557
*690 FILLER_1_561
*691 FILLER_1_564
*692 FILLER_1_567
*693 FILLER_1_57
*694 FILLER_1_570
*695 FILLER_1_6
*696 FILLER_1_60
*697 FILLER_1_63
*698 FILLER_1_66
*699 FILLER_1_69
*700 FILLER_1_72
*701 FILLER_1_75
*702 FILLER_1_85
*703 FILLER_1_88
*704 FILLER_1_9
*705 FILLER_1_91
*706 FILLER_1_94
*707 FILLER_1_97
*708 FILLER_20_100
*709 FILLER_20_103
*710 FILLER_20_106
*711 FILLER_20_109
*712 FILLER_20_113
*713 FILLER_20_116
*714 FILLER_20_119
*715 FILLER_20_12
*716 FILLER_20_122
*717 FILLER_20_125
*718 FILLER_20_128
*719 FILLER_20_131
*720 FILLER_20_134
*721 FILLER_20_137
*722 FILLER_20_141
*723 FILLER_20_144
*724 FILLER_20_147
*725 FILLER_20_15
*726 FILLER_20_150
*727 FILLER_20_153
*728 FILLER_20_156
*729 FILLER_20_159
*730 FILLER_20_162
*731 FILLER_20_165
*732 FILLER_20_169
*733 FILLER_20_172
*734 FILLER_20_175
*735 FILLER_20_178
*736 FILLER_20_18
*737 FILLER_20_181
*738 FILLER_20_184
*739 FILLER_20_187
*740 FILLER_20_190
*741 FILLER_20_193
*742 FILLER_20_197
*743 FILLER_20_200
*744 FILLER_20_203
*745 FILLER_20_206
*746 FILLER_20_209
*747 FILLER_20_21
*748 FILLER_20_212
*749 FILLER_20_215
*750 FILLER_20_218
*751 FILLER_20_221
*752 FILLER_20_225
*753 FILLER_20_228
*754 FILLER_20_231
*755 FILLER_20_234
*756 FILLER_20_237
*757 FILLER_20_24
*758 FILLER_20_240
*759 FILLER_20_243
*760 FILLER_20_246
*761 FILLER_20_249
*762 FILLER_20_253
*763 FILLER_20_256
*764 FILLER_20_259
*765 FILLER_20_262
*766 FILLER_20_265
*767 FILLER_20_268
*768 FILLER_20_27
*769 FILLER_20_271
*770 FILLER_20_274
*771 FILLER_20_277
*772 FILLER_20_281
*773 FILLER_20_284
*774 FILLER_20_287
*775 FILLER_20_29
*776 FILLER_20_290
*777 FILLER_20_293
*778 FILLER_20_296
*779 FILLER_20_299
*780 FILLER_20_3
*781 FILLER_20_302
*782 FILLER_20_305
*783 FILLER_20_309
*784 FILLER_20_312
*785 FILLER_20_315
*786 FILLER_20_318
*787 FILLER_20_32
*788 FILLER_20_321
*789 FILLER_20_324
*790 FILLER_20_327
*791 FILLER_20_330
*792 FILLER_20_333
*793 FILLER_20_337
*794 FILLER_20_340
*795 FILLER_20_343
*796 FILLER_20_346
*797 FILLER_20_349
*798 FILLER_20_35
*799 FILLER_20_352
*800 FILLER_20_355
*801 FILLER_20_358
*802 FILLER_20_361
*803 FILLER_20_365
*804 FILLER_20_368
*805 FILLER_20_371
*806 FILLER_20_374
*807 FILLER_20_377
*808 FILLER_20_38
*809 FILLER_20_380
*810 FILLER_20_383
*811 FILLER_20_386
*812 FILLER_20_389
*813 FILLER_20_393
*814 FILLER_20_396
*815 FILLER_20_399
*816 FILLER_20_402
*817 FILLER_20_405
*818 FILLER_20_408
*819 FILLER_20_41
*820 FILLER_20_411
*821 FILLER_20_414
*822 FILLER_20_417
*823 FILLER_20_421
*824 FILLER_20_424
*825 FILLER_20_427
*826 FILLER_20_430
*827 FILLER_20_433
*828 FILLER_20_436
*829 FILLER_20_439
*830 FILLER_20_44
*831 FILLER_20_442
*832 FILLER_20_445
*833 FILLER_20_449
*834 FILLER_20_452
*835 FILLER_20_455
*836 FILLER_20_458
*837 FILLER_20_461
*838 FILLER_20_464
*839 FILLER_20_467
*840 FILLER_20_47
*841 FILLER_20_470
*842 FILLER_20_473
*843 FILLER_20_477
*844 FILLER_20_480
*845 FILLER_20_483
*846 FILLER_20_486
*847 FILLER_20_489
*848 FILLER_20_492
*849 FILLER_20_495
*850 FILLER_20_498
*851 FILLER_20_50
*852 FILLER_20_501
*853 FILLER_20_505
*854 FILLER_20_508
*855 FILLER_20_511
*856 FILLER_20_514
*857 FILLER_20_517
*858 FILLER_20_520
*859 FILLER_20_523
*860 FILLER_20_526
*861 FILLER_20_529
*862 FILLER_20_53
*863 FILLER_20_533
*864 FILLER_20_536
*865 FILLER_20_539
*866 FILLER_20_542
*867 FILLER_20_545
*868 FILLER_20_548
*869 FILLER_20_551
*870 FILLER_20_554
*871 FILLER_20_557
*872 FILLER_20_561
*873 FILLER_20_564
*874 FILLER_20_567
*875 FILLER_20_57
*876 FILLER_20_570
*877 FILLER_20_6
*878 FILLER_20_60
*879 FILLER_20_63
*880 FILLER_20_66
*881 FILLER_20_69
*882 FILLER_20_72
*883 FILLER_20_75
*884 FILLER_20_78
*885 FILLER_20_81
*886 FILLER_20_85
*887 FILLER_20_88
*888 FILLER_20_9
*889 FILLER_20_91
*890 FILLER_20_94
*891 FILLER_20_97
*892 FILLER_21_531
*893 FILLER_21_534
*894 FILLER_21_537
*895 FILLER_21_540
*896 FILLER_21_543
*897 FILLER_21_546
*898 FILLER_21_549
*899 FILLER_21_552
*900 FILLER_21_555
*901 FILLER_21_558
*902 FILLER_21_561
*903 FILLER_21_564
*904 FILLER_21_567
*905 FILLER_21_570
*906 FILLER_22_531
*907 FILLER_22_534
*908 FILLER_22_537
*909 FILLER_22_540
*910 FILLER_22_543
*911 FILLER_22_546
*912 FILLER_22_549
*913 FILLER_22_552
*914 FILLER_22_555
*915 FILLER_22_557
*916 FILLER_22_560
*917 FILLER_22_563
*918 FILLER_22_566
*919 FILLER_22_569
*920 FILLER_22_572
*921 FILLER_23_531
*922 FILLER_23_534
*923 FILLER_23_537
*924 FILLER_23_540
*925 FILLER_23_543
*926 FILLER_23_546
*927 FILLER_23_549
*928 FILLER_23_552
*929 FILLER_23_555
*930 FILLER_23_558
*931 FILLER_23_561
*932 FILLER_23_564
*933 FILLER_23_567
*934 FILLER_23_570
*935 FILLER_24_531
*936 FILLER_24_534
*937 FILLER_24_537
*938 FILLER_24_540
*939 FILLER_24_543
*940 FILLER_24_546
*941 FILLER_24_549
*942 FILLER_24_552
*943 FILLER_24_555
*944 FILLER_24_557
*945 FILLER_24_560
*946 FILLER_24_563
*947 FILLER_24_566
*948 FILLER_24_569
*949 FILLER_24_572
*950 FILLER_25_531
*951 FILLER_25_534
*952 FILLER_25_537
*953 FILLER_25_540
*954 FILLER_25_543
*955 FILLER_25_546
*956 FILLER_25_549
*957 FILLER_25_552
*958 FILLER_25_555
*959 FILLER_25_558
*960 FILLER_25_561
*961 FILLER_25_564
*962 FILLER_25_567
*963 FILLER_25_570
*964 FILLER_26_531
*965 FILLER_26_534
*966 FILLER_26_537
*967 FILLER_26_540
*968 FILLER_26_543
*969 FILLER_26_546
*970 FILLER_26_549
*971 FILLER_26_552
*972 FILLER_26_555
*973 FILLER_26_557
*974 FILLER_26_560
*975 FILLER_26_563
*976 FILLER_26_566
*977 FILLER_26_569
*978 FILLER_26_572
*979 FILLER_27_531
*980 FILLER_27_534
*981 FILLER_27_537
*982 FILLER_27_540
*983 FILLER_27_543
*984 FILLER_27_546
*985 FILLER_27_549
*986 FILLER_27_552
*987 FILLER_27_555
*988 FILLER_27_558
*989 FILLER_27_561
*990 FILLER_27_564
*991 FILLER_27_567
*992 FILLER_27_570
*993 FILLER_28_531
*994 FILLER_28_534
*995 FILLER_28_537
*996 FILLER_28_540
*997 FILLER_28_543
*998 FILLER_28_546
*999 FILLER_28_549
*1000 FILLER_28_552
*1001 FILLER_28_555
*1002 FILLER_28_557
*1003 FILLER_28_560
*1004 FILLER_28_563
*1005 FILLER_28_566
*1006 FILLER_28_569
*1007 FILLER_28_572
*1008 FILLER_29_531
*1009 FILLER_29_534
*1010 FILLER_29_537
*1011 FILLER_29_540
*1012 FILLER_29_543
*1013 FILLER_29_546
*1014 FILLER_29_549
*1015 FILLER_29_552
*1016 FILLER_29_555
*1017 FILLER_29_558
*1018 FILLER_29_561
*1019 FILLER_29_564
*1020 FILLER_29_567
*1021 FILLER_29_570
*1022 FILLER_2_531
*1023 FILLER_2_534
*1024 FILLER_2_537
*1025 FILLER_2_540
*1026 FILLER_2_543
*1027 FILLER_2_546
*1028 FILLER_2_549
*1029 FILLER_2_552
*1030 FILLER_2_555
*1031 FILLER_2_557
*1032 FILLER_2_560
*1033 FILLER_2_563
*1034 FILLER_2_566
*1035 FILLER_2_569
*1036 FILLER_2_572
*1037 FILLER_30_531
*1038 FILLER_30_534
*1039 FILLER_30_537
*1040 FILLER_30_540
*1041 FILLER_30_543
*1042 FILLER_30_546
*1043 FILLER_30_549
*1044 FILLER_30_552
*1045 FILLER_30_555
*1046 FILLER_30_557
*1047 FILLER_30_560
*1048 FILLER_30_563
*1049 FILLER_30_566
*1050 FILLER_30_569
*1051 FILLER_30_572
*1052 FILLER_31_531
*1053 FILLER_31_534
*1054 FILLER_31_537
*1055 FILLER_31_540
*1056 FILLER_31_543
*1057 FILLER_31_546
*1058 FILLER_31_549
*1059 FILLER_31_552
*1060 FILLER_31_555
*1061 FILLER_31_558
*1062 FILLER_31_561
*1063 FILLER_31_564
*1064 FILLER_31_567
*1065 FILLER_31_570
*1066 FILLER_32_531
*1067 FILLER_32_534
*1068 FILLER_32_537
*1069 FILLER_32_540
*1070 FILLER_32_543
*1071 FILLER_32_546
*1072 FILLER_32_549
*1073 FILLER_32_552
*1074 FILLER_32_555
*1075 FILLER_32_557
*1076 FILLER_32_560
*1077 FILLER_32_563
*1078 FILLER_32_566
*1079 FILLER_32_569
*1080 FILLER_32_572
*1081 FILLER_33_531
*1082 FILLER_33_534
*1083 FILLER_33_537
*1084 FILLER_33_540
*1085 FILLER_33_543
*1086 FILLER_33_546
*1087 FILLER_33_549
*1088 FILLER_33_552
*1089 FILLER_33_555
*1090 FILLER_33_558
*1091 FILLER_33_561
*1092 FILLER_33_564
*1093 FILLER_33_567
*1094 FILLER_33_570
*1095 FILLER_34_531
*1096 FILLER_34_534
*1097 FILLER_34_537
*1098 FILLER_34_540
*1099 FILLER_34_543
*1100 FILLER_34_546
*1101 FILLER_34_549
*1102 FILLER_34_552
*1103 FILLER_34_555
*1104 FILLER_34_557
*1105 FILLER_34_560
*1106 FILLER_34_563
*1107 FILLER_34_566
*1108 FILLER_34_569
*1109 FILLER_34_572
*1110 FILLER_35_531
*1111 FILLER_35_534
*1112 FILLER_35_537
*1113 FILLER_35_540
*1114 FILLER_35_543
*1115 FILLER_35_546
*1116 FILLER_35_549
*1117 FILLER_35_552
*1118 FILLER_35_555
*1119 FILLER_35_558
*1120 FILLER_35_561
*1121 FILLER_35_564
*1122 FILLER_35_567
*1123 FILLER_35_570
*1124 FILLER_36_531
*1125 FILLER_36_534
*1126 FILLER_36_537
*1127 FILLER_36_540
*1128 FILLER_36_543
*1129 FILLER_36_546
*1130 FILLER_36_549
*1131 FILLER_36_552
*1132 FILLER_36_555
*1133 FILLER_36_557
*1134 FILLER_36_560
*1135 FILLER_36_563
*1136 FILLER_37_531
*1137 FILLER_37_534
*1138 FILLER_37_537
*1139 FILLER_37_540
*1140 FILLER_37_543
*1141 FILLER_37_546
*1142 FILLER_37_549
*1143 FILLER_37_552
*1144 FILLER_37_555
*1145 FILLER_37_558
*1146 FILLER_37_561
*1147 FILLER_37_564
*1148 FILLER_38_100
*1149 FILLER_38_103
*1150 FILLER_38_106
*1151 FILLER_38_109
*1152 FILLER_38_113
*1153 FILLER_38_116
*1154 FILLER_38_119
*1155 FILLER_38_122
*1156 FILLER_38_125
*1157 FILLER_38_128
*1158 FILLER_38_131
*1159 FILLER_38_134
*1160 FILLER_38_137
*1161 FILLER_38_141
*1162 FILLER_38_144
*1163 FILLER_38_147
*1164 FILLER_38_150
*1165 FILLER_38_153
*1166 FILLER_38_156
*1167 FILLER_38_159
*1168 FILLER_38_162
*1169 FILLER_38_165
*1170 FILLER_38_169
*1171 FILLER_38_172
*1172 FILLER_38_175
*1173 FILLER_38_178
*1174 FILLER_38_181
*1175 FILLER_38_184
*1176 FILLER_38_187
*1177 FILLER_38_19
*1178 FILLER_38_190
*1179 FILLER_38_193
*1180 FILLER_38_197
*1181 FILLER_38_200
*1182 FILLER_38_203
*1183 FILLER_38_206
*1184 FILLER_38_209
*1185 FILLER_38_212
*1186 FILLER_38_215
*1187 FILLER_38_218
*1188 FILLER_38_22
*1189 FILLER_38_221
*1190 FILLER_38_225
*1191 FILLER_38_228
*1192 FILLER_38_231
*1193 FILLER_38_234
*1194 FILLER_38_237
*1195 FILLER_38_240
*1196 FILLER_38_243
*1197 FILLER_38_246
*1198 FILLER_38_249
*1199 FILLER_38_25
*1200 FILLER_38_253
*1201 FILLER_38_256
*1202 FILLER_38_259
*1203 FILLER_38_262
*1204 FILLER_38_265
*1205 FILLER_38_268
*1206 FILLER_38_271
*1207 FILLER_38_274
*1208 FILLER_38_277
*1209 FILLER_38_281
*1210 FILLER_38_284
*1211 FILLER_38_287
*1212 FILLER_38_29
*1213 FILLER_38_290
*1214 FILLER_38_293
*1215 FILLER_38_296
*1216 FILLER_38_299
*1217 FILLER_38_302
*1218 FILLER_38_305
*1219 FILLER_38_309
*1220 FILLER_38_312
*1221 FILLER_38_315
*1222 FILLER_38_318
*1223 FILLER_38_32
*1224 FILLER_38_321
*1225 FILLER_38_324
*1226 FILLER_38_327
*1227 FILLER_38_330
*1228 FILLER_38_333
*1229 FILLER_38_337
*1230 FILLER_38_340
*1231 FILLER_38_343
*1232 FILLER_38_346
*1233 FILLER_38_349
*1234 FILLER_38_35
*1235 FILLER_38_352
*1236 FILLER_38_355
*1237 FILLER_38_358
*1238 FILLER_38_361
*1239 FILLER_38_365
*1240 FILLER_38_368
*1241 FILLER_38_371
*1242 FILLER_38_374
*1243 FILLER_38_377
*1244 FILLER_38_38
*1245 FILLER_38_380
*1246 FILLER_38_383
*1247 FILLER_38_386
*1248 FILLER_38_389
*1249 FILLER_38_393
*1250 FILLER_38_396
*1251 FILLER_38_399
*1252 FILLER_38_402
*1253 FILLER_38_405
*1254 FILLER_38_408
*1255 FILLER_38_41
*1256 FILLER_38_411
*1257 FILLER_38_414
*1258 FILLER_38_417
*1259 FILLER_38_421
*1260 FILLER_38_424
*1261 FILLER_38_427
*1262 FILLER_38_430
*1263 FILLER_38_433
*1264 FILLER_38_436
*1265 FILLER_38_439
*1266 FILLER_38_44
*1267 FILLER_38_442
*1268 FILLER_38_445
*1269 FILLER_38_449
*1270 FILLER_38_452
*1271 FILLER_38_455
*1272 FILLER_38_458
*1273 FILLER_38_461
*1274 FILLER_38_464
*1275 FILLER_38_467
*1276 FILLER_38_47
*1277 FILLER_38_470
*1278 FILLER_38_473
*1279 FILLER_38_477
*1280 FILLER_38_480
*1281 FILLER_38_483
*1282 FILLER_38_486
*1283 FILLER_38_489
*1284 FILLER_38_492
*1285 FILLER_38_495
*1286 FILLER_38_498
*1287 FILLER_38_50
*1288 FILLER_38_501
*1289 FILLER_38_505
*1290 FILLER_38_508
*1291 FILLER_38_511
*1292 FILLER_38_514
*1293 FILLER_38_517
*1294 FILLER_38_520
*1295 FILLER_38_523
*1296 FILLER_38_526
*1297 FILLER_38_529
*1298 FILLER_38_53
*1299 FILLER_38_533
*1300 FILLER_38_536
*1301 FILLER_38_539
*1302 FILLER_38_542
*1303 FILLER_38_545
*1304 FILLER_38_548
*1305 FILLER_38_551
*1306 FILLER_38_554
*1307 FILLER_38_557
*1308 FILLER_38_561
*1309 FILLER_38_564
*1310 FILLER_38_567
*1311 FILLER_38_57
*1312 FILLER_38_570
*1313 FILLER_38_60
*1314 FILLER_38_63
*1315 FILLER_38_66
*1316 FILLER_38_69
*1317 FILLER_38_72
*1318 FILLER_38_75
*1319 FILLER_38_78
*1320 FILLER_38_81
*1321 FILLER_38_85
*1322 FILLER_38_88
*1323 FILLER_38_91
*1324 FILLER_38_94
*1325 FILLER_38_97
*1326 FILLER_39_531
*1327 FILLER_39_534
*1328 FILLER_39_537
*1329 FILLER_39_540
*1330 FILLER_39_543
*1331 FILLER_39_546
*1332 FILLER_39_549
*1333 FILLER_39_552
*1334 FILLER_39_555
*1335 FILLER_39_558
*1336 FILLER_39_561
*1337 FILLER_39_564
*1338 FILLER_39_567
*1339 FILLER_39_570
*1340 FILLER_3_531
*1341 FILLER_3_534
*1342 FILLER_3_537
*1343 FILLER_3_540
*1344 FILLER_3_543
*1345 FILLER_3_546
*1346 FILLER_3_549
*1347 FILLER_3_552
*1348 FILLER_3_555
*1349 FILLER_3_558
*1350 FILLER_3_561
*1351 FILLER_3_564
*1352 FILLER_3_567
*1353 FILLER_3_570
*1354 FILLER_40_531
*1355 FILLER_40_534
*1356 FILLER_40_537
*1357 FILLER_40_540
*1358 FILLER_40_543
*1359 FILLER_40_546
*1360 FILLER_40_549
*1361 FILLER_40_552
*1362 FILLER_40_555
*1363 FILLER_40_557
*1364 FILLER_40_560
*1365 FILLER_40_563
*1366 FILLER_40_566
*1367 FILLER_40_569
*1368 FILLER_40_572
*1369 FILLER_41_531
*1370 FILLER_41_534
*1371 FILLER_41_537
*1372 FILLER_41_540
*1373 FILLER_41_543
*1374 FILLER_41_546
*1375 FILLER_41_549
*1376 FILLER_41_552
*1377 FILLER_41_555
*1378 FILLER_41_558
*1379 FILLER_41_561
*1380 FILLER_41_564
*1381 FILLER_41_567
*1382 FILLER_41_570
*1383 FILLER_42_531
*1384 FILLER_42_534
*1385 FILLER_42_537
*1386 FILLER_42_540
*1387 FILLER_42_543
*1388 FILLER_42_546
*1389 FILLER_42_549
*1390 FILLER_42_552
*1391 FILLER_42_555
*1392 FILLER_42_557
*1393 FILLER_42_560
*1394 FILLER_42_563
*1395 FILLER_42_566
*1396 FILLER_42_569
*1397 FILLER_42_572
*1398 FILLER_43_531
*1399 FILLER_43_534
*1400 FILLER_43_537
*1401 FILLER_43_540
*1402 FILLER_43_543
*1403 FILLER_43_546
*1404 FILLER_43_549
*1405 FILLER_43_552
*1406 FILLER_43_555
*1407 FILLER_43_558
*1408 FILLER_43_561
*1409 FILLER_43_564
*1410 FILLER_43_567
*1411 FILLER_43_570
*1412 FILLER_44_531
*1413 FILLER_44_534
*1414 FILLER_44_537
*1415 FILLER_44_540
*1416 FILLER_44_543
*1417 FILLER_44_546
*1418 FILLER_44_549
*1419 FILLER_44_552
*1420 FILLER_44_555
*1421 FILLER_44_557
*1422 FILLER_44_560
*1423 FILLER_44_563
*1424 FILLER_44_566
*1425 FILLER_44_569
*1426 FILLER_44_572
*1427 FILLER_45_531
*1428 FILLER_45_534
*1429 FILLER_45_537
*1430 FILLER_45_540
*1431 FILLER_45_543
*1432 FILLER_45_546
*1433 FILLER_45_549
*1434 FILLER_45_552
*1435 FILLER_45_555
*1436 FILLER_45_558
*1437 FILLER_45_561
*1438 FILLER_45_564
*1439 FILLER_45_567
*1440 FILLER_45_570
*1441 FILLER_46_531
*1442 FILLER_46_534
*1443 FILLER_46_537
*1444 FILLER_46_540
*1445 FILLER_46_543
*1446 FILLER_46_546
*1447 FILLER_46_549
*1448 FILLER_46_552
*1449 FILLER_46_555
*1450 FILLER_46_557
*1451 FILLER_46_560
*1452 FILLER_46_563
*1453 FILLER_46_566
*1454 FILLER_46_569
*1455 FILLER_46_572
*1456 FILLER_47_531
*1457 FILLER_47_534
*1458 FILLER_47_537
*1459 FILLER_47_540
*1460 FILLER_47_543
*1461 FILLER_47_546
*1462 FILLER_47_549
*1463 FILLER_47_552
*1464 FILLER_47_555
*1465 FILLER_47_558
*1466 FILLER_47_561
*1467 FILLER_47_564
*1468 FILLER_47_567
*1469 FILLER_47_570
*1470 FILLER_48_531
*1471 FILLER_48_534
*1472 FILLER_48_537
*1473 FILLER_48_540
*1474 FILLER_48_543
*1475 FILLER_48_546
*1476 FILLER_48_549
*1477 FILLER_48_552
*1478 FILLER_48_555
*1479 FILLER_48_557
*1480 FILLER_48_560
*1481 FILLER_48_563
*1482 FILLER_48_566
*1483 FILLER_48_569
*1484 FILLER_48_572
*1485 FILLER_49_531
*1486 FILLER_49_534
*1487 FILLER_49_537
*1488 FILLER_49_540
*1489 FILLER_49_543
*1490 FILLER_49_546
*1491 FILLER_49_549
*1492 FILLER_49_552
*1493 FILLER_49_555
*1494 FILLER_49_558
*1495 FILLER_49_561
*1496 FILLER_49_564
*1497 FILLER_49_567
*1498 FILLER_49_570
*1499 FILLER_4_531
*1500 FILLER_4_534
*1501 FILLER_4_537
*1502 FILLER_4_540
*1503 FILLER_4_543
*1504 FILLER_4_546
*1505 FILLER_4_549
*1506 FILLER_4_552
*1507 FILLER_4_555
*1508 FILLER_4_557
*1509 FILLER_4_560
*1510 FILLER_4_563
*1511 FILLER_4_566
*1512 FILLER_4_569
*1513 FILLER_4_572
*1514 FILLER_50_531
*1515 FILLER_50_534
*1516 FILLER_50_537
*1517 FILLER_50_540
*1518 FILLER_50_543
*1519 FILLER_50_546
*1520 FILLER_50_549
*1521 FILLER_50_552
*1522 FILLER_50_555
*1523 FILLER_50_557
*1524 FILLER_50_560
*1525 FILLER_50_563
*1526 FILLER_50_566
*1527 FILLER_50_569
*1528 FILLER_50_572
*1529 FILLER_51_531
*1530 FILLER_51_534
*1531 FILLER_51_537
*1532 FILLER_51_540
*1533 FILLER_51_543
*1534 FILLER_51_546
*1535 FILLER_51_549
*1536 FILLER_51_552
*1537 FILLER_51_555
*1538 FILLER_51_558
*1539 FILLER_51_561
*1540 FILLER_51_564
*1541 FILLER_51_567
*1542 FILLER_51_570
*1543 FILLER_52_531
*1544 FILLER_52_534
*1545 FILLER_52_537
*1546 FILLER_52_540
*1547 FILLER_52_543
*1548 FILLER_52_546
*1549 FILLER_52_549
*1550 FILLER_52_552
*1551 FILLER_52_555
*1552 FILLER_52_557
*1553 FILLER_52_560
*1554 FILLER_52_563
*1555 FILLER_52_566
*1556 FILLER_52_569
*1557 FILLER_52_572
*1558 FILLER_53_531
*1559 FILLER_53_534
*1560 FILLER_53_537
*1561 FILLER_53_540
*1562 FILLER_53_543
*1563 FILLER_53_546
*1564 FILLER_53_549
*1565 FILLER_53_552
*1566 FILLER_53_555
*1567 FILLER_53_558
*1568 FILLER_53_561
*1569 FILLER_53_564
*1570 FILLER_53_567
*1571 FILLER_53_570
*1572 FILLER_54_531
*1573 FILLER_54_534
*1574 FILLER_54_537
*1575 FILLER_54_540
*1576 FILLER_54_543
*1577 FILLER_54_546
*1578 FILLER_54_549
*1579 FILLER_54_552
*1580 FILLER_54_555
*1581 FILLER_54_557
*1582 FILLER_54_560
*1583 FILLER_54_563
*1584 FILLER_54_566
*1585 FILLER_54_569
*1586 FILLER_54_572
*1587 FILLER_55_531
*1588 FILLER_55_534
*1589 FILLER_55_537
*1590 FILLER_55_540
*1591 FILLER_55_543
*1592 FILLER_55_546
*1593 FILLER_55_549
*1594 FILLER_55_552
*1595 FILLER_55_555
*1596 FILLER_55_558
*1597 FILLER_55_561
*1598 FILLER_55_564
*1599 FILLER_56_100
*1600 FILLER_56_103
*1601 FILLER_56_106
*1602 FILLER_56_109
*1603 FILLER_56_11
*1604 FILLER_56_113
*1605 FILLER_56_116
*1606 FILLER_56_119
*1607 FILLER_56_122
*1608 FILLER_56_125
*1609 FILLER_56_128
*1610 FILLER_56_131
*1611 FILLER_56_134
*1612 FILLER_56_137
*1613 FILLER_56_14
*1614 FILLER_56_141
*1615 FILLER_56_144
*1616 FILLER_56_147
*1617 FILLER_56_150
*1618 FILLER_56_153
*1619 FILLER_56_156
*1620 FILLER_56_159
*1621 FILLER_56_162
*1622 FILLER_56_165
*1623 FILLER_56_169
*1624 FILLER_56_17
*1625 FILLER_56_172
*1626 FILLER_56_175
*1627 FILLER_56_178
*1628 FILLER_56_181
*1629 FILLER_56_184
*1630 FILLER_56_187
*1631 FILLER_56_190
*1632 FILLER_56_193
*1633 FILLER_56_197
*1634 FILLER_56_20
*1635 FILLER_56_200
*1636 FILLER_56_203
*1637 FILLER_56_206
*1638 FILLER_56_209
*1639 FILLER_56_212
*1640 FILLER_56_215
*1641 FILLER_56_218
*1642 FILLER_56_221
*1643 FILLER_56_225
*1644 FILLER_56_228
*1645 FILLER_56_23
*1646 FILLER_56_231
*1647 FILLER_56_234
*1648 FILLER_56_237
*1649 FILLER_56_240
*1650 FILLER_56_243
*1651 FILLER_56_246
*1652 FILLER_56_249
*1653 FILLER_56_253
*1654 FILLER_56_256
*1655 FILLER_56_259
*1656 FILLER_56_26
*1657 FILLER_56_262
*1658 FILLER_56_265
*1659 FILLER_56_268
*1660 FILLER_56_271
*1661 FILLER_56_274
*1662 FILLER_56_277
*1663 FILLER_56_281
*1664 FILLER_56_284
*1665 FILLER_56_287
*1666 FILLER_56_29
*1667 FILLER_56_290
*1668 FILLER_56_293
*1669 FILLER_56_296
*1670 FILLER_56_299
*1671 FILLER_56_302
*1672 FILLER_56_305
*1673 FILLER_56_309
*1674 FILLER_56_312
*1675 FILLER_56_315
*1676 FILLER_56_318
*1677 FILLER_56_32
*1678 FILLER_56_321
*1679 FILLER_56_324
*1680 FILLER_56_327
*1681 FILLER_56_330
*1682 FILLER_56_333
*1683 FILLER_56_337
*1684 FILLER_56_340
*1685 FILLER_56_343
*1686 FILLER_56_346
*1687 FILLER_56_349
*1688 FILLER_56_35
*1689 FILLER_56_352
*1690 FILLER_56_355
*1691 FILLER_56_358
*1692 FILLER_56_361
*1693 FILLER_56_365
*1694 FILLER_56_368
*1695 FILLER_56_371
*1696 FILLER_56_374
*1697 FILLER_56_377
*1698 FILLER_56_38
*1699 FILLER_56_380
*1700 FILLER_56_383
*1701 FILLER_56_386
*1702 FILLER_56_389
*1703 FILLER_56_393
*1704 FILLER_56_396
*1705 FILLER_56_399
*1706 FILLER_56_402
*1707 FILLER_56_405
*1708 FILLER_56_408
*1709 FILLER_56_41
*1710 FILLER_56_411
*1711 FILLER_56_414
*1712 FILLER_56_417
*1713 FILLER_56_421
*1714 FILLER_56_424
*1715 FILLER_56_427
*1716 FILLER_56_430
*1717 FILLER_56_433
*1718 FILLER_56_436
*1719 FILLER_56_439
*1720 FILLER_56_44
*1721 FILLER_56_442
*1722 FILLER_56_445
*1723 FILLER_56_449
*1724 FILLER_56_452
*1725 FILLER_56_455
*1726 FILLER_56_458
*1727 FILLER_56_461
*1728 FILLER_56_464
*1729 FILLER_56_467
*1730 FILLER_56_47
*1731 FILLER_56_470
*1732 FILLER_56_473
*1733 FILLER_56_477
*1734 FILLER_56_480
*1735 FILLER_56_483
*1736 FILLER_56_486
*1737 FILLER_56_489
*1738 FILLER_56_492
*1739 FILLER_56_495
*1740 FILLER_56_498
*1741 FILLER_56_50
*1742 FILLER_56_501
*1743 FILLER_56_505
*1744 FILLER_56_508
*1745 FILLER_56_511
*1746 FILLER_56_514
*1747 FILLER_56_517
*1748 FILLER_56_520
*1749 FILLER_56_523
*1750 FILLER_56_526
*1751 FILLER_56_529
*1752 FILLER_56_53
*1753 FILLER_56_533
*1754 FILLER_56_536
*1755 FILLER_56_539
*1756 FILLER_56_542
*1757 FILLER_56_545
*1758 FILLER_56_548
*1759 FILLER_56_551
*1760 FILLER_56_554
*1761 FILLER_56_557
*1762 FILLER_56_561
*1763 FILLER_56_564
*1764 FILLER_56_567
*1765 FILLER_56_57
*1766 FILLER_56_570
*1767 FILLER_56_60
*1768 FILLER_56_63
*1769 FILLER_56_66
*1770 FILLER_56_69
*1771 FILLER_56_72
*1772 FILLER_56_75
*1773 FILLER_56_78
*1774 FILLER_56_81
*1775 FILLER_56_85
*1776 FILLER_56_88
*1777 FILLER_56_91
*1778 FILLER_56_94
*1779 FILLER_56_97
*1780 FILLER_57_531
*1781 FILLER_57_534
*1782 FILLER_57_537
*1783 FILLER_57_540
*1784 FILLER_57_543
*1785 FILLER_57_546
*1786 FILLER_57_549
*1787 FILLER_57_552
*1788 FILLER_57_555
*1789 FILLER_57_558
*1790 FILLER_57_561
*1791 FILLER_57_564
*1792 FILLER_57_567
*1793 FILLER_57_570
*1794 FILLER_58_531
*1795 FILLER_58_534
*1796 FILLER_58_537
*1797 FILLER_58_540
*1798 FILLER_58_543
*1799 FILLER_58_546
*1800 FILLER_58_549
*1801 FILLER_58_552
*1802 FILLER_58_555
*1803 FILLER_58_557
*1804 FILLER_58_560
*1805 FILLER_58_563
*1806 FILLER_58_566
*1807 FILLER_58_569
*1808 FILLER_58_572
*1809 FILLER_59_531
*1810 FILLER_59_534
*1811 FILLER_59_537
*1812 FILLER_59_540
*1813 FILLER_59_543
*1814 FILLER_59_546
*1815 FILLER_59_549
*1816 FILLER_59_552
*1817 FILLER_59_555
*1818 FILLER_59_558
*1819 FILLER_59_561
*1820 FILLER_59_564
*1821 FILLER_59_567
*1822 FILLER_59_570
*1823 FILLER_5_531
*1824 FILLER_5_534
*1825 FILLER_5_537
*1826 FILLER_5_540
*1827 FILLER_5_543
*1828 FILLER_5_546
*1829 FILLER_5_549
*1830 FILLER_5_552
*1831 FILLER_5_555
*1832 FILLER_5_558
*1833 FILLER_5_561
*1834 FILLER_5_564
*1835 FILLER_5_567
*1836 FILLER_5_570
*1837 FILLER_60_531
*1838 FILLER_60_534
*1839 FILLER_60_537
*1840 FILLER_60_540
*1841 FILLER_60_543
*1842 FILLER_60_546
*1843 FILLER_60_549
*1844 FILLER_60_552
*1845 FILLER_60_555
*1846 FILLER_60_557
*1847 FILLER_60_560
*1848 FILLER_60_563
*1849 FILLER_60_566
*1850 FILLER_60_569
*1851 FILLER_60_572
*1852 FILLER_61_531
*1853 FILLER_61_534
*1854 FILLER_61_537
*1855 FILLER_61_540
*1856 FILLER_61_543
*1857 FILLER_61_546
*1858 FILLER_61_549
*1859 FILLER_61_552
*1860 FILLER_61_555
*1861 FILLER_61_558
*1862 FILLER_61_561
*1863 FILLER_61_564
*1864 FILLER_61_567
*1865 FILLER_61_570
*1866 FILLER_62_531
*1867 FILLER_62_534
*1868 FILLER_62_537
*1869 FILLER_62_540
*1870 FILLER_62_543
*1871 FILLER_62_546
*1872 FILLER_62_549
*1873 FILLER_62_552
*1874 FILLER_62_555
*1875 FILLER_62_557
*1876 FILLER_62_560
*1877 FILLER_62_563
*1878 FILLER_62_566
*1879 FILLER_62_569
*1880 FILLER_62_572
*1881 FILLER_63_531
*1882 FILLER_63_534
*1883 FILLER_63_537
*1884 FILLER_63_540
*1885 FILLER_63_543
*1886 FILLER_63_546
*1887 FILLER_63_549
*1888 FILLER_63_552
*1889 FILLER_63_555
*1890 FILLER_63_558
*1891 FILLER_63_561
*1892 FILLER_63_564
*1893 FILLER_63_567
*1894 FILLER_63_570
*1895 FILLER_64_531
*1896 FILLER_64_534
*1897 FILLER_64_537
*1898 FILLER_64_540
*1899 FILLER_64_543
*1900 FILLER_64_546
*1901 FILLER_64_549
*1902 FILLER_64_552
*1903 FILLER_64_555
*1904 FILLER_64_557
*1905 FILLER_64_560
*1906 FILLER_64_563
*1907 FILLER_64_566
*1908 FILLER_64_569
*1909 FILLER_64_572
*1910 FILLER_65_531
*1911 FILLER_65_534
*1912 FILLER_65_537
*1913 FILLER_65_540
*1914 FILLER_65_543
*1915 FILLER_65_546
*1916 FILLER_65_549
*1917 FILLER_65_552
*1918 FILLER_65_555
*1919 FILLER_65_558
*1920 FILLER_65_561
*1921 FILLER_65_564
*1922 FILLER_65_567
*1923 FILLER_65_570
*1924 FILLER_66_531
*1925 FILLER_66_534
*1926 FILLER_66_537
*1927 FILLER_66_540
*1928 FILLER_66_543
*1929 FILLER_66_546
*1930 FILLER_66_549
*1931 FILLER_66_552
*1932 FILLER_66_555
*1933 FILLER_66_557
*1934 FILLER_66_560
*1935 FILLER_66_563
*1936 FILLER_66_566
*1937 FILLER_66_569
*1938 FILLER_66_572
*1939 FILLER_67_531
*1940 FILLER_67_534
*1941 FILLER_67_537
*1942 FILLER_67_540
*1943 FILLER_67_543
*1944 FILLER_67_546
*1945 FILLER_67_549
*1946 FILLER_67_552
*1947 FILLER_67_555
*1948 FILLER_67_558
*1949 FILLER_67_561
*1950 FILLER_67_564
*1951 FILLER_67_567
*1952 FILLER_67_570
*1953 FILLER_68_531
*1954 FILLER_68_534
*1955 FILLER_68_537
*1956 FILLER_68_540
*1957 FILLER_68_543
*1958 FILLER_68_546
*1959 FILLER_68_549
*1960 FILLER_68_552
*1961 FILLER_68_555
*1962 FILLER_68_557
*1963 FILLER_68_560
*1964 FILLER_68_563
*1965 FILLER_68_566
*1966 FILLER_68_569
*1967 FILLER_68_572
*1968 FILLER_69_531
*1969 FILLER_69_534
*1970 FILLER_69_537
*1971 FILLER_69_540
*1972 FILLER_69_543
*1973 FILLER_69_546
*1974 FILLER_69_549
*1975 FILLER_69_552
*1976 FILLER_69_555
*1977 FILLER_69_558
*1978 FILLER_69_561
*1979 FILLER_69_564
*1980 FILLER_69_567
*1981 FILLER_69_570
*1982 FILLER_6_531
*1983 FILLER_6_534
*1984 FILLER_6_537
*1985 FILLER_6_540
*1986 FILLER_6_543
*1987 FILLER_6_546
*1988 FILLER_6_549
*1989 FILLER_6_552
*1990 FILLER_6_555
*1991 FILLER_6_557
*1992 FILLER_6_560
*1993 FILLER_6_563
*1994 FILLER_6_566
*1995 FILLER_6_569
*1996 FILLER_6_572
*1997 FILLER_70_531
*1998 FILLER_70_534
*1999 FILLER_70_537
*2000 FILLER_70_540
*2001 FILLER_70_543
*2002 FILLER_70_546
*2003 FILLER_70_549
*2004 FILLER_70_552
*2005 FILLER_70_555
*2006 FILLER_70_557
*2007 FILLER_70_560
*2008 FILLER_70_563
*2009 FILLER_70_566
*2010 FILLER_70_569
*2011 FILLER_70_572
*2012 FILLER_71_531
*2013 FILLER_71_534
*2014 FILLER_71_537
*2015 FILLER_71_540
*2016 FILLER_71_543
*2017 FILLER_71_546
*2018 FILLER_71_549
*2019 FILLER_71_552
*2020 FILLER_71_555
*2021 FILLER_71_558
*2022 FILLER_71_561
*2023 FILLER_71_564
*2024 FILLER_71_567
*2025 FILLER_71_570
*2026 FILLER_72_531
*2027 FILLER_72_534
*2028 FILLER_72_537
*2029 FILLER_72_540
*2030 FILLER_72_543
*2031 FILLER_72_546
*2032 FILLER_72_549
*2033 FILLER_72_552
*2034 FILLER_72_555
*2035 FILLER_72_557
*2036 FILLER_72_560
*2037 FILLER_72_563
*2038 FILLER_72_566
*2039 FILLER_72_569
*2040 FILLER_72_572
*2041 FILLER_73_531
*2042 FILLER_73_534
*2043 FILLER_73_537
*2044 FILLER_73_540
*2045 FILLER_73_543
*2046 FILLER_73_546
*2047 FILLER_73_549
*2048 FILLER_73_552
*2049 FILLER_73_555
*2050 FILLER_73_558
*2051 FILLER_73_561
*2052 FILLER_73_564
*2053 FILLER_73_567
*2054 FILLER_73_570
*2055 FILLER_74_100
*2056 FILLER_74_103
*2057 FILLER_74_106
*2058 FILLER_74_109
*2059 FILLER_74_113
*2060 FILLER_74_116
*2061 FILLER_74_119
*2062 FILLER_74_12
*2063 FILLER_74_122
*2064 FILLER_74_125
*2065 FILLER_74_128
*2066 FILLER_74_131
*2067 FILLER_74_134
*2068 FILLER_74_137
*2069 FILLER_74_141
*2070 FILLER_74_144
*2071 FILLER_74_147
*2072 FILLER_74_15
*2073 FILLER_74_150
*2074 FILLER_74_153
*2075 FILLER_74_156
*2076 FILLER_74_159
*2077 FILLER_74_162
*2078 FILLER_74_165
*2079 FILLER_74_169
*2080 FILLER_74_172
*2081 FILLER_74_175
*2082 FILLER_74_178
*2083 FILLER_74_18
*2084 FILLER_74_181
*2085 FILLER_74_184
*2086 FILLER_74_187
*2087 FILLER_74_190
*2088 FILLER_74_193
*2089 FILLER_74_197
*2090 FILLER_74_200
*2091 FILLER_74_203
*2092 FILLER_74_206
*2093 FILLER_74_209
*2094 FILLER_74_21
*2095 FILLER_74_212
*2096 FILLER_74_215
*2097 FILLER_74_218
*2098 FILLER_74_221
*2099 FILLER_74_225
*2100 FILLER_74_228
*2101 FILLER_74_231
*2102 FILLER_74_234
*2103 FILLER_74_237
*2104 FILLER_74_24
*2105 FILLER_74_240
*2106 FILLER_74_243
*2107 FILLER_74_246
*2108 FILLER_74_249
*2109 FILLER_74_253
*2110 FILLER_74_256
*2111 FILLER_74_259
*2112 FILLER_74_262
*2113 FILLER_74_265
*2114 FILLER_74_268
*2115 FILLER_74_27
*2116 FILLER_74_271
*2117 FILLER_74_274
*2118 FILLER_74_277
*2119 FILLER_74_281
*2120 FILLER_74_284
*2121 FILLER_74_287
*2122 FILLER_74_29
*2123 FILLER_74_290
*2124 FILLER_74_293
*2125 FILLER_74_296
*2126 FILLER_74_299
*2127 FILLER_74_3
*2128 FILLER_74_302
*2129 FILLER_74_305
*2130 FILLER_74_309
*2131 FILLER_74_312
*2132 FILLER_74_315
*2133 FILLER_74_318
*2134 FILLER_74_32
*2135 FILLER_74_321
*2136 FILLER_74_324
*2137 FILLER_74_327
*2138 FILLER_74_330
*2139 FILLER_74_333
*2140 FILLER_74_337
*2141 FILLER_74_340
*2142 FILLER_74_343
*2143 FILLER_74_346
*2144 FILLER_74_349
*2145 FILLER_74_35
*2146 FILLER_74_352
*2147 FILLER_74_355
*2148 FILLER_74_358
*2149 FILLER_74_361
*2150 FILLER_74_365
*2151 FILLER_74_368
*2152 FILLER_74_371
*2153 FILLER_74_374
*2154 FILLER_74_377
*2155 FILLER_74_38
*2156 FILLER_74_380
*2157 FILLER_74_383
*2158 FILLER_74_386
*2159 FILLER_74_389
*2160 FILLER_74_393
*2161 FILLER_74_396
*2162 FILLER_74_399
*2163 FILLER_74_402
*2164 FILLER_74_405
*2165 FILLER_74_408
*2166 FILLER_74_41
*2167 FILLER_74_411
*2168 FILLER_74_414
*2169 FILLER_74_417
*2170 FILLER_74_421
*2171 FILLER_74_424
*2172 FILLER_74_427
*2173 FILLER_74_430
*2174 FILLER_74_433
*2175 FILLER_74_436
*2176 FILLER_74_439
*2177 FILLER_74_44
*2178 FILLER_74_442
*2179 FILLER_74_445
*2180 FILLER_74_449
*2181 FILLER_74_452
*2182 FILLER_74_455
*2183 FILLER_74_458
*2184 FILLER_74_461
*2185 FILLER_74_464
*2186 FILLER_74_467
*2187 FILLER_74_47
*2188 FILLER_74_470
*2189 FILLER_74_473
*2190 FILLER_74_477
*2191 FILLER_74_480
*2192 FILLER_74_483
*2193 FILLER_74_486
*2194 FILLER_74_489
*2195 FILLER_74_492
*2196 FILLER_74_495
*2197 FILLER_74_498
*2198 FILLER_74_50
*2199 FILLER_74_501
*2200 FILLER_74_505
*2201 FILLER_74_508
*2202 FILLER_74_511
*2203 FILLER_74_514
*2204 FILLER_74_517
*2205 FILLER_74_520
*2206 FILLER_74_523
*2207 FILLER_74_526
*2208 FILLER_74_529
*2209 FILLER_74_53
*2210 FILLER_74_533
*2211 FILLER_74_536
*2212 FILLER_74_539
*2213 FILLER_74_542
*2214 FILLER_74_545
*2215 FILLER_74_548
*2216 FILLER_74_551
*2217 FILLER_74_554
*2218 FILLER_74_557
*2219 FILLER_74_561
*2220 FILLER_74_564
*2221 FILLER_74_567
*2222 FILLER_74_57
*2223 FILLER_74_570
*2224 FILLER_74_6
*2225 FILLER_74_60
*2226 FILLER_74_63
*2227 FILLER_74_66
*2228 FILLER_74_69
*2229 FILLER_74_72
*2230 FILLER_74_75
*2231 FILLER_74_78
*2232 FILLER_74_81
*2233 FILLER_74_85
*2234 FILLER_74_88
*2235 FILLER_74_9
*2236 FILLER_74_91
*2237 FILLER_74_94
*2238 FILLER_74_97
*2239 FILLER_75_102
*2240 FILLER_75_105
*2241 FILLER_75_108
*2242 FILLER_75_111
*2243 FILLER_75_113
*2244 FILLER_75_116
*2245 FILLER_75_119
*2246 FILLER_75_12
*2247 FILLER_75_122
*2248 FILLER_75_125
*2249 FILLER_75_128
*2250 FILLER_75_131
*2251 FILLER_75_134
*2252 FILLER_75_137
*2253 FILLER_75_140
*2254 FILLER_75_143
*2255 FILLER_75_146
*2256 FILLER_75_149
*2257 FILLER_75_15
*2258 FILLER_75_152
*2259 FILLER_75_155
*2260 FILLER_75_158
*2261 FILLER_75_161
*2262 FILLER_75_164
*2263 FILLER_75_167
*2264 FILLER_75_169
*2265 FILLER_75_172
*2266 FILLER_75_175
*2267 FILLER_75_178
*2268 FILLER_75_18
*2269 FILLER_75_181
*2270 FILLER_75_184
*2271 FILLER_75_187
*2272 FILLER_75_190
*2273 FILLER_75_193
*2274 FILLER_75_196
*2275 FILLER_75_199
*2276 FILLER_75_202
*2277 FILLER_75_205
*2278 FILLER_75_208
*2279 FILLER_75_21
*2280 FILLER_75_211
*2281 FILLER_75_214
*2282 FILLER_75_217
*2283 FILLER_75_220
*2284 FILLER_75_223
*2285 FILLER_75_225
*2286 FILLER_75_228
*2287 FILLER_75_231
*2288 FILLER_75_234
*2289 FILLER_75_237
*2290 FILLER_75_24
*2291 FILLER_75_240
*2292 FILLER_75_243
*2293 FILLER_75_246
*2294 FILLER_75_249
*2295 FILLER_75_252
*2296 FILLER_75_255
*2297 FILLER_75_258
*2298 FILLER_75_261
*2299 FILLER_75_264
*2300 FILLER_75_267
*2301 FILLER_75_27
*2302 FILLER_75_270
*2303 FILLER_75_273
*2304 FILLER_75_276
*2305 FILLER_75_279
*2306 FILLER_75_281
*2307 FILLER_75_284
*2308 FILLER_75_287
*2309 FILLER_75_290
*2310 FILLER_75_293
*2311 FILLER_75_296
*2312 FILLER_75_299
*2313 FILLER_75_3
*2314 FILLER_75_30
*2315 FILLER_75_302
*2316 FILLER_75_305
*2317 FILLER_75_308
*2318 FILLER_75_311
*2319 FILLER_75_314
*2320 FILLER_75_317
*2321 FILLER_75_320
*2322 FILLER_75_323
*2323 FILLER_75_326
*2324 FILLER_75_329
*2325 FILLER_75_33
*2326 FILLER_75_332
*2327 FILLER_75_335
*2328 FILLER_75_337
*2329 FILLER_75_340
*2330 FILLER_75_343
*2331 FILLER_75_346
*2332 FILLER_75_349
*2333 FILLER_75_352
*2334 FILLER_75_355
*2335 FILLER_75_358
*2336 FILLER_75_36
*2337 FILLER_75_361
*2338 FILLER_75_364
*2339 FILLER_75_367
*2340 FILLER_75_370
*2341 FILLER_75_373
*2342 FILLER_75_376
*2343 FILLER_75_379
*2344 FILLER_75_382
*2345 FILLER_75_385
*2346 FILLER_75_388
*2347 FILLER_75_39
*2348 FILLER_75_391
*2349 FILLER_75_393
*2350 FILLER_75_396
*2351 FILLER_75_399
*2352 FILLER_75_402
*2353 FILLER_75_405
*2354 FILLER_75_408
*2355 FILLER_75_411
*2356 FILLER_75_414
*2357 FILLER_75_417
*2358 FILLER_75_42
*2359 FILLER_75_420
*2360 FILLER_75_423
*2361 FILLER_75_426
*2362 FILLER_75_429
*2363 FILLER_75_432
*2364 FILLER_75_435
*2365 FILLER_75_438
*2366 FILLER_75_441
*2367 FILLER_75_444
*2368 FILLER_75_447
*2369 FILLER_75_449
*2370 FILLER_75_45
*2371 FILLER_75_452
*2372 FILLER_75_455
*2373 FILLER_75_458
*2374 FILLER_75_461
*2375 FILLER_75_464
*2376 FILLER_75_467
*2377 FILLER_75_470
*2378 FILLER_75_473
*2379 FILLER_75_476
*2380 FILLER_75_479
*2381 FILLER_75_48
*2382 FILLER_75_482
*2383 FILLER_75_485
*2384 FILLER_75_488
*2385 FILLER_75_491
*2386 FILLER_75_494
*2387 FILLER_75_497
*2388 FILLER_75_500
*2389 FILLER_75_503
*2390 FILLER_75_505
*2391 FILLER_75_508
*2392 FILLER_75_51
*2393 FILLER_75_511
*2394 FILLER_75_514
*2395 FILLER_75_517
*2396 FILLER_75_520
*2397 FILLER_75_523
*2398 FILLER_75_526
*2399 FILLER_75_529
*2400 FILLER_75_532
*2401 FILLER_75_535
*2402 FILLER_75_538
*2403 FILLER_75_54
*2404 FILLER_75_541
*2405 FILLER_75_544
*2406 FILLER_75_547
*2407 FILLER_75_550
*2408 FILLER_75_553
*2409 FILLER_75_556
*2410 FILLER_75_559
*2411 FILLER_75_561
*2412 FILLER_75_564
*2413 FILLER_75_567
*2414 FILLER_75_57
*2415 FILLER_75_570
*2416 FILLER_75_6
*2417 FILLER_75_60
*2418 FILLER_75_63
*2419 FILLER_75_66
*2420 FILLER_75_69
*2421 FILLER_75_72
*2422 FILLER_75_75
*2423 FILLER_75_78
*2424 FILLER_75_81
*2425 FILLER_75_84
*2426 FILLER_75_87
*2427 FILLER_75_9
*2428 FILLER_75_90
*2429 FILLER_75_93
*2430 FILLER_75_96
*2431 FILLER_75_99
*2432 FILLER_76_100
*2433 FILLER_76_103
*2434 FILLER_76_106
*2435 FILLER_76_109
*2436 FILLER_76_112
*2437 FILLER_76_115
*2438 FILLER_76_118
*2439 FILLER_76_12
*2440 FILLER_76_121
*2441 FILLER_76_124
*2442 FILLER_76_127
*2443 FILLER_76_130
*2444 FILLER_76_133
*2445 FILLER_76_136
*2446 FILLER_76_139
*2447 FILLER_76_141
*2448 FILLER_76_144
*2449 FILLER_76_147
*2450 FILLER_76_15
*2451 FILLER_76_150
*2452 FILLER_76_153
*2453 FILLER_76_156
*2454 FILLER_76_159
*2455 FILLER_76_162
*2456 FILLER_76_165
*2457 FILLER_76_168
*2458 FILLER_76_171
*2459 FILLER_76_174
*2460 FILLER_76_177
*2461 FILLER_76_18
*2462 FILLER_76_180
*2463 FILLER_76_183
*2464 FILLER_76_186
*2465 FILLER_76_189
*2466 FILLER_76_192
*2467 FILLER_76_195
*2468 FILLER_76_197
*2469 FILLER_76_200
*2470 FILLER_76_203
*2471 FILLER_76_206
*2472 FILLER_76_209
*2473 FILLER_76_21
*2474 FILLER_76_212
*2475 FILLER_76_215
*2476 FILLER_76_218
*2477 FILLER_76_221
*2478 FILLER_76_224
*2479 FILLER_76_227
*2480 FILLER_76_230
*2481 FILLER_76_233
*2482 FILLER_76_236
*2483 FILLER_76_239
*2484 FILLER_76_24
*2485 FILLER_76_242
*2486 FILLER_76_245
*2487 FILLER_76_248
*2488 FILLER_76_251
*2489 FILLER_76_253
*2490 FILLER_76_256
*2491 FILLER_76_259
*2492 FILLER_76_262
*2493 FILLER_76_265
*2494 FILLER_76_268
*2495 FILLER_76_27
*2496 FILLER_76_271
*2497 FILLER_76_274
*2498 FILLER_76_277
*2499 FILLER_76_280
*2500 FILLER_76_283
*2501 FILLER_76_286
*2502 FILLER_76_289
*2503 FILLER_76_29
*2504 FILLER_76_292
*2505 FILLER_76_295
*2506 FILLER_76_298
*2507 FILLER_76_3
*2508 FILLER_76_301
*2509 FILLER_76_304
*2510 FILLER_76_307
*2511 FILLER_76_309
*2512 FILLER_76_312
*2513 FILLER_76_315
*2514 FILLER_76_318
*2515 FILLER_76_32
*2516 FILLER_76_321
*2517 FILLER_76_324
*2518 FILLER_76_327
*2519 FILLER_76_330
*2520 FILLER_76_333
*2521 FILLER_76_336
*2522 FILLER_76_339
*2523 FILLER_76_342
*2524 FILLER_76_345
*2525 FILLER_76_348
*2526 FILLER_76_35
*2527 FILLER_76_351
*2528 FILLER_76_354
*2529 FILLER_76_357
*2530 FILLER_76_360
*2531 FILLER_76_363
*2532 FILLER_76_365
*2533 FILLER_76_368
*2534 FILLER_76_371
*2535 FILLER_76_374
*2536 FILLER_76_377
*2537 FILLER_76_38
*2538 FILLER_76_380
*2539 FILLER_76_383
*2540 FILLER_76_386
*2541 FILLER_76_389
*2542 FILLER_76_392
*2543 FILLER_76_395
*2544 FILLER_76_398
*2545 FILLER_76_401
*2546 FILLER_76_404
*2547 FILLER_76_407
*2548 FILLER_76_41
*2549 FILLER_76_410
*2550 FILLER_76_413
*2551 FILLER_76_416
*2552 FILLER_76_419
*2553 FILLER_76_421
*2554 FILLER_76_424
*2555 FILLER_76_427
*2556 FILLER_76_430
*2557 FILLER_76_433
*2558 FILLER_76_436
*2559 FILLER_76_439
*2560 FILLER_76_44
*2561 FILLER_76_442
*2562 FILLER_76_445
*2563 FILLER_76_448
*2564 FILLER_76_451
*2565 FILLER_76_454
*2566 FILLER_76_457
*2567 FILLER_76_460
*2568 FILLER_76_463
*2569 FILLER_76_466
*2570 FILLER_76_469
*2571 FILLER_76_47
*2572 FILLER_76_472
*2573 FILLER_76_475
*2574 FILLER_76_477
*2575 FILLER_76_480
*2576 FILLER_76_483
*2577 FILLER_76_486
*2578 FILLER_76_489
*2579 FILLER_76_492
*2580 FILLER_76_495
*2581 FILLER_76_498
*2582 FILLER_76_50
*2583 FILLER_76_501
*2584 FILLER_76_504
*2585 FILLER_76_507
*2586 FILLER_76_510
*2587 FILLER_76_513
*2588 FILLER_76_516
*2589 FILLER_76_519
*2590 FILLER_76_522
*2591 FILLER_76_525
*2592 FILLER_76_528
*2593 FILLER_76_53
*2594 FILLER_76_531
*2595 FILLER_76_533
*2596 FILLER_76_536
*2597 FILLER_76_539
*2598 FILLER_76_542
*2599 FILLER_76_545
*2600 FILLER_76_548
*2601 FILLER_76_551
*2602 FILLER_76_554
*2603 FILLER_76_557
*2604 FILLER_76_56
*2605 FILLER_76_560
*2606 FILLER_76_563
*2607 FILLER_76_566
*2608 FILLER_76_569
*2609 FILLER_76_572
*2610 FILLER_76_59
*2611 FILLER_76_6
*2612 FILLER_76_62
*2613 FILLER_76_65
*2614 FILLER_76_68
*2615 FILLER_76_71
*2616 FILLER_76_74
*2617 FILLER_76_77
*2618 FILLER_76_80
*2619 FILLER_76_83
*2620 FILLER_76_85
*2621 FILLER_76_88
*2622 FILLER_76_9
*2623 FILLER_76_91
*2624 FILLER_76_94
*2625 FILLER_76_97
*2626 FILLER_77_102
*2627 FILLER_77_105
*2628 FILLER_77_108
*2629 FILLER_77_111
*2630 FILLER_77_113
*2631 FILLER_77_116
*2632 FILLER_77_119
*2633 FILLER_77_12
*2634 FILLER_77_122
*2635 FILLER_77_125
*2636 FILLER_77_128
*2637 FILLER_77_131
*2638 FILLER_77_134
*2639 FILLER_77_137
*2640 FILLER_77_140
*2641 FILLER_77_143
*2642 FILLER_77_146
*2643 FILLER_77_149
*2644 FILLER_77_15
*2645 FILLER_77_152
*2646 FILLER_77_155
*2647 FILLER_77_158
*2648 FILLER_77_161
*2649 FILLER_77_164
*2650 FILLER_77_167
*2651 FILLER_77_169
*2652 FILLER_77_172
*2653 FILLER_77_175
*2654 FILLER_77_178
*2655 FILLER_77_18
*2656 FILLER_77_181
*2657 FILLER_77_184
*2658 FILLER_77_187
*2659 FILLER_77_190
*2660 FILLER_77_193
*2661 FILLER_77_196
*2662 FILLER_77_199
*2663 FILLER_77_202
*2664 FILLER_77_205
*2665 FILLER_77_208
*2666 FILLER_77_21
*2667 FILLER_77_211
*2668 FILLER_77_214
*2669 FILLER_77_217
*2670 FILLER_77_220
*2671 FILLER_77_223
*2672 FILLER_77_225
*2673 FILLER_77_228
*2674 FILLER_77_231
*2675 FILLER_77_234
*2676 FILLER_77_237
*2677 FILLER_77_24
*2678 FILLER_77_240
*2679 FILLER_77_243
*2680 FILLER_77_246
*2681 FILLER_77_249
*2682 FILLER_77_252
*2683 FILLER_77_255
*2684 FILLER_77_258
*2685 FILLER_77_261
*2686 FILLER_77_264
*2687 FILLER_77_267
*2688 FILLER_77_27
*2689 FILLER_77_270
*2690 FILLER_77_273
*2691 FILLER_77_276
*2692 FILLER_77_279
*2693 FILLER_77_281
*2694 FILLER_77_284
*2695 FILLER_77_287
*2696 FILLER_77_290
*2697 FILLER_77_293
*2698 FILLER_77_296
*2699 FILLER_77_299
*2700 FILLER_77_3
*2701 FILLER_77_30
*2702 FILLER_77_302
*2703 FILLER_77_305
*2704 FILLER_77_308
*2705 FILLER_77_311
*2706 FILLER_77_314
*2707 FILLER_77_317
*2708 FILLER_77_320
*2709 FILLER_77_323
*2710 FILLER_77_326
*2711 FILLER_77_329
*2712 FILLER_77_33
*2713 FILLER_77_332
*2714 FILLER_77_335
*2715 FILLER_77_337
*2716 FILLER_77_340
*2717 FILLER_77_343
*2718 FILLER_77_346
*2719 FILLER_77_349
*2720 FILLER_77_352
*2721 FILLER_77_355
*2722 FILLER_77_358
*2723 FILLER_77_36
*2724 FILLER_77_361
*2725 FILLER_77_364
*2726 FILLER_77_367
*2727 FILLER_77_370
*2728 FILLER_77_373
*2729 FILLER_77_376
*2730 FILLER_77_379
*2731 FILLER_77_382
*2732 FILLER_77_385
*2733 FILLER_77_388
*2734 FILLER_77_39
*2735 FILLER_77_391
*2736 FILLER_77_393
*2737 FILLER_77_396
*2738 FILLER_77_399
*2739 FILLER_77_402
*2740 FILLER_77_405
*2741 FILLER_77_408
*2742 FILLER_77_411
*2743 FILLER_77_414
*2744 FILLER_77_417
*2745 FILLER_77_42
*2746 FILLER_77_420
*2747 FILLER_77_423
*2748 FILLER_77_426
*2749 FILLER_77_429
*2750 FILLER_77_432
*2751 FILLER_77_435
*2752 FILLER_77_438
*2753 FILLER_77_441
*2754 FILLER_77_444
*2755 FILLER_77_447
*2756 FILLER_77_449
*2757 FILLER_77_45
*2758 FILLER_77_452
*2759 FILLER_77_455
*2760 FILLER_77_458
*2761 FILLER_77_461
*2762 FILLER_77_464
*2763 FILLER_77_467
*2764 FILLER_77_470
*2765 FILLER_77_473
*2766 FILLER_77_476
*2767 FILLER_77_479
*2768 FILLER_77_48
*2769 FILLER_77_482
*2770 FILLER_77_485
*2771 FILLER_77_488
*2772 FILLER_77_491
*2773 FILLER_77_494
*2774 FILLER_77_497
*2775 FILLER_77_500
*2776 FILLER_77_503
*2777 FILLER_77_505
*2778 FILLER_77_508
*2779 FILLER_77_51
*2780 FILLER_77_511
*2781 FILLER_77_514
*2782 FILLER_77_517
*2783 FILLER_77_520
*2784 FILLER_77_523
*2785 FILLER_77_526
*2786 FILLER_77_529
*2787 FILLER_77_532
*2788 FILLER_77_535
*2789 FILLER_77_538
*2790 FILLER_77_54
*2791 FILLER_77_541
*2792 FILLER_77_544
*2793 FILLER_77_547
*2794 FILLER_77_550
*2795 FILLER_77_553
*2796 FILLER_77_556
*2797 FILLER_77_559
*2798 FILLER_77_561
*2799 FILLER_77_564
*2800 FILLER_77_567
*2801 FILLER_77_57
*2802 FILLER_77_570
*2803 FILLER_77_6
*2804 FILLER_77_60
*2805 FILLER_77_63
*2806 FILLER_77_66
*2807 FILLER_77_69
*2808 FILLER_77_72
*2809 FILLER_77_75
*2810 FILLER_77_78
*2811 FILLER_77_81
*2812 FILLER_77_84
*2813 FILLER_77_87
*2814 FILLER_77_9
*2815 FILLER_77_90
*2816 FILLER_77_93
*2817 FILLER_77_96
*2818 FILLER_77_99
*2819 FILLER_78_100
*2820 FILLER_78_103
*2821 FILLER_78_106
*2822 FILLER_78_109
*2823 FILLER_78_112
*2824 FILLER_78_115
*2825 FILLER_78_118
*2826 FILLER_78_12
*2827 FILLER_78_121
*2828 FILLER_78_124
*2829 FILLER_78_127
*2830 FILLER_78_130
*2831 FILLER_78_133
*2832 FILLER_78_136
*2833 FILLER_78_139
*2834 FILLER_78_141
*2835 FILLER_78_144
*2836 FILLER_78_147
*2837 FILLER_78_15
*2838 FILLER_78_150
*2839 FILLER_78_153
*2840 FILLER_78_156
*2841 FILLER_78_159
*2842 FILLER_78_162
*2843 FILLER_78_165
*2844 FILLER_78_168
*2845 FILLER_78_171
*2846 FILLER_78_174
*2847 FILLER_78_177
*2848 FILLER_78_18
*2849 FILLER_78_180
*2850 FILLER_78_189
*2851 FILLER_78_192
*2852 FILLER_78_195
*2853 FILLER_78_197
*2854 FILLER_78_200
*2855 FILLER_78_203
*2856 FILLER_78_206
*2857 FILLER_78_209
*2858 FILLER_78_21
*2859 FILLER_78_212
*2860 FILLER_78_215
*2861 FILLER_78_218
*2862 FILLER_78_221
*2863 FILLER_78_224
*2864 FILLER_78_227
*2865 FILLER_78_230
*2866 FILLER_78_233
*2867 FILLER_78_236
*2868 FILLER_78_239
*2869 FILLER_78_24
*2870 FILLER_78_242
*2871 FILLER_78_245
*2872 FILLER_78_248
*2873 FILLER_78_251
*2874 FILLER_78_253
*2875 FILLER_78_256
*2876 FILLER_78_259
*2877 FILLER_78_262
*2878 FILLER_78_265
*2879 FILLER_78_268
*2880 FILLER_78_27
*2881 FILLER_78_271
*2882 FILLER_78_274
*2883 FILLER_78_277
*2884 FILLER_78_280
*2885 FILLER_78_283
*2886 FILLER_78_286
*2887 FILLER_78_289
*2888 FILLER_78_29
*2889 FILLER_78_292
*2890 FILLER_78_295
*2891 FILLER_78_298
*2892 FILLER_78_3
*2893 FILLER_78_301
*2894 FILLER_78_304
*2895 FILLER_78_307
*2896 FILLER_78_309
*2897 FILLER_78_312
*2898 FILLER_78_315
*2899 FILLER_78_318
*2900 FILLER_78_32
*2901 FILLER_78_321
*2902 FILLER_78_324
*2903 FILLER_78_327
*2904 FILLER_78_337
*2905 FILLER_78_340
*2906 FILLER_78_343
*2907 FILLER_78_346
*2908 FILLER_78_349
*2909 FILLER_78_35
*2910 FILLER_78_352
*2911 FILLER_78_355
*2912 FILLER_78_358
*2913 FILLER_78_361
*2914 FILLER_78_365
*2915 FILLER_78_368
*2916 FILLER_78_371
*2917 FILLER_78_374
*2918 FILLER_78_377
*2919 FILLER_78_38
*2920 FILLER_78_380
*2921 FILLER_78_383
*2922 FILLER_78_386
*2923 FILLER_78_389
*2924 FILLER_78_392
*2925 FILLER_78_395
*2926 FILLER_78_398
*2927 FILLER_78_401
*2928 FILLER_78_404
*2929 FILLER_78_407
*2930 FILLER_78_41
*2931 FILLER_78_410
*2932 FILLER_78_413
*2933 FILLER_78_416
*2934 FILLER_78_419
*2935 FILLER_78_421
*2936 FILLER_78_424
*2937 FILLER_78_427
*2938 FILLER_78_430
*2939 FILLER_78_433
*2940 FILLER_78_436
*2941 FILLER_78_439
*2942 FILLER_78_44
*2943 FILLER_78_442
*2944 FILLER_78_445
*2945 FILLER_78_448
*2946 FILLER_78_451
*2947 FILLER_78_454
*2948 FILLER_78_457
*2949 FILLER_78_460
*2950 FILLER_78_463
*2951 FILLER_78_466
*2952 FILLER_78_469
*2953 FILLER_78_47
*2954 FILLER_78_472
*2955 FILLER_78_475
*2956 FILLER_78_477
*2957 FILLER_78_480
*2958 FILLER_78_483
*2959 FILLER_78_486
*2960 FILLER_78_489
*2961 FILLER_78_492
*2962 FILLER_78_495
*2963 FILLER_78_498
*2964 FILLER_78_50
*2965 FILLER_78_501
*2966 FILLER_78_504
*2967 FILLER_78_507
*2968 FILLER_78_510
*2969 FILLER_78_513
*2970 FILLER_78_516
*2971 FILLER_78_519
*2972 FILLER_78_522
*2973 FILLER_78_525
*2974 FILLER_78_528
*2975 FILLER_78_53
*2976 FILLER_78_531
*2977 FILLER_78_533
*2978 FILLER_78_536
*2979 FILLER_78_539
*2980 FILLER_78_542
*2981 FILLER_78_545
*2982 FILLER_78_548
*2983 FILLER_78_551
*2984 FILLER_78_554
*2985 FILLER_78_557
*2986 FILLER_78_56
*2987 FILLER_78_560
*2988 FILLER_78_563
*2989 FILLER_78_566
*2990 FILLER_78_569
*2991 FILLER_78_572
*2992 FILLER_78_59
*2993 FILLER_78_6
*2994 FILLER_78_62
*2995 FILLER_78_65
*2996 FILLER_78_68
*2997 FILLER_78_71
*2998 FILLER_78_74
*2999 FILLER_78_77
*3000 FILLER_78_80
*3001 FILLER_78_83
*3002 FILLER_78_85
*3003 FILLER_78_88
*3004 FILLER_78_9
*3005 FILLER_78_91
*3006 FILLER_78_94
*3007 FILLER_78_97
*3008 FILLER_79_100
*3009 FILLER_79_103
*3010 FILLER_79_106
*3011 FILLER_79_109
*3012 FILLER_79_113
*3013 FILLER_79_116
*3014 FILLER_79_119
*3015 FILLER_79_12
*3016 FILLER_79_122
*3017 FILLER_79_125
*3018 FILLER_79_128
*3019 FILLER_79_131
*3020 FILLER_79_134
*3021 FILLER_79_137
*3022 FILLER_79_141
*3023 FILLER_79_144
*3024 FILLER_79_147
*3025 FILLER_79_15
*3026 FILLER_79_150
*3027 FILLER_79_153
*3028 FILLER_79_156
*3029 FILLER_79_159
*3030 FILLER_79_162
*3031 FILLER_79_165
*3032 FILLER_79_169
*3033 FILLER_79_172
*3034 FILLER_79_175
*3035 FILLER_79_178
*3036 FILLER_79_18
*3037 FILLER_79_181
*3038 FILLER_79_191
*3039 FILLER_79_194
*3040 FILLER_79_197
*3041 FILLER_79_200
*3042 FILLER_79_203
*3043 FILLER_79_206
*3044 FILLER_79_209
*3045 FILLER_79_21
*3046 FILLER_79_212
*3047 FILLER_79_215
*3048 FILLER_79_218
*3049 FILLER_79_221
*3050 FILLER_79_225
*3051 FILLER_79_228
*3052 FILLER_79_231
*3053 FILLER_79_234
*3054 FILLER_79_237
*3055 FILLER_79_24
*3056 FILLER_79_240
*3057 FILLER_79_243
*3058 FILLER_79_246
*3059 FILLER_79_249
*3060 FILLER_79_253
*3061 FILLER_79_256
*3062 FILLER_79_259
*3063 FILLER_79_262
*3064 FILLER_79_265
*3065 FILLER_79_268
*3066 FILLER_79_27
*3067 FILLER_79_271
*3068 FILLER_79_274
*3069 FILLER_79_277
*3070 FILLER_79_281
*3071 FILLER_79_284
*3072 FILLER_79_287
*3073 FILLER_79_29
*3074 FILLER_79_290
*3075 FILLER_79_293
*3076 FILLER_79_296
*3077 FILLER_79_299
*3078 FILLER_79_3
*3079 FILLER_79_302
*3080 FILLER_79_305
*3081 FILLER_79_309
*3082 FILLER_79_312
*3083 FILLER_79_315
*3084 FILLER_79_318
*3085 FILLER_79_32
*3086 FILLER_79_321
*3087 FILLER_79_324
*3088 FILLER_79_335
*3089 FILLER_79_337
*3090 FILLER_79_340
*3091 FILLER_79_343
*3092 FILLER_79_346
*3093 FILLER_79_349
*3094 FILLER_79_35
*3095 FILLER_79_352
*3096 FILLER_79_355
*3097 FILLER_79_358
*3098 FILLER_79_361
*3099 FILLER_79_365
*3100 FILLER_79_368
*3101 FILLER_79_371
*3102 FILLER_79_374
*3103 FILLER_79_377
*3104 FILLER_79_38
*3105 FILLER_79_380
*3106 FILLER_79_383
*3107 FILLER_79_386
*3108 FILLER_79_389
*3109 FILLER_79_393
*3110 FILLER_79_396
*3111 FILLER_79_399
*3112 FILLER_79_402
*3113 FILLER_79_405
*3114 FILLER_79_408
*3115 FILLER_79_41
*3116 FILLER_79_411
*3117 FILLER_79_414
*3118 FILLER_79_417
*3119 FILLER_79_421
*3120 FILLER_79_424
*3121 FILLER_79_427
*3122 FILLER_79_430
*3123 FILLER_79_433
*3124 FILLER_79_436
*3125 FILLER_79_439
*3126 FILLER_79_44
*3127 FILLER_79_442
*3128 FILLER_79_445
*3129 FILLER_79_449
*3130 FILLER_79_452
*3131 FILLER_79_455
*3132 FILLER_79_458
*3133 FILLER_79_467
*3134 FILLER_79_47
*3135 FILLER_79_470
*3136 FILLER_79_473
*3137 FILLER_79_477
*3138 FILLER_79_480
*3139 FILLER_79_483
*3140 FILLER_79_486
*3141 FILLER_79_489
*3142 FILLER_79_492
*3143 FILLER_79_495
*3144 FILLER_79_498
*3145 FILLER_79_50
*3146 FILLER_79_501
*3147 FILLER_79_505
*3148 FILLER_79_508
*3149 FILLER_79_511
*3150 FILLER_79_514
*3151 FILLER_79_517
*3152 FILLER_79_520
*3153 FILLER_79_523
*3154 FILLER_79_526
*3155 FILLER_79_529
*3156 FILLER_79_53
*3157 FILLER_79_533
*3158 FILLER_79_536
*3159 FILLER_79_539
*3160 FILLER_79_542
*3161 FILLER_79_545
*3162 FILLER_79_548
*3163 FILLER_79_551
*3164 FILLER_79_554
*3165 FILLER_79_557
*3166 FILLER_79_561
*3167 FILLER_79_564
*3168 FILLER_79_567
*3169 FILLER_79_57
*3170 FILLER_79_570
*3171 FILLER_79_6
*3172 FILLER_79_60
*3173 FILLER_79_63
*3174 FILLER_79_66
*3175 FILLER_79_77
*3176 FILLER_79_80
*3177 FILLER_79_83
*3178 FILLER_79_85
*3179 FILLER_79_88
*3180 FILLER_79_9
*3181 FILLER_79_91
*3182 FILLER_79_94
*3183 FILLER_79_97
*3184 FILLER_7_531
*3185 FILLER_7_534
*3186 FILLER_7_537
*3187 FILLER_7_540
*3188 FILLER_7_543
*3189 FILLER_7_546
*3190 FILLER_7_549
*3191 FILLER_7_552
*3192 FILLER_7_555
*3193 FILLER_7_558
*3194 FILLER_7_561
*3195 FILLER_7_564
*3196 FILLER_7_567
*3197 FILLER_7_570
*3198 FILLER_8_531
*3199 FILLER_8_534
*3200 FILLER_8_537
*3201 FILLER_8_540
*3202 FILLER_8_543
*3203 FILLER_8_546
*3204 FILLER_8_549
*3205 FILLER_8_552
*3206 FILLER_8_555
*3207 FILLER_8_557
*3208 FILLER_8_560
*3209 FILLER_8_563
*3210 FILLER_8_566
*3211 FILLER_8_569
*3212 FILLER_8_572
*3213 FILLER_9_531
*3214 FILLER_9_534
*3215 FILLER_9_537
*3216 FILLER_9_540
*3217 FILLER_9_543
*3218 FILLER_9_546
*3219 FILLER_9_549
*3220 FILLER_9_552
*3221 FILLER_9_555
*3222 FILLER_9_558
*3223 FILLER_9_561
*3224 FILLER_9_564
*3225 FILLER_9_567
*3226 FILLER_9_570
*3227 PHY_EDGE_ROW_0_Left_72
*3228 PHY_EDGE_ROW_0_Right_74
*3229 PHY_EDGE_ROW_10_5_Left_62
*3230 PHY_EDGE_ROW_10_5_Right_83
*3231 PHY_EDGE_ROW_11_5_Left_63
*3232 PHY_EDGE_ROW_11_5_Right_84
*3233 PHY_EDGE_ROW_12_5_Left_64
*3234 PHY_EDGE_ROW_12_5_Right_85
*3235 PHY_EDGE_ROW_13_5_Left_65
*3236 PHY_EDGE_ROW_13_5_Right_86
*3237 PHY_EDGE_ROW_14_5_Left_66
*3238 PHY_EDGE_ROW_14_5_Right_87
*3239 PHY_EDGE_ROW_15_5_Left_67
*3240 PHY_EDGE_ROW_15_5_Right_88
*3241 PHY_EDGE_ROW_16_5_Left_68
*3242 PHY_EDGE_ROW_16_5_Right_89
*3243 PHY_EDGE_ROW_17_5_Left_69
*3244 PHY_EDGE_ROW_17_5_Right_90
*3245 PHY_EDGE_ROW_18_5_Left_70
*3246 PHY_EDGE_ROW_18_5_Right_91
*3247 PHY_EDGE_ROW_19_Left_53
*3248 PHY_EDGE_ROW_19_Right_93
*3249 PHY_EDGE_ROW_1_Left_73
*3250 PHY_EDGE_ROW_1_Right_75
*3251 PHY_EDGE_ROW_20_Left_54
*3252 PHY_EDGE_ROW_20_Right_94
*3253 PHY_EDGE_ROW_21_5_Left_36
*3254 PHY_EDGE_ROW_21_5_Right_92
*3255 PHY_EDGE_ROW_22_5_Left_37
*3256 PHY_EDGE_ROW_22_5_Right_95
*3257 PHY_EDGE_ROW_23_5_Left_38
*3258 PHY_EDGE_ROW_23_5_Right_96
*3259 PHY_EDGE_ROW_24_5_Left_39
*3260 PHY_EDGE_ROW_24_5_Right_97
*3261 PHY_EDGE_ROW_25_5_Left_40
*3262 PHY_EDGE_ROW_25_5_Right_98
*3263 PHY_EDGE_ROW_26_5_Left_41
*3264 PHY_EDGE_ROW_26_5_Right_99
*3265 PHY_EDGE_ROW_27_5_Left_42
*3266 PHY_EDGE_ROW_27_5_Right_100
*3267 PHY_EDGE_ROW_28_5_Left_43
*3268 PHY_EDGE_ROW_28_5_Right_101
*3269 PHY_EDGE_ROW_29_5_Left_44
*3270 PHY_EDGE_ROW_29_5_Right_102
*3271 PHY_EDGE_ROW_2_5_Left_71
*3272 PHY_EDGE_ROW_2_5_Right_153
*3273 PHY_EDGE_ROW_30_5_Left_45
*3274 PHY_EDGE_ROW_30_5_Right_103
*3275 PHY_EDGE_ROW_31_5_Left_46
*3276 PHY_EDGE_ROW_31_5_Right_104
*3277 PHY_EDGE_ROW_32_5_Left_47
*3278 PHY_EDGE_ROW_32_5_Right_105
*3279 PHY_EDGE_ROW_33_5_Left_48
*3280 PHY_EDGE_ROW_33_5_Right_106
*3281 PHY_EDGE_ROW_34_5_Left_49
*3282 PHY_EDGE_ROW_34_5_Right_107
*3283 PHY_EDGE_ROW_35_5_Left_50
*3284 PHY_EDGE_ROW_35_5_Right_108
*3285 PHY_EDGE_ROW_36_5_Left_51
*3286 PHY_EDGE_ROW_36_5_Right_109
*3287 PHY_EDGE_ROW_37_5_Left_52
*3288 PHY_EDGE_ROW_37_5_Right_110
*3289 PHY_EDGE_ROW_38_Left_35
*3290 PHY_EDGE_ROW_38_Right_112
*3291 PHY_EDGE_ROW_39_5_Left_18
*3292 PHY_EDGE_ROW_39_5_Right_111
*3293 PHY_EDGE_ROW_3_5_Left_55
*3294 PHY_EDGE_ROW_3_5_Right_76
*3295 PHY_EDGE_ROW_40_5_Left_19
*3296 PHY_EDGE_ROW_40_5_Right_113
*3297 PHY_EDGE_ROW_41_5_Left_20
*3298 PHY_EDGE_ROW_41_5_Right_114
*3299 PHY_EDGE_ROW_42_5_Left_21
*3300 PHY_EDGE_ROW_42_5_Right_115
*3301 PHY_EDGE_ROW_43_5_Left_22
*3302 PHY_EDGE_ROW_43_5_Right_116
*3303 PHY_EDGE_ROW_44_5_Left_23
*3304 PHY_EDGE_ROW_44_5_Right_117
*3305 PHY_EDGE_ROW_45_5_Left_24
*3306 PHY_EDGE_ROW_45_5_Right_118
*3307 PHY_EDGE_ROW_46_5_Left_25
*3308 PHY_EDGE_ROW_46_5_Right_119
*3309 PHY_EDGE_ROW_47_5_Left_26
*3310 PHY_EDGE_ROW_47_5_Right_120
*3311 PHY_EDGE_ROW_48_5_Left_27
*3312 PHY_EDGE_ROW_48_5_Right_121
*3313 PHY_EDGE_ROW_49_5_Left_28
*3314 PHY_EDGE_ROW_49_5_Right_122
*3315 PHY_EDGE_ROW_4_5_Left_56
*3316 PHY_EDGE_ROW_4_5_Right_77
*3317 PHY_EDGE_ROW_50_5_Left_29
*3318 PHY_EDGE_ROW_50_5_Right_123
*3319 PHY_EDGE_ROW_51_5_Left_30
*3320 PHY_EDGE_ROW_51_5_Right_124
*3321 PHY_EDGE_ROW_52_5_Left_31
*3322 PHY_EDGE_ROW_52_5_Right_125
*3323 PHY_EDGE_ROW_53_5_Left_32
*3324 PHY_EDGE_ROW_53_5_Right_126
*3325 PHY_EDGE_ROW_54_5_Left_33
*3326 PHY_EDGE_ROW_54_5_Right_127
*3327 PHY_EDGE_ROW_55_5_Left_34
*3328 PHY_EDGE_ROW_55_5_Right_128
*3329 PHY_EDGE_ROW_56_Left_17
*3330 PHY_EDGE_ROW_56_Right_130
*3331 PHY_EDGE_ROW_57_5_Left_0
*3332 PHY_EDGE_ROW_57_5_Right_129
*3333 PHY_EDGE_ROW_58_5_Left_1
*3334 PHY_EDGE_ROW_58_5_Right_131
*3335 PHY_EDGE_ROW_59_5_Left_2
*3336 PHY_EDGE_ROW_59_5_Right_132
*3337 PHY_EDGE_ROW_5_5_Left_57
*3338 PHY_EDGE_ROW_5_5_Right_78
*3339 PHY_EDGE_ROW_60_5_Left_3
*3340 PHY_EDGE_ROW_60_5_Right_133
*3341 PHY_EDGE_ROW_61_5_Left_4
*3342 PHY_EDGE_ROW_61_5_Right_134
*3343 PHY_EDGE_ROW_62_5_Left_5
*3344 PHY_EDGE_ROW_62_5_Right_135
*3345 PHY_EDGE_ROW_63_5_Left_6
*3346 PHY_EDGE_ROW_63_5_Right_136
*3347 PHY_EDGE_ROW_64_5_Left_7
*3348 PHY_EDGE_ROW_64_5_Right_137
*3349 PHY_EDGE_ROW_65_5_Left_8
*3350 PHY_EDGE_ROW_65_5_Right_138
*3351 PHY_EDGE_ROW_66_5_Left_9
*3352 PHY_EDGE_ROW_66_5_Right_139
*3353 PHY_EDGE_ROW_67_5_Left_10
*3354 PHY_EDGE_ROW_67_5_Right_140
*3355 PHY_EDGE_ROW_68_5_Left_11
*3356 PHY_EDGE_ROW_68_5_Right_141
*3357 PHY_EDGE_ROW_69_5_Left_12
*3358 PHY_EDGE_ROW_69_5_Right_142
*3359 PHY_EDGE_ROW_6_5_Left_58
*3360 PHY_EDGE_ROW_6_5_Right_79
*3361 PHY_EDGE_ROW_70_5_Left_13
*3362 PHY_EDGE_ROW_70_5_Right_143
*3363 PHY_EDGE_ROW_71_5_Left_14
*3364 PHY_EDGE_ROW_71_5_Right_144
*3365 PHY_EDGE_ROW_72_5_Left_15
*3366 PHY_EDGE_ROW_72_5_Right_145
*3367 PHY_EDGE_ROW_73_5_Left_16
*3368 PHY_EDGE_ROW_73_5_Right_146
*3369 PHY_EDGE_ROW_74_Left_154
*3370 PHY_EDGE_ROW_74_Right_147
*3371 PHY_EDGE_ROW_75_Left_155
*3372 PHY_EDGE_ROW_75_Right_148
*3373 PHY_EDGE_ROW_76_Left_156
*3374 PHY_EDGE_ROW_76_Right_149
*3375 PHY_EDGE_ROW_77_Left_157
*3376 PHY_EDGE_ROW_77_Right_150
*3377 PHY_EDGE_ROW_78_Left_158
*3378 PHY_EDGE_ROW_78_Right_151
*3379 PHY_EDGE_ROW_79_Left_159
*3380 PHY_EDGE_ROW_79_Right_152
*3381 PHY_EDGE_ROW_7_5_Left_59
*3382 PHY_EDGE_ROW_7_5_Right_80
*3383 PHY_EDGE_ROW_8_5_Left_60
*3384 PHY_EDGE_ROW_8_5_Right_81
*3385 PHY_EDGE_ROW_9_5_Left_61
*3386 PHY_EDGE_ROW_9_5_Right_82
*3387 TAP_TAPCELL_ROW_0_160
*3388 TAP_TAPCELL_ROW_0_161
*3389 TAP_TAPCELL_ROW_0_162
*3390 TAP_TAPCELL_ROW_0_163
*3391 TAP_TAPCELL_ROW_0_164
*3392 TAP_TAPCELL_ROW_0_165
*3393 TAP_TAPCELL_ROW_0_166
*3394 TAP_TAPCELL_ROW_0_167
*3395 TAP_TAPCELL_ROW_0_168
*3396 TAP_TAPCELL_ROW_0_169
*3397 TAP_TAPCELL_ROW_0_170
*3398 TAP_TAPCELL_ROW_0_171
*3399 TAP_TAPCELL_ROW_0_172
*3400 TAP_TAPCELL_ROW_0_173
*3401 TAP_TAPCELL_ROW_0_174
*3402 TAP_TAPCELL_ROW_0_175
*3403 TAP_TAPCELL_ROW_0_176
*3404 TAP_TAPCELL_ROW_0_177
*3405 TAP_TAPCELL_ROW_0_178
*3406 TAP_TAPCELL_ROW_0_179
*3407 TAP_TAPCELL_ROW_10_5_203
*3408 TAP_TAPCELL_ROW_12_5_204
*3409 TAP_TAPCELL_ROW_14_5_205
*3410 TAP_TAPCELL_ROW_16_5_206
*3411 TAP_TAPCELL_ROW_18_5_207
*3412 TAP_TAPCELL_ROW_19_208
*3413 TAP_TAPCELL_ROW_19_209
*3414 TAP_TAPCELL_ROW_19_210
*3415 TAP_TAPCELL_ROW_19_211
*3416 TAP_TAPCELL_ROW_19_212
*3417 TAP_TAPCELL_ROW_19_213
*3418 TAP_TAPCELL_ROW_19_214
*3419 TAP_TAPCELL_ROW_19_215
*3420 TAP_TAPCELL_ROW_19_216
*3421 TAP_TAPCELL_ROW_19_217
*3422 TAP_TAPCELL_ROW_19_218
*3423 TAP_TAPCELL_ROW_19_219
*3424 TAP_TAPCELL_ROW_19_220
*3425 TAP_TAPCELL_ROW_19_221
*3426 TAP_TAPCELL_ROW_19_222
*3427 TAP_TAPCELL_ROW_19_223
*3428 TAP_TAPCELL_ROW_19_224
*3429 TAP_TAPCELL_ROW_19_225
*3430 TAP_TAPCELL_ROW_19_226
*3431 TAP_TAPCELL_ROW_19_227
*3432 TAP_TAPCELL_ROW_1_180
*3433 TAP_TAPCELL_ROW_1_181
*3434 TAP_TAPCELL_ROW_1_182
*3435 TAP_TAPCELL_ROW_1_183
*3436 TAP_TAPCELL_ROW_1_184
*3437 TAP_TAPCELL_ROW_1_185
*3438 TAP_TAPCELL_ROW_1_186
*3439 TAP_TAPCELL_ROW_1_187
*3440 TAP_TAPCELL_ROW_1_188
*3441 TAP_TAPCELL_ROW_1_189
*3442 TAP_TAPCELL_ROW_1_190
*3443 TAP_TAPCELL_ROW_1_191
*3444 TAP_TAPCELL_ROW_1_192
*3445 TAP_TAPCELL_ROW_1_193
*3446 TAP_TAPCELL_ROW_1_194
*3447 TAP_TAPCELL_ROW_1_195
*3448 TAP_TAPCELL_ROW_1_196
*3449 TAP_TAPCELL_ROW_1_197
*3450 TAP_TAPCELL_ROW_1_198
*3451 TAP_TAPCELL_ROW_1_199
*3452 TAP_TAPCELL_ROW_20_228
*3453 TAP_TAPCELL_ROW_20_229
*3454 TAP_TAPCELL_ROW_20_230
*3455 TAP_TAPCELL_ROW_20_231
*3456 TAP_TAPCELL_ROW_20_232
*3457 TAP_TAPCELL_ROW_20_233
*3458 TAP_TAPCELL_ROW_20_234
*3459 TAP_TAPCELL_ROW_20_235
*3460 TAP_TAPCELL_ROW_20_236
*3461 TAP_TAPCELL_ROW_20_237
*3462 TAP_TAPCELL_ROW_20_238
*3463 TAP_TAPCELL_ROW_20_239
*3464 TAP_TAPCELL_ROW_20_240
*3465 TAP_TAPCELL_ROW_20_241
*3466 TAP_TAPCELL_ROW_20_242
*3467 TAP_TAPCELL_ROW_20_243
*3468 TAP_TAPCELL_ROW_20_244
*3469 TAP_TAPCELL_ROW_20_245
*3470 TAP_TAPCELL_ROW_20_246
*3471 TAP_TAPCELL_ROW_20_247
*3472 TAP_TAPCELL_ROW_22_5_248
*3473 TAP_TAPCELL_ROW_24_5_249
*3474 TAP_TAPCELL_ROW_26_5_250
*3475 TAP_TAPCELL_ROW_28_5_251
*3476 TAP_TAPCELL_ROW_2_5_392
*3477 TAP_TAPCELL_ROW_30_5_252
*3478 TAP_TAPCELL_ROW_32_5_253
*3479 TAP_TAPCELL_ROW_34_5_254
*3480 TAP_TAPCELL_ROW_36_5_255
*3481 TAP_TAPCELL_ROW_38_256
*3482 TAP_TAPCELL_ROW_38_257
*3483 TAP_TAPCELL_ROW_38_258
*3484 TAP_TAPCELL_ROW_38_259
*3485 TAP_TAPCELL_ROW_38_260
*3486 TAP_TAPCELL_ROW_38_261
*3487 TAP_TAPCELL_ROW_38_262
*3488 TAP_TAPCELL_ROW_38_263
*3489 TAP_TAPCELL_ROW_38_264
*3490 TAP_TAPCELL_ROW_38_265
*3491 TAP_TAPCELL_ROW_38_266
*3492 TAP_TAPCELL_ROW_38_267
*3493 TAP_TAPCELL_ROW_38_268
*3494 TAP_TAPCELL_ROW_38_269
*3495 TAP_TAPCELL_ROW_38_270
*3496 TAP_TAPCELL_ROW_38_271
*3497 TAP_TAPCELL_ROW_38_272
*3498 TAP_TAPCELL_ROW_38_273
*3499 TAP_TAPCELL_ROW_38_274
*3500 TAP_TAPCELL_ROW_38_275
*3501 TAP_TAPCELL_ROW_40_5_276
*3502 TAP_TAPCELL_ROW_42_5_277
*3503 TAP_TAPCELL_ROW_44_5_278
*3504 TAP_TAPCELL_ROW_46_5_279
*3505 TAP_TAPCELL_ROW_48_5_280
*3506 TAP_TAPCELL_ROW_4_5_200
*3507 TAP_TAPCELL_ROW_50_5_281
*3508 TAP_TAPCELL_ROW_52_5_282
*3509 TAP_TAPCELL_ROW_54_5_283
*3510 TAP_TAPCELL_ROW_56_284
*3511 TAP_TAPCELL_ROW_56_285
*3512 TAP_TAPCELL_ROW_56_286
*3513 TAP_TAPCELL_ROW_56_287
*3514 TAP_TAPCELL_ROW_56_288
*3515 TAP_TAPCELL_ROW_56_289
*3516 TAP_TAPCELL_ROW_56_290
*3517 TAP_TAPCELL_ROW_56_291
*3518 TAP_TAPCELL_ROW_56_292
*3519 TAP_TAPCELL_ROW_56_293
*3520 TAP_TAPCELL_ROW_56_294
*3521 TAP_TAPCELL_ROW_56_295
*3522 TAP_TAPCELL_ROW_56_296
*3523 TAP_TAPCELL_ROW_56_297
*3524 TAP_TAPCELL_ROW_56_298
*3525 TAP_TAPCELL_ROW_56_299
*3526 TAP_TAPCELL_ROW_56_300
*3527 TAP_TAPCELL_ROW_56_301
*3528 TAP_TAPCELL_ROW_56_302
*3529 TAP_TAPCELL_ROW_56_303
*3530 TAP_TAPCELL_ROW_58_5_304
*3531 TAP_TAPCELL_ROW_60_5_305
*3532 TAP_TAPCELL_ROW_62_5_306
*3533 TAP_TAPCELL_ROW_64_5_307
*3534 TAP_TAPCELL_ROW_66_5_308
*3535 TAP_TAPCELL_ROW_68_5_309
*3536 TAP_TAPCELL_ROW_6_5_201
*3537 TAP_TAPCELL_ROW_70_5_310
*3538 TAP_TAPCELL_ROW_72_5_311
*3539 TAP_TAPCELL_ROW_74_312
*3540 TAP_TAPCELL_ROW_74_313
*3541 TAP_TAPCELL_ROW_74_314
*3542 TAP_TAPCELL_ROW_74_315
*3543 TAP_TAPCELL_ROW_74_316
*3544 TAP_TAPCELL_ROW_74_317
*3545 TAP_TAPCELL_ROW_74_318
*3546 TAP_TAPCELL_ROW_74_319
*3547 TAP_TAPCELL_ROW_74_320
*3548 TAP_TAPCELL_ROW_74_321
*3549 TAP_TAPCELL_ROW_74_322
*3550 TAP_TAPCELL_ROW_74_323
*3551 TAP_TAPCELL_ROW_74_324
*3552 TAP_TAPCELL_ROW_74_325
*3553 TAP_TAPCELL_ROW_74_326
*3554 TAP_TAPCELL_ROW_74_327
*3555 TAP_TAPCELL_ROW_74_328
*3556 TAP_TAPCELL_ROW_74_329
*3557 TAP_TAPCELL_ROW_74_330
*3558 TAP_TAPCELL_ROW_74_331
*3559 TAP_TAPCELL_ROW_75_332
*3560 TAP_TAPCELL_ROW_75_333
*3561 TAP_TAPCELL_ROW_75_334
*3562 TAP_TAPCELL_ROW_75_335
*3563 TAP_TAPCELL_ROW_75_336
*3564 TAP_TAPCELL_ROW_75_337
*3565 TAP_TAPCELL_ROW_75_338
*3566 TAP_TAPCELL_ROW_75_339
*3567 TAP_TAPCELL_ROW_75_340
*3568 TAP_TAPCELL_ROW_75_341
*3569 TAP_TAPCELL_ROW_76_342
*3570 TAP_TAPCELL_ROW_76_343
*3571 TAP_TAPCELL_ROW_76_344
*3572 TAP_TAPCELL_ROW_76_345
*3573 TAP_TAPCELL_ROW_76_346
*3574 TAP_TAPCELL_ROW_76_347
*3575 TAP_TAPCELL_ROW_76_348
*3576 TAP_TAPCELL_ROW_76_349
*3577 TAP_TAPCELL_ROW_76_350
*3578 TAP_TAPCELL_ROW_76_351
*3579 TAP_TAPCELL_ROW_77_352
*3580 TAP_TAPCELL_ROW_77_353
*3581 TAP_TAPCELL_ROW_77_354
*3582 TAP_TAPCELL_ROW_77_355
*3583 TAP_TAPCELL_ROW_77_356
*3584 TAP_TAPCELL_ROW_77_357
*3585 TAP_TAPCELL_ROW_77_358
*3586 TAP_TAPCELL_ROW_77_359
*3587 TAP_TAPCELL_ROW_77_360
*3588 TAP_TAPCELL_ROW_77_361
*3589 TAP_TAPCELL_ROW_78_362
*3590 TAP_TAPCELL_ROW_78_363
*3591 TAP_TAPCELL_ROW_78_364
*3592 TAP_TAPCELL_ROW_78_365
*3593 TAP_TAPCELL_ROW_78_366
*3594 TAP_TAPCELL_ROW_78_367
*3595 TAP_TAPCELL_ROW_78_368
*3596 TAP_TAPCELL_ROW_78_369
*3597 TAP_TAPCELL_ROW_78_370
*3598 TAP_TAPCELL_ROW_78_371
*3599 TAP_TAPCELL_ROW_79_372
*3600 TAP_TAPCELL_ROW_79_373
*3601 TAP_TAPCELL_ROW_79_374
*3602 TAP_TAPCELL_ROW_79_375
*3603 TAP_TAPCELL_ROW_79_376
*3604 TAP_TAPCELL_ROW_79_377
*3605 TAP_TAPCELL_ROW_79_378
*3606 TAP_TAPCELL_ROW_79_379
*3607 TAP_TAPCELL_ROW_79_380
*3608 TAP_TAPCELL_ROW_79_381
*3609 TAP_TAPCELL_ROW_79_382
*3610 TAP_TAPCELL_ROW_79_383
*3611 TAP_TAPCELL_ROW_79_384
*3612 TAP_TAPCELL_ROW_79_385
*3613 TAP_TAPCELL_ROW_79_386
*3614 TAP_TAPCELL_ROW_79_387
*3615 TAP_TAPCELL_ROW_79_388
*3616 TAP_TAPCELL_ROW_79_389
*3617 TAP_TAPCELL_ROW_79_390
*3618 TAP_TAPCELL_ROW_79_391
*3619 TAP_TAPCELL_ROW_8_5_202
*3620 fanout17
*3621 fanout18
*3622 output1
*3623 output10
*3624 output11
*3625 output12
*3626 output13
*3627 output14
*3628 output15
*3629 output16
*3630 output2
*3631 output3
*3632 output4
*3633 output5
*3634 output6
*3635 output7
*3636 output8
*3637 output9
*3638 u_rob0
*3639 u_rob1
*3640 u_rob10
*3641 u_rob11
*3642 u_rob12
*3643 u_rob13
*3644 u_rob14
*3645 u_rob15
*3646 u_rob2
*3647 u_rob3
*3648 u_rob4
*3649 u_rob5
*3650 u_rob6
*3651 u_rob7
*3652 u_rob8
*3653 u_rob9

*PORTS
en I
out[0] O
out[10] O
out[11] O
out[12] O
out[13] O
out[14] O
out[15] O
out[1] O
out[2] O
out[3] O
out[4] O
out[5] O
out[6] O
out[7] O
out[8] O
out[9] O

*D_NET *3 0.0132883
*CONN
*P en I
*I *3621:A I *D sky130_fd_sc_hd__clkdlybuf4s25_1
*I *3620:A I *D sky130_fd_sc_hd__clkdlybuf4s25_1
*CAP
1 en 0.000815912
2 *3621:A 0
3 *3620:A 0
4 *3:24 0.00582825
5 *3:17 0.00664416
*RES
1 en *3:17 16.535 
2 *3:17 *3620:A 1.6 
3 *3:17 *3:24 87.735 
4 *3:24 *3621:A 1.6 
*END

*D_NET *4 0.000889835
*CONN
*P out[0] O
*I *3622:X O *D sky130_fd_sc_hd__clkdlybuf4s25_1
*CAP
1 out[0] 0.000444917
2 *3622:X 0.000444917
*RES
1 *3622:X out[0] 7.25663 
*END

*D_NET *5 0.0012488
*CONN
*P out[10] O
*I *3630:X O *D sky130_fd_sc_hd__clkdlybuf4s25_1
*CAP
1 out[10] 0.000384949
2 *3630:X 0.000384949
3 out[10] out[14] 0.000478897
*RES
1 *3630:X out[10] 13.275 
*END

*D_NET *6 0.000779328
*CONN
*P out[11] O
*I *3631:X O *D sky130_fd_sc_hd__clkdlybuf4s25_1
*CAP
1 out[11] 0.000389664
2 *3631:X 0.000389664
*RES
1 *3631:X out[11] 6.23663 
*END

*D_NET *7 0.0014859
*CONN
*P out[12] O
*I *3632:X O *D sky130_fd_sc_hd__clkdlybuf4s25_1
*CAP
1 out[12] 0.000717968
2 *3632:X 0.000717968
3 out[12] *3632:A 4.99619e-05
*RES
1 *3632:X out[12] 15.69 
*END

*D_NET *8 0.00146188
*CONN
*P out[13] O
*I *3633:X O *D sky130_fd_sc_hd__clkdlybuf4s25_1
*CAP
1 out[13] 0.000489147
2 *3633:X 0.000489147
3 out[13] out[9] 0.000483589
*RES
1 *3633:X out[13] 15.165 
*END

*D_NET *9 0.00194139
*CONN
*P out[14] O
*I *3634:X O *D sky130_fd_sc_hd__clkdlybuf4s25_1
*CAP
1 out[14] 0.000722052
2 *3634:X 0.000722052
3 out[14] *3630:A 0
4 out[14] *3634:A 1.83847e-05
5 out[10] out[14] 0.000478897
*RES
1 *3634:X out[14] 17.475 
*END

*D_NET *10 0.00145707
*CONN
*P out[15] O
*I *3635:X O *D sky130_fd_sc_hd__clkdlybuf4s25_1
*CAP
1 out[15] 0.000728537
2 *3635:X 0.000728537
*RES
1 *3635:X out[15] 16.35 
*END

*D_NET *11 0.00149823
*CONN
*P out[1] O
*I *3636:X O *D sky130_fd_sc_hd__clkdlybuf4s25_1
*CAP
1 out[1] 0.000735353
2 *3636:X 0.000735353
3 out[1] *3636:A 2.75229e-05
*RES
1 *3636:X out[1] 14.955 
*END

*D_NET *12 0.00142491
*CONN
*P out[2] O
*I *3637:X O *D sky130_fd_sc_hd__clkdlybuf4s25_1
*CAP
1 out[2] 0.000712457
2 *3637:X 0.000712457
*RES
1 *3637:X out[2] 14.61 
*END

*D_NET *13 0.00148762
*CONN
*P out[3] O
*I *3623:X O *D sky130_fd_sc_hd__clkdlybuf4s25_1
*CAP
1 out[3] 0.000743808
2 *3623:X 0.000743808
*RES
1 *3623:X out[3] 14.955 
*END

*D_NET *14 0.00166346
*CONN
*P out[4] O
*I *3624:X O *D sky130_fd_sc_hd__clkdlybuf4s25_1
*CAP
1 out[4] 0.000610758
2 *3624:X 0.000610758
3 out[4] out[5] 0.000145128
4 out[4] *3625:A 0.000296814
*RES
1 *3624:X out[4] 9.76277 
*END

*D_NET *15 0.00115111
*CONN
*P out[5] O
*I *3625:X O *D sky130_fd_sc_hd__clkdlybuf4s25_1
*CAP
1 out[5] 0.000502992
2 *3625:X 0.000502992
3 out[4] out[5] 0.000145128
*RES
1 *3625:X out[5] 10.9622 
*END

*D_NET *16 0.000811815
*CONN
*P out[6] O
*I *3626:X O *D sky130_fd_sc_hd__clkdlybuf4s25_1
*CAP
1 out[6] 0.000232279
2 *3626:X 0.000232279
3 out[6] out[7] 0.000347256
4 out[6] *3626:A 0
*RES
1 *3626:X out[6] 5.21663 
*END

*D_NET *17 0.000939126
*CONN
*P out[7] O
*I *3627:X O *D sky130_fd_sc_hd__clkdlybuf4s25_1
*CAP
1 out[7] 0.000295935
2 *3627:X 0.000295935
3 out[6] out[7] 0.000347256
*RES
1 *3627:X out[7] 6.23663 
*END

*D_NET *18 0.00108399
*CONN
*P out[8] O
*I *3628:X O *D sky130_fd_sc_hd__clkdlybuf4s25_1
*CAP
1 out[8] 0.000541995
2 *3628:X 0.000541995
*RES
1 *3628:X out[8] 12.1092 
*END

*D_NET *19 0.00125337
*CONN
*P out[9] O
*I *3629:X O *D sky130_fd_sc_hd__clkdlybuf4s25_1
*CAP
1 out[9] 0.000384888
2 *3629:X 0.000384888
3 out[13] out[9] 0.000483589
*RES
1 *3629:X out[9] 13.275 
*END

*D_NET *20 0.00297699
*CONN
*I *3622:A I *D sky130_fd_sc_hd__clkdlybuf4s25_1
*I *3638:out O *D ro_macro_hard
*CAP
1 *3622:A 0.00148849
2 *3638:out 0.00148849
*RES
1 *3638:out *3622:A 26.595 
*END

*D_NET *21 0.00462655
*CONN
*I *3623:A I *D sky130_fd_sc_hd__clkdlybuf4s25_1
*I *3647:out O *D ro_macro_hard
*CAP
1 *3623:A 0.00211656
2 *3647:out 0.00211656
3 *3623:A *3651:en 0.00039342
4 *3623:A *29:18 0
*RES
1 *3647:out *3623:A 17.3493 
*END

*D_NET *22 0.00273701
*CONN
*I *3624:A I *D sky130_fd_sc_hd__clkdlybuf4s25_1
*I *3648:out O *D ro_macro_hard
*CAP
1 *3624:A 0.0013685
2 *3648:out 0.0013685
*RES
1 *3648:out *3624:A 24.84 
*END

*D_NET *23 0.00821398
*CONN
*I *3625:A I *D sky130_fd_sc_hd__clkdlybuf4s25_1
*I *3649:out O *D ro_macro_hard
*CAP
1 *3625:A 0.000157327
2 *3649:out 2.55359e-05
3 *23:9 0.00393305
4 *23:7 0.00380126
5 out[4] *3625:A 0.000296814
*RES
1 *3649:out *23:7 2.405 
2 *23:7 *23:9 64.77 
3 *23:9 *3625:A 9.53 
*END

*D_NET *24 0.0104486
*CONN
*I *3626:A I *D sky130_fd_sc_hd__clkdlybuf4s25_1
*I *3650:out O *D ro_macro_hard
*CAP
1 *3626:A 0.00522432
2 *3650:out 0.00522432
3 out[6] *3626:A 0
*RES
1 *3650:out *3626:A 21.1627 
*END

*D_NET *25 0.00501737
*CONN
*I *3627:A I *D sky130_fd_sc_hd__clkdlybuf4s25_1
*I *3651:out O *D ro_macro_hard
*CAP
1 *3627:A 0.00250869
2 *3651:out 0.00250869
*RES
1 *3651:out *3627:A 43.38 
*END

*D_NET *26 0.00301168
*CONN
*I *3628:A I *D sky130_fd_sc_hd__clkdlybuf4s25_1
*I *3652:out O *D ro_macro_hard
*CAP
1 *3628:A 0.00150584
2 *3652:out 0.00150584
3 *3628:A *3642:en 0
*RES
1 *3652:out *3628:A 26.82 
*END

*D_NET *27 0.00691742
*CONN
*I *3629:A I *D sky130_fd_sc_hd__clkdlybuf4s25_1
*I *3653:out O *D ro_macro_hard
*CAP
1 *3629:A 0.00345871
2 *3653:out 0.00345871
3 *3629:A *3633:A 0
4 *3629:A *3643:en 0
*RES
1 *3653:out *3629:A 26.6935 
*END

*D_NET *28 0.0484741
*CONN
*I *3638:en I *D ro_macro_hard
*I *3642:en I *D ro_macro_hard
*I *3652:en I *D ro_macro_hard
*I *3643:en I *D ro_macro_hard
*I *3653:en I *D ro_macro_hard
*I *3641:en I *D ro_macro_hard
*I *3640:en I *D ro_macro_hard
*I *3639:en I *D ro_macro_hard
*I *3649:en I *D ro_macro_hard
*I *3648:en I *D ro_macro_hard
*I *3620:X O *D sky130_fd_sc_hd__clkdlybuf4s25_1
*CAP
1 *3638:en 3.81834e-05
2 *3642:en 0.0025276
3 *3652:en 0.000189251
4 *3643:en 0.0025187
5 *3653:en 3.98359e-05
6 *3641:en 0.00283381
7 *3640:en 3.98359e-05
8 *3639:en 0.00254372
9 *3649:en 6.65814e-05
10 *3648:en 0.000111011
11 *3620:X 0.000211541
12 *28:124 0.00504703
13 *28:80 0.00568113
14 *28:76 0.00300994
15 *28:64 0.00501242
16 *28:46 0.0049368
17 *28:32 0.00314152
18 *28:20 0.00312397
19 *28:18 0.00474085
20 *28:10 0.0026604
21 *3639:en *3636:A 0
22 *3628:A *3642:en 0
23 *3629:A *3643:en 0
*RES
1 *3620:X *28:10 6.8325 
2 *28:10 *28:18 7.45113 
3 *28:18 *28:20 0.5 
4 *28:20 *3648:en 1.5179 
5 *28:20 *28:32 7.52527 
6 *28:32 *3649:en 1.6475 
7 *28:32 *28:46 0.6254 
8 *28:46 *3639:en 8.92477 
9 *28:46 *28:64 6.15347 
10 *28:64 *28:76 3.1204 
11 *28:76 *28:80 8.138 
12 *28:80 *3640:en 1.1525 
13 *28:80 *3641:en 8.7905 
14 *28:76 *3653:en 0.6525 
15 *28:64 *3643:en 14.0427 
16 *28:18 *28:124 6.15347 
17 *28:124 *3652:en 3.3079 
18 *28:124 *3642:en 13.7184 
19 *28:10 *3638:en 0.6225 
*END

*D_NET *29 0.032261
*CONN
*I *3644:en I *D ro_macro_hard
*I *3645:en I *D ro_macro_hard
*I *3650:en I *D ro_macro_hard
*I *3646:en I *D ro_macro_hard
*I *3647:en I *D ro_macro_hard
*I *3651:en I *D ro_macro_hard
*I *3621:X O *D sky130_fd_sc_hd__clkdlybuf4s25_1
*CAP
1 *3644:en 2.30579e-05
2 *3645:en 0.00299779
3 *3650:en 5.26364e-05
4 *3646:en 0.000235981
5 *3647:en 3.4625e-05
6 *3651:en 0.00224492
7 *3621:X 0
8 *29:90 0.00784773
9 *29:68 0.00744425
10 *29:46 0.00296524
11 *29:18 0.00506818
12 *29:6 0.00295316
13 *29:68 *3637:A 0
14 *29:90 *3630:A 0
15 *3623:A *3651:en 0.00039342
16 *3623:A *29:18 0
*RES
1 *3621:X *29:6 3.6 
2 *29:6 *29:18 13.029 
3 *29:18 *3651:en 9.26763 
4 *29:18 *3647:en 0.6225 
5 *29:6 *29:46 3.2825 
6 *29:46 *3646:en 1.65577 
7 *29:46 *29:68 7.859 
8 *29:68 *3650:en 1.3925 
9 *29:68 *29:90 16.5772 
10 *29:90 *3645:en 9.0429 
11 *29:90 *3644:en 0.4125 
*END

*D_NET *30 0.00676493
*CONN
*I *3630:A I *D sky130_fd_sc_hd__clkdlybuf4s25_1
*I *3640:out O *D ro_macro_hard
*CAP
1 *3630:A 0.00338247
2 *3640:out 0.00338247
3 *3630:A *3634:A 0
4 out[14] *3630:A 0
5 *29:90 *3630:A 0
*RES
1 *3640:out *3630:A 24.638 
*END

*D_NET *31 0.00488461
*CONN
*I *3631:A I *D sky130_fd_sc_hd__clkdlybuf4s25_1
*I *3641:out O *D ro_macro_hard
*CAP
1 *3631:A 0.00244231
2 *3641:out 0.00244231
*RES
1 *3641:out *3631:A 42.3225 
*END

*D_NET *32 0.00168985
*CONN
*I *3632:A I *D sky130_fd_sc_hd__clkdlybuf4s25_1
*I *3642:out O *D ro_macro_hard
*CAP
1 *3632:A 0.000819946
2 *3642:out 0.000819946
3 out[12] *3632:A 4.99619e-05
*RES
1 *3642:out *3632:A 17.52 
*END

*D_NET *33 0.00176039
*CONN
*I *3633:A I *D sky130_fd_sc_hd__clkdlybuf4s25_1
*I *3643:out O *D ro_macro_hard
*CAP
1 *3633:A 0.000880194
2 *3643:out 0.000880194
3 *3629:A *3633:A 0
*RES
1 *3643:out *3633:A 18 
*END

*D_NET *34 0.00135041
*CONN
*I *3634:A I *D sky130_fd_sc_hd__clkdlybuf4s25_1
*I *3644:out O *D ro_macro_hard
*CAP
1 *3634:A 0.000666013
2 *3644:out 0.000666013
3 out[14] *3634:A 1.83847e-05
4 *3630:A *3634:A 0
*RES
1 *3644:out *3634:A 14.88 
*END

*D_NET *35 0.0016422
*CONN
*I *3635:A I *D sky130_fd_sc_hd__clkdlybuf4s25_1
*I *3645:out O *D ro_macro_hard
*CAP
1 *3635:A 0.000821098
2 *3645:out 0.000821098
*RES
1 *3645:out *3635:A 17.49 
*END

*D_NET *36 0.00501248
*CONN
*I *3636:A I *D sky130_fd_sc_hd__clkdlybuf4s25_1
*I *3639:out O *D ro_macro_hard
*CAP
1 *3636:A 0.00249248
2 *3639:out 0.00249248
3 out[1] *3636:A 2.75229e-05
4 *3639:en *3636:A 0
*RES
1 *3639:out *3636:A 19.1675 
*END

*D_NET *37 0.00467977
*CONN
*I *3637:A I *D sky130_fd_sc_hd__clkdlybuf4s25_1
*I *3646:out O *D ro_macro_hard
*CAP
1 *3637:A 0.00233988
2 *3646:out 0.00233988
3 *29:68 *3637:A 0
*RES
1 *3646:out *3637:A 13.6016 
*END
