*SPEF "ieee 1481-1999"
*DESIGN "tt_um_nikodemetrashvili20_ro_puf"
*DATE "18:10:59 Friday June 19, 2026"
*VENDOR "The OpenROAD Project"
*PROGRAM "OpenROAD"
*VERSION "dcf36133a369abc8f3c5e5738cd4d82e4903c0e0"
*DESIGN_FLOW "NAME_SCOPE LOCAL" "PIN_CAP NONE"
*DIVIDER /
*DELIMITER :
*BUS_DELIMITER []
*T_UNIT 1 NS
*C_UNIT 1 PF
*R_UNIT 1 OHM
*L_UNIT 1 HENRY

*NAME_MAP
*3 clk
*4 ena
*5 rst_n
*6 ui_in[0]
*7 ui_in[1]
*8 ui_in[2]
*9 ui_in[3]
*10 ui_in[4]
*11 ui_in[5]
*12 ui_in[6]
*13 ui_in[7]
*14 uio_in[0]
*15 uio_in[1]
*16 uio_in[2]
*17 uio_in[3]
*18 uio_in[4]
*19 uio_in[5]
*20 uio_in[6]
*21 uio_in[7]
*22 net32
*23 net
*24 net19
*25 net20
*26 net21
*27 net22
*28 net23
*29 net24
*30 uio_out[0]
*31 net25
*32 net26
*33 net27
*34 net28
*35 net29
*36 net30
*37 net31
*38 uo_out[0]
*39 uo_out[1]
*40 uo_out[2]
*41 uo_out[3]
*42 uo_out[4]
*43 uo_out[5]
*44 uo_out[6]
*45 uo_out[7]
*46 _000_
*47 _001_
*48 _002_
*49 _003_
*50 _004_
*51 _005_
*52 _006_
*53 _007_
*54 _008_
*55 _009_
*56 _010_
*57 _011_
*58 _012_
*59 _013_
*60 _014_
*61 _015_
*62 _016_
*63 _017_
*64 _018_
*65 _019_
*66 _020_
*67 _021_
*68 _022_
*69 _023_
*70 _024_
*71 _025_
*72 _026_
*73 _027_
*74 _028_
*75 _029_
*76 _030_
*77 _031_
*78 _032_
*79 _033_
*80 _034_
*81 _035_
*82 _036_
*83 _037_
*84 _038_
*85 _039_
*86 _040_
*87 _041_
*88 _042_
*89 _043_
*90 _044_
*91 _045_
*92 _046_
*93 _047_
*94 _048_
*95 _049_
*96 _050_
*97 _051_
*98 _052_
*99 _053_
*100 _054_
*101 _055_
*102 _056_
*103 _057_
*104 _058_
*105 _059_
*106 _060_
*107 _061_
*108 _062_
*109 _063_
*110 _064_
*111 _065_
*112 _066_
*113 _067_
*114 _068_
*115 _069_
*116 _070_
*117 _071_
*118 _072_
*119 _073_
*120 _074_
*121 _075_
*122 _076_
*123 _077_
*124 _078_
*125 _079_
*126 _080_
*127 _081_
*128 _082_
*129 _083_
*130 _084_
*131 _085_
*132 _086_
*133 _087_
*134 _088_
*135 _089_
*136 _090_
*137 _091_
*138 _092_
*139 _093_
*140 _094_
*141 _095_
*142 _096_
*143 _097_
*144 _098_
*145 _099_
*146 _100_
*147 _101_
*148 _102_
*149 _103_
*150 _104_
*151 _105_
*152 _106_
*153 _107_
*154 _108_
*155 _109_
*156 _110_
*157 _111_
*158 _112_
*159 _113_
*160 _114_
*161 _115_
*162 _116_
*163 _117_
*164 _118_
*165 _119_
*166 clknet_0_clk
*167 clknet_2_0__leaf_clk
*168 clknet_2_1__leaf_clk
*169 clknet_2_2__leaf_clk
*170 clknet_2_3__leaf_clk
*171 done
*172 net1
*173 net10
*174 net11
*175 net12
*176 net13
*177 net14
*178 net15
*179 net16
*180 net17
*181 net18
*182 net2
*183 net3
*184 net33
*185 net34
*186 net35
*187 net36
*188 net37
*189 net38
*190 net39
*191 net4
*192 net40
*193 net41
*194 net5
*195 net6
*196 net7
*197 net8
*198 net9
*199 start_d
*200 u_puf\.u_core\.cnt_rst_n
*201 u_puf\.u_core\.en_window
*202 u_puf\.u_core\.g_ripple\[0\]\.q
*203 u_puf\.u_core\.g_ripple\[10\]\.q
*204 u_puf\.u_core\.g_ripple\[11\]\.q
*205 u_puf\.u_core\.g_ripple\[12\]\.q
*206 u_puf\.u_core\.g_ripple\[13\]\.q
*207 u_puf\.u_core\.g_ripple\[14\]\.q
*208 u_puf\.u_core\.g_ripple\[15\]\.q
*209 u_puf\.u_core\.g_ripple\[1\]\.q
*210 u_puf\.u_core\.g_ripple\[2\]\.q
*211 u_puf\.u_core\.g_ripple\[3\]\.q
*212 u_puf\.u_core\.g_ripple\[4\]\.q
*213 u_puf\.u_core\.g_ripple\[5\]\.q
*214 u_puf\.u_core\.g_ripple\[6\]\.q
*215 u_puf\.u_core\.g_ripple\[7\]\.q
*216 u_puf\.u_core\.g_ripple\[8\]\.q
*217 u_puf\.u_core\.g_ripple\[9\]\.q
*218 u_puf\.u_core\.g_ro_bank\[0\]\.u_ro\.en
*219 u_puf\.u_core\.g_ro_bank\[0\]\.u_ro\.n\[0\]
*220 u_puf\.u_core\.g_ro_bank\[0\]\.u_ro\.n\[10\]
*221 u_puf\.u_core\.g_ro_bank\[0\]\.u_ro\.n\[11\]
*222 u_puf\.u_core\.g_ro_bank\[0\]\.u_ro\.n\[12\]
*223 u_puf\.u_core\.g_ro_bank\[0\]\.u_ro\.n\[13\]
*224 u_puf\.u_core\.g_ro_bank\[0\]\.u_ro\.n\[14\]
*225 u_puf\.u_core\.g_ro_bank\[0\]\.u_ro\.n\[15\]
*226 u_puf\.u_core\.g_ro_bank\[0\]\.u_ro\.n\[16\]
*227 u_puf\.u_core\.g_ro_bank\[0\]\.u_ro\.n\[17\]
*228 u_puf\.u_core\.g_ro_bank\[0\]\.u_ro\.n\[18\]
*229 u_puf\.u_core\.g_ro_bank\[0\]\.u_ro\.n\[19\]
*230 u_puf\.u_core\.g_ro_bank\[0\]\.u_ro\.n\[1\]
*231 u_puf\.u_core\.g_ro_bank\[0\]\.u_ro\.n\[20\]
*232 u_puf\.u_core\.g_ro_bank\[0\]\.u_ro\.n\[21\]
*233 u_puf\.u_core\.g_ro_bank\[0\]\.u_ro\.n\[22\]
*234 u_puf\.u_core\.g_ro_bank\[0\]\.u_ro\.n\[23\]
*235 u_puf\.u_core\.g_ro_bank\[0\]\.u_ro\.n\[24\]
*236 u_puf\.u_core\.g_ro_bank\[0\]\.u_ro\.n\[25\]
*237 u_puf\.u_core\.g_ro_bank\[0\]\.u_ro\.n\[26\]
*238 u_puf\.u_core\.g_ro_bank\[0\]\.u_ro\.n\[27\]
*239 u_puf\.u_core\.g_ro_bank\[0\]\.u_ro\.n\[28\]
*240 u_puf\.u_core\.g_ro_bank\[0\]\.u_ro\.n\[29\]
*241 u_puf\.u_core\.g_ro_bank\[0\]\.u_ro\.n\[2\]
*242 u_puf\.u_core\.g_ro_bank\[0\]\.u_ro\.n\[30\]
*243 u_puf\.u_core\.g_ro_bank\[0\]\.u_ro\.n\[3\]
*244 u_puf\.u_core\.g_ro_bank\[0\]\.u_ro\.n\[4\]
*245 u_puf\.u_core\.g_ro_bank\[0\]\.u_ro\.n\[5\]
*246 u_puf\.u_core\.g_ro_bank\[0\]\.u_ro\.n\[6\]
*247 u_puf\.u_core\.g_ro_bank\[0\]\.u_ro\.n\[7\]
*248 u_puf\.u_core\.g_ro_bank\[0\]\.u_ro\.n\[8\]
*249 u_puf\.u_core\.g_ro_bank\[0\]\.u_ro\.n\[9\]
*250 u_puf\.u_core\.g_ro_bank\[0\]\.u_ro\.out
*251 u_puf\.u_core\.g_ro_bank\[10\]\.u_ro\.en
*252 u_puf\.u_core\.g_ro_bank\[10\]\.u_ro\.n\[0\]
*253 u_puf\.u_core\.g_ro_bank\[10\]\.u_ro\.n\[10\]
*254 u_puf\.u_core\.g_ro_bank\[10\]\.u_ro\.n\[11\]
*255 u_puf\.u_core\.g_ro_bank\[10\]\.u_ro\.n\[12\]
*256 u_puf\.u_core\.g_ro_bank\[10\]\.u_ro\.n\[13\]
*257 u_puf\.u_core\.g_ro_bank\[10\]\.u_ro\.n\[14\]
*258 u_puf\.u_core\.g_ro_bank\[10\]\.u_ro\.n\[15\]
*259 u_puf\.u_core\.g_ro_bank\[10\]\.u_ro\.n\[16\]
*260 u_puf\.u_core\.g_ro_bank\[10\]\.u_ro\.n\[17\]
*261 u_puf\.u_core\.g_ro_bank\[10\]\.u_ro\.n\[18\]
*262 u_puf\.u_core\.g_ro_bank\[10\]\.u_ro\.n\[19\]
*263 u_puf\.u_core\.g_ro_bank\[10\]\.u_ro\.n\[1\]
*264 u_puf\.u_core\.g_ro_bank\[10\]\.u_ro\.n\[20\]
*265 u_puf\.u_core\.g_ro_bank\[10\]\.u_ro\.n\[21\]
*266 u_puf\.u_core\.g_ro_bank\[10\]\.u_ro\.n\[22\]
*267 u_puf\.u_core\.g_ro_bank\[10\]\.u_ro\.n\[23\]
*268 u_puf\.u_core\.g_ro_bank\[10\]\.u_ro\.n\[24\]
*269 u_puf\.u_core\.g_ro_bank\[10\]\.u_ro\.n\[25\]
*270 u_puf\.u_core\.g_ro_bank\[10\]\.u_ro\.n\[26\]
*271 u_puf\.u_core\.g_ro_bank\[10\]\.u_ro\.n\[27\]
*272 u_puf\.u_core\.g_ro_bank\[10\]\.u_ro\.n\[28\]
*273 u_puf\.u_core\.g_ro_bank\[10\]\.u_ro\.n\[29\]
*274 u_puf\.u_core\.g_ro_bank\[10\]\.u_ro\.n\[2\]
*275 u_puf\.u_core\.g_ro_bank\[10\]\.u_ro\.n\[30\]
*276 u_puf\.u_core\.g_ro_bank\[10\]\.u_ro\.n\[3\]
*277 u_puf\.u_core\.g_ro_bank\[10\]\.u_ro\.n\[4\]
*278 u_puf\.u_core\.g_ro_bank\[10\]\.u_ro\.n\[5\]
*279 u_puf\.u_core\.g_ro_bank\[10\]\.u_ro\.n\[6\]
*280 u_puf\.u_core\.g_ro_bank\[10\]\.u_ro\.n\[7\]
*281 u_puf\.u_core\.g_ro_bank\[10\]\.u_ro\.n\[8\]
*282 u_puf\.u_core\.g_ro_bank\[10\]\.u_ro\.n\[9\]
*283 u_puf\.u_core\.g_ro_bank\[10\]\.u_ro\.out
*284 u_puf\.u_core\.g_ro_bank\[11\]\.u_ro\.en
*285 u_puf\.u_core\.g_ro_bank\[11\]\.u_ro\.n\[0\]
*286 u_puf\.u_core\.g_ro_bank\[11\]\.u_ro\.n\[10\]
*287 u_puf\.u_core\.g_ro_bank\[11\]\.u_ro\.n\[11\]
*288 u_puf\.u_core\.g_ro_bank\[11\]\.u_ro\.n\[12\]
*289 u_puf\.u_core\.g_ro_bank\[11\]\.u_ro\.n\[13\]
*290 u_puf\.u_core\.g_ro_bank\[11\]\.u_ro\.n\[14\]
*291 u_puf\.u_core\.g_ro_bank\[11\]\.u_ro\.n\[15\]
*292 u_puf\.u_core\.g_ro_bank\[11\]\.u_ro\.n\[16\]
*293 u_puf\.u_core\.g_ro_bank\[11\]\.u_ro\.n\[17\]
*294 u_puf\.u_core\.g_ro_bank\[11\]\.u_ro\.n\[18\]
*295 u_puf\.u_core\.g_ro_bank\[11\]\.u_ro\.n\[19\]
*296 u_puf\.u_core\.g_ro_bank\[11\]\.u_ro\.n\[1\]
*297 u_puf\.u_core\.g_ro_bank\[11\]\.u_ro\.n\[20\]
*298 u_puf\.u_core\.g_ro_bank\[11\]\.u_ro\.n\[21\]
*299 u_puf\.u_core\.g_ro_bank\[11\]\.u_ro\.n\[22\]
*300 u_puf\.u_core\.g_ro_bank\[11\]\.u_ro\.n\[23\]
*301 u_puf\.u_core\.g_ro_bank\[11\]\.u_ro\.n\[24\]
*302 u_puf\.u_core\.g_ro_bank\[11\]\.u_ro\.n\[25\]
*303 u_puf\.u_core\.g_ro_bank\[11\]\.u_ro\.n\[26\]
*304 u_puf\.u_core\.g_ro_bank\[11\]\.u_ro\.n\[27\]
*305 u_puf\.u_core\.g_ro_bank\[11\]\.u_ro\.n\[28\]
*306 u_puf\.u_core\.g_ro_bank\[11\]\.u_ro\.n\[29\]
*307 u_puf\.u_core\.g_ro_bank\[11\]\.u_ro\.n\[2\]
*308 u_puf\.u_core\.g_ro_bank\[11\]\.u_ro\.n\[30\]
*309 u_puf\.u_core\.g_ro_bank\[11\]\.u_ro\.n\[3\]
*310 u_puf\.u_core\.g_ro_bank\[11\]\.u_ro\.n\[4\]
*311 u_puf\.u_core\.g_ro_bank\[11\]\.u_ro\.n\[5\]
*312 u_puf\.u_core\.g_ro_bank\[11\]\.u_ro\.n\[6\]
*313 u_puf\.u_core\.g_ro_bank\[11\]\.u_ro\.n\[7\]
*314 u_puf\.u_core\.g_ro_bank\[11\]\.u_ro\.n\[8\]
*315 u_puf\.u_core\.g_ro_bank\[11\]\.u_ro\.n\[9\]
*316 u_puf\.u_core\.g_ro_bank\[11\]\.u_ro\.out
*317 u_puf\.u_core\.g_ro_bank\[12\]\.u_ro\.en
*318 u_puf\.u_core\.g_ro_bank\[12\]\.u_ro\.n\[0\]
*319 u_puf\.u_core\.g_ro_bank\[12\]\.u_ro\.n\[10\]
*320 u_puf\.u_core\.g_ro_bank\[12\]\.u_ro\.n\[11\]
*321 u_puf\.u_core\.g_ro_bank\[12\]\.u_ro\.n\[12\]
*322 u_puf\.u_core\.g_ro_bank\[12\]\.u_ro\.n\[13\]
*323 u_puf\.u_core\.g_ro_bank\[12\]\.u_ro\.n\[14\]
*324 u_puf\.u_core\.g_ro_bank\[12\]\.u_ro\.n\[15\]
*325 u_puf\.u_core\.g_ro_bank\[12\]\.u_ro\.n\[16\]
*326 u_puf\.u_core\.g_ro_bank\[12\]\.u_ro\.n\[17\]
*327 u_puf\.u_core\.g_ro_bank\[12\]\.u_ro\.n\[18\]
*328 u_puf\.u_core\.g_ro_bank\[12\]\.u_ro\.n\[19\]
*329 u_puf\.u_core\.g_ro_bank\[12\]\.u_ro\.n\[1\]
*330 u_puf\.u_core\.g_ro_bank\[12\]\.u_ro\.n\[20\]
*331 u_puf\.u_core\.g_ro_bank\[12\]\.u_ro\.n\[21\]
*332 u_puf\.u_core\.g_ro_bank\[12\]\.u_ro\.n\[22\]
*333 u_puf\.u_core\.g_ro_bank\[12\]\.u_ro\.n\[23\]
*334 u_puf\.u_core\.g_ro_bank\[12\]\.u_ro\.n\[24\]
*335 u_puf\.u_core\.g_ro_bank\[12\]\.u_ro\.n\[25\]
*336 u_puf\.u_core\.g_ro_bank\[12\]\.u_ro\.n\[26\]
*337 u_puf\.u_core\.g_ro_bank\[12\]\.u_ro\.n\[27\]
*338 u_puf\.u_core\.g_ro_bank\[12\]\.u_ro\.n\[28\]
*339 u_puf\.u_core\.g_ro_bank\[12\]\.u_ro\.n\[29\]
*340 u_puf\.u_core\.g_ro_bank\[12\]\.u_ro\.n\[2\]
*341 u_puf\.u_core\.g_ro_bank\[12\]\.u_ro\.n\[30\]
*342 u_puf\.u_core\.g_ro_bank\[12\]\.u_ro\.n\[3\]
*343 u_puf\.u_core\.g_ro_bank\[12\]\.u_ro\.n\[4\]
*344 u_puf\.u_core\.g_ro_bank\[12\]\.u_ro\.n\[5\]
*345 u_puf\.u_core\.g_ro_bank\[12\]\.u_ro\.n\[6\]
*346 u_puf\.u_core\.g_ro_bank\[12\]\.u_ro\.n\[7\]
*347 u_puf\.u_core\.g_ro_bank\[12\]\.u_ro\.n\[8\]
*348 u_puf\.u_core\.g_ro_bank\[12\]\.u_ro\.n\[9\]
*349 u_puf\.u_core\.g_ro_bank\[12\]\.u_ro\.out
*350 u_puf\.u_core\.g_ro_bank\[13\]\.u_ro\.en
*351 u_puf\.u_core\.g_ro_bank\[13\]\.u_ro\.n\[0\]
*352 u_puf\.u_core\.g_ro_bank\[13\]\.u_ro\.n\[10\]
*353 u_puf\.u_core\.g_ro_bank\[13\]\.u_ro\.n\[11\]
*354 u_puf\.u_core\.g_ro_bank\[13\]\.u_ro\.n\[12\]
*355 u_puf\.u_core\.g_ro_bank\[13\]\.u_ro\.n\[13\]
*356 u_puf\.u_core\.g_ro_bank\[13\]\.u_ro\.n\[14\]
*357 u_puf\.u_core\.g_ro_bank\[13\]\.u_ro\.n\[15\]
*358 u_puf\.u_core\.g_ro_bank\[13\]\.u_ro\.n\[16\]
*359 u_puf\.u_core\.g_ro_bank\[13\]\.u_ro\.n\[17\]
*360 u_puf\.u_core\.g_ro_bank\[13\]\.u_ro\.n\[18\]
*361 u_puf\.u_core\.g_ro_bank\[13\]\.u_ro\.n\[19\]
*362 u_puf\.u_core\.g_ro_bank\[13\]\.u_ro\.n\[1\]
*363 u_puf\.u_core\.g_ro_bank\[13\]\.u_ro\.n\[20\]
*364 u_puf\.u_core\.g_ro_bank\[13\]\.u_ro\.n\[21\]
*365 u_puf\.u_core\.g_ro_bank\[13\]\.u_ro\.n\[22\]
*366 u_puf\.u_core\.g_ro_bank\[13\]\.u_ro\.n\[23\]
*367 u_puf\.u_core\.g_ro_bank\[13\]\.u_ro\.n\[24\]
*368 u_puf\.u_core\.g_ro_bank\[13\]\.u_ro\.n\[25\]
*369 u_puf\.u_core\.g_ro_bank\[13\]\.u_ro\.n\[26\]
*370 u_puf\.u_core\.g_ro_bank\[13\]\.u_ro\.n\[27\]
*371 u_puf\.u_core\.g_ro_bank\[13\]\.u_ro\.n\[28\]
*372 u_puf\.u_core\.g_ro_bank\[13\]\.u_ro\.n\[29\]
*373 u_puf\.u_core\.g_ro_bank\[13\]\.u_ro\.n\[2\]
*374 u_puf\.u_core\.g_ro_bank\[13\]\.u_ro\.n\[30\]
*375 u_puf\.u_core\.g_ro_bank\[13\]\.u_ro\.n\[3\]
*376 u_puf\.u_core\.g_ro_bank\[13\]\.u_ro\.n\[4\]
*377 u_puf\.u_core\.g_ro_bank\[13\]\.u_ro\.n\[5\]
*378 u_puf\.u_core\.g_ro_bank\[13\]\.u_ro\.n\[6\]
*379 u_puf\.u_core\.g_ro_bank\[13\]\.u_ro\.n\[7\]
*380 u_puf\.u_core\.g_ro_bank\[13\]\.u_ro\.n\[8\]
*381 u_puf\.u_core\.g_ro_bank\[13\]\.u_ro\.n\[9\]
*382 u_puf\.u_core\.g_ro_bank\[13\]\.u_ro\.out
*383 u_puf\.u_core\.g_ro_bank\[14\]\.u_ro\.en
*384 u_puf\.u_core\.g_ro_bank\[14\]\.u_ro\.n\[0\]
*385 u_puf\.u_core\.g_ro_bank\[14\]\.u_ro\.n\[10\]
*386 u_puf\.u_core\.g_ro_bank\[14\]\.u_ro\.n\[11\]
*387 u_puf\.u_core\.g_ro_bank\[14\]\.u_ro\.n\[12\]
*388 u_puf\.u_core\.g_ro_bank\[14\]\.u_ro\.n\[13\]
*389 u_puf\.u_core\.g_ro_bank\[14\]\.u_ro\.n\[14\]
*390 u_puf\.u_core\.g_ro_bank\[14\]\.u_ro\.n\[15\]
*391 u_puf\.u_core\.g_ro_bank\[14\]\.u_ro\.n\[16\]
*392 u_puf\.u_core\.g_ro_bank\[14\]\.u_ro\.n\[17\]
*393 u_puf\.u_core\.g_ro_bank\[14\]\.u_ro\.n\[18\]
*394 u_puf\.u_core\.g_ro_bank\[14\]\.u_ro\.n\[19\]
*395 u_puf\.u_core\.g_ro_bank\[14\]\.u_ro\.n\[1\]
*396 u_puf\.u_core\.g_ro_bank\[14\]\.u_ro\.n\[20\]
*397 u_puf\.u_core\.g_ro_bank\[14\]\.u_ro\.n\[21\]
*398 u_puf\.u_core\.g_ro_bank\[14\]\.u_ro\.n\[22\]
*399 u_puf\.u_core\.g_ro_bank\[14\]\.u_ro\.n\[23\]
*400 u_puf\.u_core\.g_ro_bank\[14\]\.u_ro\.n\[24\]
*401 u_puf\.u_core\.g_ro_bank\[14\]\.u_ro\.n\[25\]
*402 u_puf\.u_core\.g_ro_bank\[14\]\.u_ro\.n\[26\]
*403 u_puf\.u_core\.g_ro_bank\[14\]\.u_ro\.n\[27\]
*404 u_puf\.u_core\.g_ro_bank\[14\]\.u_ro\.n\[28\]
*405 u_puf\.u_core\.g_ro_bank\[14\]\.u_ro\.n\[29\]
*406 u_puf\.u_core\.g_ro_bank\[14\]\.u_ro\.n\[2\]
*407 u_puf\.u_core\.g_ro_bank\[14\]\.u_ro\.n\[30\]
*408 u_puf\.u_core\.g_ro_bank\[14\]\.u_ro\.n\[3\]
*409 u_puf\.u_core\.g_ro_bank\[14\]\.u_ro\.n\[4\]
*410 u_puf\.u_core\.g_ro_bank\[14\]\.u_ro\.n\[5\]
*411 u_puf\.u_core\.g_ro_bank\[14\]\.u_ro\.n\[6\]
*412 u_puf\.u_core\.g_ro_bank\[14\]\.u_ro\.n\[7\]
*413 u_puf\.u_core\.g_ro_bank\[14\]\.u_ro\.n\[8\]
*414 u_puf\.u_core\.g_ro_bank\[14\]\.u_ro\.n\[9\]
*415 u_puf\.u_core\.g_ro_bank\[14\]\.u_ro\.out
*416 u_puf\.u_core\.g_ro_bank\[15\]\.u_ro\.en
*417 u_puf\.u_core\.g_ro_bank\[15\]\.u_ro\.n\[0\]
*418 u_puf\.u_core\.g_ro_bank\[15\]\.u_ro\.n\[10\]
*419 u_puf\.u_core\.g_ro_bank\[15\]\.u_ro\.n\[11\]
*420 u_puf\.u_core\.g_ro_bank\[15\]\.u_ro\.n\[12\]
*421 u_puf\.u_core\.g_ro_bank\[15\]\.u_ro\.n\[13\]
*422 u_puf\.u_core\.g_ro_bank\[15\]\.u_ro\.n\[14\]
*423 u_puf\.u_core\.g_ro_bank\[15\]\.u_ro\.n\[15\]
*424 u_puf\.u_core\.g_ro_bank\[15\]\.u_ro\.n\[16\]
*425 u_puf\.u_core\.g_ro_bank\[15\]\.u_ro\.n\[17\]
*426 u_puf\.u_core\.g_ro_bank\[15\]\.u_ro\.n\[18\]
*427 u_puf\.u_core\.g_ro_bank\[15\]\.u_ro\.n\[19\]
*428 u_puf\.u_core\.g_ro_bank\[15\]\.u_ro\.n\[1\]
*429 u_puf\.u_core\.g_ro_bank\[15\]\.u_ro\.n\[20\]
*430 u_puf\.u_core\.g_ro_bank\[15\]\.u_ro\.n\[21\]
*431 u_puf\.u_core\.g_ro_bank\[15\]\.u_ro\.n\[22\]
*432 u_puf\.u_core\.g_ro_bank\[15\]\.u_ro\.n\[23\]
*433 u_puf\.u_core\.g_ro_bank\[15\]\.u_ro\.n\[24\]
*434 u_puf\.u_core\.g_ro_bank\[15\]\.u_ro\.n\[25\]
*435 u_puf\.u_core\.g_ro_bank\[15\]\.u_ro\.n\[26\]
*436 u_puf\.u_core\.g_ro_bank\[15\]\.u_ro\.n\[27\]
*437 u_puf\.u_core\.g_ro_bank\[15\]\.u_ro\.n\[28\]
*438 u_puf\.u_core\.g_ro_bank\[15\]\.u_ro\.n\[29\]
*439 u_puf\.u_core\.g_ro_bank\[15\]\.u_ro\.n\[2\]
*440 u_puf\.u_core\.g_ro_bank\[15\]\.u_ro\.n\[30\]
*441 u_puf\.u_core\.g_ro_bank\[15\]\.u_ro\.n\[3\]
*442 u_puf\.u_core\.g_ro_bank\[15\]\.u_ro\.n\[4\]
*443 u_puf\.u_core\.g_ro_bank\[15\]\.u_ro\.n\[5\]
*444 u_puf\.u_core\.g_ro_bank\[15\]\.u_ro\.n\[6\]
*445 u_puf\.u_core\.g_ro_bank\[15\]\.u_ro\.n\[7\]
*446 u_puf\.u_core\.g_ro_bank\[15\]\.u_ro\.n\[8\]
*447 u_puf\.u_core\.g_ro_bank\[15\]\.u_ro\.n\[9\]
*448 u_puf\.u_core\.g_ro_bank\[15\]\.u_ro\.out
*449 u_puf\.u_core\.g_ro_bank\[16\]\.u_ro\.en
*450 u_puf\.u_core\.g_ro_bank\[16\]\.u_ro\.n\[0\]
*451 u_puf\.u_core\.g_ro_bank\[16\]\.u_ro\.n\[10\]
*452 u_puf\.u_core\.g_ro_bank\[16\]\.u_ro\.n\[11\]
*453 u_puf\.u_core\.g_ro_bank\[16\]\.u_ro\.n\[12\]
*454 u_puf\.u_core\.g_ro_bank\[16\]\.u_ro\.n\[13\]
*455 u_puf\.u_core\.g_ro_bank\[16\]\.u_ro\.n\[14\]
*456 u_puf\.u_core\.g_ro_bank\[16\]\.u_ro\.n\[15\]
*457 u_puf\.u_core\.g_ro_bank\[16\]\.u_ro\.n\[16\]
*458 u_puf\.u_core\.g_ro_bank\[16\]\.u_ro\.n\[17\]
*459 u_puf\.u_core\.g_ro_bank\[16\]\.u_ro\.n\[18\]
*460 u_puf\.u_core\.g_ro_bank\[16\]\.u_ro\.n\[19\]
*461 u_puf\.u_core\.g_ro_bank\[16\]\.u_ro\.n\[1\]
*462 u_puf\.u_core\.g_ro_bank\[16\]\.u_ro\.n\[20\]
*463 u_puf\.u_core\.g_ro_bank\[16\]\.u_ro\.n\[21\]
*464 u_puf\.u_core\.g_ro_bank\[16\]\.u_ro\.n\[22\]
*465 u_puf\.u_core\.g_ro_bank\[16\]\.u_ro\.n\[23\]
*466 u_puf\.u_core\.g_ro_bank\[16\]\.u_ro\.n\[24\]
*467 u_puf\.u_core\.g_ro_bank\[16\]\.u_ro\.n\[25\]
*468 u_puf\.u_core\.g_ro_bank\[16\]\.u_ro\.n\[26\]
*469 u_puf\.u_core\.g_ro_bank\[16\]\.u_ro\.n\[27\]
*470 u_puf\.u_core\.g_ro_bank\[16\]\.u_ro\.n\[28\]
*471 u_puf\.u_core\.g_ro_bank\[16\]\.u_ro\.n\[29\]
*472 u_puf\.u_core\.g_ro_bank\[16\]\.u_ro\.n\[2\]
*473 u_puf\.u_core\.g_ro_bank\[16\]\.u_ro\.n\[30\]
*474 u_puf\.u_core\.g_ro_bank\[16\]\.u_ro\.n\[3\]
*475 u_puf\.u_core\.g_ro_bank\[16\]\.u_ro\.n\[4\]
*476 u_puf\.u_core\.g_ro_bank\[16\]\.u_ro\.n\[5\]
*477 u_puf\.u_core\.g_ro_bank\[16\]\.u_ro\.n\[6\]
*478 u_puf\.u_core\.g_ro_bank\[16\]\.u_ro\.n\[7\]
*479 u_puf\.u_core\.g_ro_bank\[16\]\.u_ro\.n\[8\]
*480 u_puf\.u_core\.g_ro_bank\[16\]\.u_ro\.n\[9\]
*481 u_puf\.u_core\.g_ro_bank\[16\]\.u_ro\.out
*482 u_puf\.u_core\.g_ro_bank\[17\]\.u_ro\.en
*483 u_puf\.u_core\.g_ro_bank\[17\]\.u_ro\.n\[0\]
*484 u_puf\.u_core\.g_ro_bank\[17\]\.u_ro\.n\[10\]
*485 u_puf\.u_core\.g_ro_bank\[17\]\.u_ro\.n\[11\]
*486 u_puf\.u_core\.g_ro_bank\[17\]\.u_ro\.n\[12\]
*487 u_puf\.u_core\.g_ro_bank\[17\]\.u_ro\.n\[13\]
*488 u_puf\.u_core\.g_ro_bank\[17\]\.u_ro\.n\[14\]
*489 u_puf\.u_core\.g_ro_bank\[17\]\.u_ro\.n\[15\]
*490 u_puf\.u_core\.g_ro_bank\[17\]\.u_ro\.n\[16\]
*491 u_puf\.u_core\.g_ro_bank\[17\]\.u_ro\.n\[17\]
*492 u_puf\.u_core\.g_ro_bank\[17\]\.u_ro\.n\[18\]
*493 u_puf\.u_core\.g_ro_bank\[17\]\.u_ro\.n\[19\]
*494 u_puf\.u_core\.g_ro_bank\[17\]\.u_ro\.n\[1\]
*495 u_puf\.u_core\.g_ro_bank\[17\]\.u_ro\.n\[20\]
*496 u_puf\.u_core\.g_ro_bank\[17\]\.u_ro\.n\[21\]
*497 u_puf\.u_core\.g_ro_bank\[17\]\.u_ro\.n\[22\]
*498 u_puf\.u_core\.g_ro_bank\[17\]\.u_ro\.n\[23\]
*499 u_puf\.u_core\.g_ro_bank\[17\]\.u_ro\.n\[24\]
*500 u_puf\.u_core\.g_ro_bank\[17\]\.u_ro\.n\[25\]
*501 u_puf\.u_core\.g_ro_bank\[17\]\.u_ro\.n\[26\]
*502 u_puf\.u_core\.g_ro_bank\[17\]\.u_ro\.n\[27\]
*503 u_puf\.u_core\.g_ro_bank\[17\]\.u_ro\.n\[28\]
*504 u_puf\.u_core\.g_ro_bank\[17\]\.u_ro\.n\[29\]
*505 u_puf\.u_core\.g_ro_bank\[17\]\.u_ro\.n\[2\]
*506 u_puf\.u_core\.g_ro_bank\[17\]\.u_ro\.n\[30\]
*507 u_puf\.u_core\.g_ro_bank\[17\]\.u_ro\.n\[3\]
*508 u_puf\.u_core\.g_ro_bank\[17\]\.u_ro\.n\[4\]
*509 u_puf\.u_core\.g_ro_bank\[17\]\.u_ro\.n\[5\]
*510 u_puf\.u_core\.g_ro_bank\[17\]\.u_ro\.n\[6\]
*511 u_puf\.u_core\.g_ro_bank\[17\]\.u_ro\.n\[7\]
*512 u_puf\.u_core\.g_ro_bank\[17\]\.u_ro\.n\[8\]
*513 u_puf\.u_core\.g_ro_bank\[17\]\.u_ro\.n\[9\]
*514 u_puf\.u_core\.g_ro_bank\[17\]\.u_ro\.out
*515 u_puf\.u_core\.g_ro_bank\[18\]\.u_ro\.en
*516 u_puf\.u_core\.g_ro_bank\[18\]\.u_ro\.n\[0\]
*517 u_puf\.u_core\.g_ro_bank\[18\]\.u_ro\.n\[10\]
*518 u_puf\.u_core\.g_ro_bank\[18\]\.u_ro\.n\[11\]
*519 u_puf\.u_core\.g_ro_bank\[18\]\.u_ro\.n\[12\]
*520 u_puf\.u_core\.g_ro_bank\[18\]\.u_ro\.n\[13\]
*521 u_puf\.u_core\.g_ro_bank\[18\]\.u_ro\.n\[14\]
*522 u_puf\.u_core\.g_ro_bank\[18\]\.u_ro\.n\[15\]
*523 u_puf\.u_core\.g_ro_bank\[18\]\.u_ro\.n\[16\]
*524 u_puf\.u_core\.g_ro_bank\[18\]\.u_ro\.n\[17\]
*525 u_puf\.u_core\.g_ro_bank\[18\]\.u_ro\.n\[18\]
*526 u_puf\.u_core\.g_ro_bank\[18\]\.u_ro\.n\[19\]
*527 u_puf\.u_core\.g_ro_bank\[18\]\.u_ro\.n\[1\]
*528 u_puf\.u_core\.g_ro_bank\[18\]\.u_ro\.n\[20\]
*529 u_puf\.u_core\.g_ro_bank\[18\]\.u_ro\.n\[21\]
*530 u_puf\.u_core\.g_ro_bank\[18\]\.u_ro\.n\[22\]
*531 u_puf\.u_core\.g_ro_bank\[18\]\.u_ro\.n\[23\]
*532 u_puf\.u_core\.g_ro_bank\[18\]\.u_ro\.n\[24\]
*533 u_puf\.u_core\.g_ro_bank\[18\]\.u_ro\.n\[25\]
*534 u_puf\.u_core\.g_ro_bank\[18\]\.u_ro\.n\[26\]
*535 u_puf\.u_core\.g_ro_bank\[18\]\.u_ro\.n\[27\]
*536 u_puf\.u_core\.g_ro_bank\[18\]\.u_ro\.n\[28\]
*537 u_puf\.u_core\.g_ro_bank\[18\]\.u_ro\.n\[29\]
*538 u_puf\.u_core\.g_ro_bank\[18\]\.u_ro\.n\[2\]
*539 u_puf\.u_core\.g_ro_bank\[18\]\.u_ro\.n\[30\]
*540 u_puf\.u_core\.g_ro_bank\[18\]\.u_ro\.n\[3\]
*541 u_puf\.u_core\.g_ro_bank\[18\]\.u_ro\.n\[4\]
*542 u_puf\.u_core\.g_ro_bank\[18\]\.u_ro\.n\[5\]
*543 u_puf\.u_core\.g_ro_bank\[18\]\.u_ro\.n\[6\]
*544 u_puf\.u_core\.g_ro_bank\[18\]\.u_ro\.n\[7\]
*545 u_puf\.u_core\.g_ro_bank\[18\]\.u_ro\.n\[8\]
*546 u_puf\.u_core\.g_ro_bank\[18\]\.u_ro\.n\[9\]
*547 u_puf\.u_core\.g_ro_bank\[18\]\.u_ro\.out
*548 u_puf\.u_core\.g_ro_bank\[19\]\.u_ro\.en
*549 u_puf\.u_core\.g_ro_bank\[19\]\.u_ro\.n\[0\]
*550 u_puf\.u_core\.g_ro_bank\[19\]\.u_ro\.n\[10\]
*551 u_puf\.u_core\.g_ro_bank\[19\]\.u_ro\.n\[11\]
*552 u_puf\.u_core\.g_ro_bank\[19\]\.u_ro\.n\[12\]
*553 u_puf\.u_core\.g_ro_bank\[19\]\.u_ro\.n\[13\]
*554 u_puf\.u_core\.g_ro_bank\[19\]\.u_ro\.n\[14\]
*555 u_puf\.u_core\.g_ro_bank\[19\]\.u_ro\.n\[15\]
*556 u_puf\.u_core\.g_ro_bank\[19\]\.u_ro\.n\[16\]
*557 u_puf\.u_core\.g_ro_bank\[19\]\.u_ro\.n\[17\]
*558 u_puf\.u_core\.g_ro_bank\[19\]\.u_ro\.n\[18\]
*559 u_puf\.u_core\.g_ro_bank\[19\]\.u_ro\.n\[19\]
*560 u_puf\.u_core\.g_ro_bank\[19\]\.u_ro\.n\[1\]
*561 u_puf\.u_core\.g_ro_bank\[19\]\.u_ro\.n\[20\]
*562 u_puf\.u_core\.g_ro_bank\[19\]\.u_ro\.n\[21\]
*563 u_puf\.u_core\.g_ro_bank\[19\]\.u_ro\.n\[22\]
*564 u_puf\.u_core\.g_ro_bank\[19\]\.u_ro\.n\[23\]
*565 u_puf\.u_core\.g_ro_bank\[19\]\.u_ro\.n\[24\]
*566 u_puf\.u_core\.g_ro_bank\[19\]\.u_ro\.n\[25\]
*567 u_puf\.u_core\.g_ro_bank\[19\]\.u_ro\.n\[26\]
*568 u_puf\.u_core\.g_ro_bank\[19\]\.u_ro\.n\[27\]
*569 u_puf\.u_core\.g_ro_bank\[19\]\.u_ro\.n\[28\]
*570 u_puf\.u_core\.g_ro_bank\[19\]\.u_ro\.n\[29\]
*571 u_puf\.u_core\.g_ro_bank\[19\]\.u_ro\.n\[2\]
*572 u_puf\.u_core\.g_ro_bank\[19\]\.u_ro\.n\[30\]
*573 u_puf\.u_core\.g_ro_bank\[19\]\.u_ro\.n\[3\]
*574 u_puf\.u_core\.g_ro_bank\[19\]\.u_ro\.n\[4\]
*575 u_puf\.u_core\.g_ro_bank\[19\]\.u_ro\.n\[5\]
*576 u_puf\.u_core\.g_ro_bank\[19\]\.u_ro\.n\[6\]
*577 u_puf\.u_core\.g_ro_bank\[19\]\.u_ro\.n\[7\]
*578 u_puf\.u_core\.g_ro_bank\[19\]\.u_ro\.n\[8\]
*579 u_puf\.u_core\.g_ro_bank\[19\]\.u_ro\.n\[9\]
*580 u_puf\.u_core\.g_ro_bank\[19\]\.u_ro\.out
*581 u_puf\.u_core\.g_ro_bank\[1\]\.u_ro\.en
*582 u_puf\.u_core\.g_ro_bank\[1\]\.u_ro\.n\[0\]
*583 u_puf\.u_core\.g_ro_bank\[1\]\.u_ro\.n\[10\]
*584 u_puf\.u_core\.g_ro_bank\[1\]\.u_ro\.n\[11\]
*585 u_puf\.u_core\.g_ro_bank\[1\]\.u_ro\.n\[12\]
*586 u_puf\.u_core\.g_ro_bank\[1\]\.u_ro\.n\[13\]
*587 u_puf\.u_core\.g_ro_bank\[1\]\.u_ro\.n\[14\]
*588 u_puf\.u_core\.g_ro_bank\[1\]\.u_ro\.n\[15\]
*589 u_puf\.u_core\.g_ro_bank\[1\]\.u_ro\.n\[16\]
*590 u_puf\.u_core\.g_ro_bank\[1\]\.u_ro\.n\[17\]
*591 u_puf\.u_core\.g_ro_bank\[1\]\.u_ro\.n\[18\]
*592 u_puf\.u_core\.g_ro_bank\[1\]\.u_ro\.n\[19\]
*593 u_puf\.u_core\.g_ro_bank\[1\]\.u_ro\.n\[1\]
*594 u_puf\.u_core\.g_ro_bank\[1\]\.u_ro\.n\[20\]
*595 u_puf\.u_core\.g_ro_bank\[1\]\.u_ro\.n\[21\]
*596 u_puf\.u_core\.g_ro_bank\[1\]\.u_ro\.n\[22\]
*597 u_puf\.u_core\.g_ro_bank\[1\]\.u_ro\.n\[23\]
*598 u_puf\.u_core\.g_ro_bank\[1\]\.u_ro\.n\[24\]
*599 u_puf\.u_core\.g_ro_bank\[1\]\.u_ro\.n\[25\]
*600 u_puf\.u_core\.g_ro_bank\[1\]\.u_ro\.n\[26\]
*601 u_puf\.u_core\.g_ro_bank\[1\]\.u_ro\.n\[27\]
*602 u_puf\.u_core\.g_ro_bank\[1\]\.u_ro\.n\[28\]
*603 u_puf\.u_core\.g_ro_bank\[1\]\.u_ro\.n\[29\]
*604 u_puf\.u_core\.g_ro_bank\[1\]\.u_ro\.n\[2\]
*605 u_puf\.u_core\.g_ro_bank\[1\]\.u_ro\.n\[30\]
*606 u_puf\.u_core\.g_ro_bank\[1\]\.u_ro\.n\[3\]
*607 u_puf\.u_core\.g_ro_bank\[1\]\.u_ro\.n\[4\]
*608 u_puf\.u_core\.g_ro_bank\[1\]\.u_ro\.n\[5\]
*609 u_puf\.u_core\.g_ro_bank\[1\]\.u_ro\.n\[6\]
*610 u_puf\.u_core\.g_ro_bank\[1\]\.u_ro\.n\[7\]
*611 u_puf\.u_core\.g_ro_bank\[1\]\.u_ro\.n\[8\]
*612 u_puf\.u_core\.g_ro_bank\[1\]\.u_ro\.n\[9\]
*613 u_puf\.u_core\.g_ro_bank\[1\]\.u_ro\.out
*614 u_puf\.u_core\.g_ro_bank\[20\]\.u_ro\.en
*615 u_puf\.u_core\.g_ro_bank\[20\]\.u_ro\.n\[0\]
*616 u_puf\.u_core\.g_ro_bank\[20\]\.u_ro\.n\[10\]
*617 u_puf\.u_core\.g_ro_bank\[20\]\.u_ro\.n\[11\]
*618 u_puf\.u_core\.g_ro_bank\[20\]\.u_ro\.n\[12\]
*619 u_puf\.u_core\.g_ro_bank\[20\]\.u_ro\.n\[13\]
*620 u_puf\.u_core\.g_ro_bank\[20\]\.u_ro\.n\[14\]
*621 u_puf\.u_core\.g_ro_bank\[20\]\.u_ro\.n\[15\]
*622 u_puf\.u_core\.g_ro_bank\[20\]\.u_ro\.n\[16\]
*623 u_puf\.u_core\.g_ro_bank\[20\]\.u_ro\.n\[17\]
*624 u_puf\.u_core\.g_ro_bank\[20\]\.u_ro\.n\[18\]
*625 u_puf\.u_core\.g_ro_bank\[20\]\.u_ro\.n\[19\]
*626 u_puf\.u_core\.g_ro_bank\[20\]\.u_ro\.n\[1\]
*627 u_puf\.u_core\.g_ro_bank\[20\]\.u_ro\.n\[20\]
*628 u_puf\.u_core\.g_ro_bank\[20\]\.u_ro\.n\[21\]
*629 u_puf\.u_core\.g_ro_bank\[20\]\.u_ro\.n\[22\]
*630 u_puf\.u_core\.g_ro_bank\[20\]\.u_ro\.n\[23\]
*631 u_puf\.u_core\.g_ro_bank\[20\]\.u_ro\.n\[24\]
*632 u_puf\.u_core\.g_ro_bank\[20\]\.u_ro\.n\[25\]
*633 u_puf\.u_core\.g_ro_bank\[20\]\.u_ro\.n\[26\]
*634 u_puf\.u_core\.g_ro_bank\[20\]\.u_ro\.n\[27\]
*635 u_puf\.u_core\.g_ro_bank\[20\]\.u_ro\.n\[28\]
*636 u_puf\.u_core\.g_ro_bank\[20\]\.u_ro\.n\[29\]
*637 u_puf\.u_core\.g_ro_bank\[20\]\.u_ro\.n\[2\]
*638 u_puf\.u_core\.g_ro_bank\[20\]\.u_ro\.n\[30\]
*639 u_puf\.u_core\.g_ro_bank\[20\]\.u_ro\.n\[3\]
*640 u_puf\.u_core\.g_ro_bank\[20\]\.u_ro\.n\[4\]
*641 u_puf\.u_core\.g_ro_bank\[20\]\.u_ro\.n\[5\]
*642 u_puf\.u_core\.g_ro_bank\[20\]\.u_ro\.n\[6\]
*643 u_puf\.u_core\.g_ro_bank\[20\]\.u_ro\.n\[7\]
*644 u_puf\.u_core\.g_ro_bank\[20\]\.u_ro\.n\[8\]
*645 u_puf\.u_core\.g_ro_bank\[20\]\.u_ro\.n\[9\]
*646 u_puf\.u_core\.g_ro_bank\[20\]\.u_ro\.out
*647 u_puf\.u_core\.g_ro_bank\[21\]\.u_ro\.en
*648 u_puf\.u_core\.g_ro_bank\[21\]\.u_ro\.n\[0\]
*649 u_puf\.u_core\.g_ro_bank\[21\]\.u_ro\.n\[10\]
*650 u_puf\.u_core\.g_ro_bank\[21\]\.u_ro\.n\[11\]
*651 u_puf\.u_core\.g_ro_bank\[21\]\.u_ro\.n\[12\]
*652 u_puf\.u_core\.g_ro_bank\[21\]\.u_ro\.n\[13\]
*653 u_puf\.u_core\.g_ro_bank\[21\]\.u_ro\.n\[14\]
*654 u_puf\.u_core\.g_ro_bank\[21\]\.u_ro\.n\[15\]
*655 u_puf\.u_core\.g_ro_bank\[21\]\.u_ro\.n\[16\]
*656 u_puf\.u_core\.g_ro_bank\[21\]\.u_ro\.n\[17\]
*657 u_puf\.u_core\.g_ro_bank\[21\]\.u_ro\.n\[18\]
*658 u_puf\.u_core\.g_ro_bank\[21\]\.u_ro\.n\[19\]
*659 u_puf\.u_core\.g_ro_bank\[21\]\.u_ro\.n\[1\]
*660 u_puf\.u_core\.g_ro_bank\[21\]\.u_ro\.n\[20\]
*661 u_puf\.u_core\.g_ro_bank\[21\]\.u_ro\.n\[21\]
*662 u_puf\.u_core\.g_ro_bank\[21\]\.u_ro\.n\[22\]
*663 u_puf\.u_core\.g_ro_bank\[21\]\.u_ro\.n\[23\]
*664 u_puf\.u_core\.g_ro_bank\[21\]\.u_ro\.n\[24\]
*665 u_puf\.u_core\.g_ro_bank\[21\]\.u_ro\.n\[25\]
*666 u_puf\.u_core\.g_ro_bank\[21\]\.u_ro\.n\[26\]
*667 u_puf\.u_core\.g_ro_bank\[21\]\.u_ro\.n\[27\]
*668 u_puf\.u_core\.g_ro_bank\[21\]\.u_ro\.n\[28\]
*669 u_puf\.u_core\.g_ro_bank\[21\]\.u_ro\.n\[29\]
*670 u_puf\.u_core\.g_ro_bank\[21\]\.u_ro\.n\[2\]
*671 u_puf\.u_core\.g_ro_bank\[21\]\.u_ro\.n\[30\]
*672 u_puf\.u_core\.g_ro_bank\[21\]\.u_ro\.n\[3\]
*673 u_puf\.u_core\.g_ro_bank\[21\]\.u_ro\.n\[4\]
*674 u_puf\.u_core\.g_ro_bank\[21\]\.u_ro\.n\[5\]
*675 u_puf\.u_core\.g_ro_bank\[21\]\.u_ro\.n\[6\]
*676 u_puf\.u_core\.g_ro_bank\[21\]\.u_ro\.n\[7\]
*677 u_puf\.u_core\.g_ro_bank\[21\]\.u_ro\.n\[8\]
*678 u_puf\.u_core\.g_ro_bank\[21\]\.u_ro\.n\[9\]
*679 u_puf\.u_core\.g_ro_bank\[21\]\.u_ro\.out
*680 u_puf\.u_core\.g_ro_bank\[22\]\.u_ro\.en
*681 u_puf\.u_core\.g_ro_bank\[22\]\.u_ro\.n\[0\]
*682 u_puf\.u_core\.g_ro_bank\[22\]\.u_ro\.n\[10\]
*683 u_puf\.u_core\.g_ro_bank\[22\]\.u_ro\.n\[11\]
*684 u_puf\.u_core\.g_ro_bank\[22\]\.u_ro\.n\[12\]
*685 u_puf\.u_core\.g_ro_bank\[22\]\.u_ro\.n\[13\]
*686 u_puf\.u_core\.g_ro_bank\[22\]\.u_ro\.n\[14\]
*687 u_puf\.u_core\.g_ro_bank\[22\]\.u_ro\.n\[15\]
*688 u_puf\.u_core\.g_ro_bank\[22\]\.u_ro\.n\[16\]
*689 u_puf\.u_core\.g_ro_bank\[22\]\.u_ro\.n\[17\]
*690 u_puf\.u_core\.g_ro_bank\[22\]\.u_ro\.n\[18\]
*691 u_puf\.u_core\.g_ro_bank\[22\]\.u_ro\.n\[19\]
*692 u_puf\.u_core\.g_ro_bank\[22\]\.u_ro\.n\[1\]
*693 u_puf\.u_core\.g_ro_bank\[22\]\.u_ro\.n\[20\]
*694 u_puf\.u_core\.g_ro_bank\[22\]\.u_ro\.n\[21\]
*695 u_puf\.u_core\.g_ro_bank\[22\]\.u_ro\.n\[22\]
*696 u_puf\.u_core\.g_ro_bank\[22\]\.u_ro\.n\[23\]
*697 u_puf\.u_core\.g_ro_bank\[22\]\.u_ro\.n\[24\]
*698 u_puf\.u_core\.g_ro_bank\[22\]\.u_ro\.n\[25\]
*699 u_puf\.u_core\.g_ro_bank\[22\]\.u_ro\.n\[26\]
*700 u_puf\.u_core\.g_ro_bank\[22\]\.u_ro\.n\[27\]
*701 u_puf\.u_core\.g_ro_bank\[22\]\.u_ro\.n\[28\]
*702 u_puf\.u_core\.g_ro_bank\[22\]\.u_ro\.n\[29\]
*703 u_puf\.u_core\.g_ro_bank\[22\]\.u_ro\.n\[2\]
*704 u_puf\.u_core\.g_ro_bank\[22\]\.u_ro\.n\[30\]
*705 u_puf\.u_core\.g_ro_bank\[22\]\.u_ro\.n\[3\]
*706 u_puf\.u_core\.g_ro_bank\[22\]\.u_ro\.n\[4\]
*707 u_puf\.u_core\.g_ro_bank\[22\]\.u_ro\.n\[5\]
*708 u_puf\.u_core\.g_ro_bank\[22\]\.u_ro\.n\[6\]
*709 u_puf\.u_core\.g_ro_bank\[22\]\.u_ro\.n\[7\]
*710 u_puf\.u_core\.g_ro_bank\[22\]\.u_ro\.n\[8\]
*711 u_puf\.u_core\.g_ro_bank\[22\]\.u_ro\.n\[9\]
*712 u_puf\.u_core\.g_ro_bank\[22\]\.u_ro\.out
*713 u_puf\.u_core\.g_ro_bank\[23\]\.u_ro\.en
*714 u_puf\.u_core\.g_ro_bank\[23\]\.u_ro\.n\[0\]
*715 u_puf\.u_core\.g_ro_bank\[23\]\.u_ro\.n\[10\]
*716 u_puf\.u_core\.g_ro_bank\[23\]\.u_ro\.n\[11\]
*717 u_puf\.u_core\.g_ro_bank\[23\]\.u_ro\.n\[12\]
*718 u_puf\.u_core\.g_ro_bank\[23\]\.u_ro\.n\[13\]
*719 u_puf\.u_core\.g_ro_bank\[23\]\.u_ro\.n\[14\]
*720 u_puf\.u_core\.g_ro_bank\[23\]\.u_ro\.n\[15\]
*721 u_puf\.u_core\.g_ro_bank\[23\]\.u_ro\.n\[16\]
*722 u_puf\.u_core\.g_ro_bank\[23\]\.u_ro\.n\[17\]
*723 u_puf\.u_core\.g_ro_bank\[23\]\.u_ro\.n\[18\]
*724 u_puf\.u_core\.g_ro_bank\[23\]\.u_ro\.n\[19\]
*725 u_puf\.u_core\.g_ro_bank\[23\]\.u_ro\.n\[1\]
*726 u_puf\.u_core\.g_ro_bank\[23\]\.u_ro\.n\[20\]
*727 u_puf\.u_core\.g_ro_bank\[23\]\.u_ro\.n\[21\]
*728 u_puf\.u_core\.g_ro_bank\[23\]\.u_ro\.n\[22\]
*729 u_puf\.u_core\.g_ro_bank\[23\]\.u_ro\.n\[23\]
*730 u_puf\.u_core\.g_ro_bank\[23\]\.u_ro\.n\[24\]
*731 u_puf\.u_core\.g_ro_bank\[23\]\.u_ro\.n\[25\]
*732 u_puf\.u_core\.g_ro_bank\[23\]\.u_ro\.n\[26\]
*733 u_puf\.u_core\.g_ro_bank\[23\]\.u_ro\.n\[27\]
*734 u_puf\.u_core\.g_ro_bank\[23\]\.u_ro\.n\[28\]
*735 u_puf\.u_core\.g_ro_bank\[23\]\.u_ro\.n\[29\]
*736 u_puf\.u_core\.g_ro_bank\[23\]\.u_ro\.n\[2\]
*737 u_puf\.u_core\.g_ro_bank\[23\]\.u_ro\.n\[30\]
*738 u_puf\.u_core\.g_ro_bank\[23\]\.u_ro\.n\[3\]
*739 u_puf\.u_core\.g_ro_bank\[23\]\.u_ro\.n\[4\]
*740 u_puf\.u_core\.g_ro_bank\[23\]\.u_ro\.n\[5\]
*741 u_puf\.u_core\.g_ro_bank\[23\]\.u_ro\.n\[6\]
*742 u_puf\.u_core\.g_ro_bank\[23\]\.u_ro\.n\[7\]
*743 u_puf\.u_core\.g_ro_bank\[23\]\.u_ro\.n\[8\]
*744 u_puf\.u_core\.g_ro_bank\[23\]\.u_ro\.n\[9\]
*745 u_puf\.u_core\.g_ro_bank\[23\]\.u_ro\.out
*746 u_puf\.u_core\.g_ro_bank\[24\]\.u_ro\.en
*747 u_puf\.u_core\.g_ro_bank\[24\]\.u_ro\.n\[0\]
*748 u_puf\.u_core\.g_ro_bank\[24\]\.u_ro\.n\[10\]
*749 u_puf\.u_core\.g_ro_bank\[24\]\.u_ro\.n\[11\]
*750 u_puf\.u_core\.g_ro_bank\[24\]\.u_ro\.n\[12\]
*751 u_puf\.u_core\.g_ro_bank\[24\]\.u_ro\.n\[13\]
*752 u_puf\.u_core\.g_ro_bank\[24\]\.u_ro\.n\[14\]
*753 u_puf\.u_core\.g_ro_bank\[24\]\.u_ro\.n\[15\]
*754 u_puf\.u_core\.g_ro_bank\[24\]\.u_ro\.n\[16\]
*755 u_puf\.u_core\.g_ro_bank\[24\]\.u_ro\.n\[17\]
*756 u_puf\.u_core\.g_ro_bank\[24\]\.u_ro\.n\[18\]
*757 u_puf\.u_core\.g_ro_bank\[24\]\.u_ro\.n\[19\]
*758 u_puf\.u_core\.g_ro_bank\[24\]\.u_ro\.n\[1\]
*759 u_puf\.u_core\.g_ro_bank\[24\]\.u_ro\.n\[20\]
*760 u_puf\.u_core\.g_ro_bank\[24\]\.u_ro\.n\[21\]
*761 u_puf\.u_core\.g_ro_bank\[24\]\.u_ro\.n\[22\]
*762 u_puf\.u_core\.g_ro_bank\[24\]\.u_ro\.n\[23\]
*763 u_puf\.u_core\.g_ro_bank\[24\]\.u_ro\.n\[24\]
*764 u_puf\.u_core\.g_ro_bank\[24\]\.u_ro\.n\[25\]
*765 u_puf\.u_core\.g_ro_bank\[24\]\.u_ro\.n\[26\]
*766 u_puf\.u_core\.g_ro_bank\[24\]\.u_ro\.n\[27\]
*767 u_puf\.u_core\.g_ro_bank\[24\]\.u_ro\.n\[28\]
*768 u_puf\.u_core\.g_ro_bank\[24\]\.u_ro\.n\[29\]
*769 u_puf\.u_core\.g_ro_bank\[24\]\.u_ro\.n\[2\]
*770 u_puf\.u_core\.g_ro_bank\[24\]\.u_ro\.n\[30\]
*771 u_puf\.u_core\.g_ro_bank\[24\]\.u_ro\.n\[3\]
*772 u_puf\.u_core\.g_ro_bank\[24\]\.u_ro\.n\[4\]
*773 u_puf\.u_core\.g_ro_bank\[24\]\.u_ro\.n\[5\]
*774 u_puf\.u_core\.g_ro_bank\[24\]\.u_ro\.n\[6\]
*775 u_puf\.u_core\.g_ro_bank\[24\]\.u_ro\.n\[7\]
*776 u_puf\.u_core\.g_ro_bank\[24\]\.u_ro\.n\[8\]
*777 u_puf\.u_core\.g_ro_bank\[24\]\.u_ro\.n\[9\]
*778 u_puf\.u_core\.g_ro_bank\[24\]\.u_ro\.out
*779 u_puf\.u_core\.g_ro_bank\[25\]\.u_ro\.en
*780 u_puf\.u_core\.g_ro_bank\[25\]\.u_ro\.n\[0\]
*781 u_puf\.u_core\.g_ro_bank\[25\]\.u_ro\.n\[10\]
*782 u_puf\.u_core\.g_ro_bank\[25\]\.u_ro\.n\[11\]
*783 u_puf\.u_core\.g_ro_bank\[25\]\.u_ro\.n\[12\]
*784 u_puf\.u_core\.g_ro_bank\[25\]\.u_ro\.n\[13\]
*785 u_puf\.u_core\.g_ro_bank\[25\]\.u_ro\.n\[14\]
*786 u_puf\.u_core\.g_ro_bank\[25\]\.u_ro\.n\[15\]
*787 u_puf\.u_core\.g_ro_bank\[25\]\.u_ro\.n\[16\]
*788 u_puf\.u_core\.g_ro_bank\[25\]\.u_ro\.n\[17\]
*789 u_puf\.u_core\.g_ro_bank\[25\]\.u_ro\.n\[18\]
*790 u_puf\.u_core\.g_ro_bank\[25\]\.u_ro\.n\[19\]
*791 u_puf\.u_core\.g_ro_bank\[25\]\.u_ro\.n\[1\]
*792 u_puf\.u_core\.g_ro_bank\[25\]\.u_ro\.n\[20\]
*793 u_puf\.u_core\.g_ro_bank\[25\]\.u_ro\.n\[21\]
*794 u_puf\.u_core\.g_ro_bank\[25\]\.u_ro\.n\[22\]
*795 u_puf\.u_core\.g_ro_bank\[25\]\.u_ro\.n\[23\]
*796 u_puf\.u_core\.g_ro_bank\[25\]\.u_ro\.n\[24\]
*797 u_puf\.u_core\.g_ro_bank\[25\]\.u_ro\.n\[25\]
*798 u_puf\.u_core\.g_ro_bank\[25\]\.u_ro\.n\[26\]
*799 u_puf\.u_core\.g_ro_bank\[25\]\.u_ro\.n\[27\]
*800 u_puf\.u_core\.g_ro_bank\[25\]\.u_ro\.n\[28\]
*801 u_puf\.u_core\.g_ro_bank\[25\]\.u_ro\.n\[29\]
*802 u_puf\.u_core\.g_ro_bank\[25\]\.u_ro\.n\[2\]
*803 u_puf\.u_core\.g_ro_bank\[25\]\.u_ro\.n\[30\]
*804 u_puf\.u_core\.g_ro_bank\[25\]\.u_ro\.n\[3\]
*805 u_puf\.u_core\.g_ro_bank\[25\]\.u_ro\.n\[4\]
*806 u_puf\.u_core\.g_ro_bank\[25\]\.u_ro\.n\[5\]
*807 u_puf\.u_core\.g_ro_bank\[25\]\.u_ro\.n\[6\]
*808 u_puf\.u_core\.g_ro_bank\[25\]\.u_ro\.n\[7\]
*809 u_puf\.u_core\.g_ro_bank\[25\]\.u_ro\.n\[8\]
*810 u_puf\.u_core\.g_ro_bank\[25\]\.u_ro\.n\[9\]
*811 u_puf\.u_core\.g_ro_bank\[25\]\.u_ro\.out
*812 u_puf\.u_core\.g_ro_bank\[26\]\.u_ro\.en
*813 u_puf\.u_core\.g_ro_bank\[26\]\.u_ro\.n\[0\]
*814 u_puf\.u_core\.g_ro_bank\[26\]\.u_ro\.n\[10\]
*815 u_puf\.u_core\.g_ro_bank\[26\]\.u_ro\.n\[11\]
*816 u_puf\.u_core\.g_ro_bank\[26\]\.u_ro\.n\[12\]
*817 u_puf\.u_core\.g_ro_bank\[26\]\.u_ro\.n\[13\]
*818 u_puf\.u_core\.g_ro_bank\[26\]\.u_ro\.n\[14\]
*819 u_puf\.u_core\.g_ro_bank\[26\]\.u_ro\.n\[15\]
*820 u_puf\.u_core\.g_ro_bank\[26\]\.u_ro\.n\[16\]
*821 u_puf\.u_core\.g_ro_bank\[26\]\.u_ro\.n\[17\]
*822 u_puf\.u_core\.g_ro_bank\[26\]\.u_ro\.n\[18\]
*823 u_puf\.u_core\.g_ro_bank\[26\]\.u_ro\.n\[19\]
*824 u_puf\.u_core\.g_ro_bank\[26\]\.u_ro\.n\[1\]
*825 u_puf\.u_core\.g_ro_bank\[26\]\.u_ro\.n\[20\]
*826 u_puf\.u_core\.g_ro_bank\[26\]\.u_ro\.n\[21\]
*827 u_puf\.u_core\.g_ro_bank\[26\]\.u_ro\.n\[22\]
*828 u_puf\.u_core\.g_ro_bank\[26\]\.u_ro\.n\[23\]
*829 u_puf\.u_core\.g_ro_bank\[26\]\.u_ro\.n\[24\]
*830 u_puf\.u_core\.g_ro_bank\[26\]\.u_ro\.n\[25\]
*831 u_puf\.u_core\.g_ro_bank\[26\]\.u_ro\.n\[26\]
*832 u_puf\.u_core\.g_ro_bank\[26\]\.u_ro\.n\[27\]
*833 u_puf\.u_core\.g_ro_bank\[26\]\.u_ro\.n\[28\]
*834 u_puf\.u_core\.g_ro_bank\[26\]\.u_ro\.n\[29\]
*835 u_puf\.u_core\.g_ro_bank\[26\]\.u_ro\.n\[2\]
*836 u_puf\.u_core\.g_ro_bank\[26\]\.u_ro\.n\[30\]
*837 u_puf\.u_core\.g_ro_bank\[26\]\.u_ro\.n\[3\]
*838 u_puf\.u_core\.g_ro_bank\[26\]\.u_ro\.n\[4\]
*839 u_puf\.u_core\.g_ro_bank\[26\]\.u_ro\.n\[5\]
*840 u_puf\.u_core\.g_ro_bank\[26\]\.u_ro\.n\[6\]
*841 u_puf\.u_core\.g_ro_bank\[26\]\.u_ro\.n\[7\]
*842 u_puf\.u_core\.g_ro_bank\[26\]\.u_ro\.n\[8\]
*843 u_puf\.u_core\.g_ro_bank\[26\]\.u_ro\.n\[9\]
*844 u_puf\.u_core\.g_ro_bank\[26\]\.u_ro\.out
*845 u_puf\.u_core\.g_ro_bank\[27\]\.u_ro\.en
*846 u_puf\.u_core\.g_ro_bank\[27\]\.u_ro\.n\[0\]
*847 u_puf\.u_core\.g_ro_bank\[27\]\.u_ro\.n\[10\]
*848 u_puf\.u_core\.g_ro_bank\[27\]\.u_ro\.n\[11\]
*849 u_puf\.u_core\.g_ro_bank\[27\]\.u_ro\.n\[12\]
*850 u_puf\.u_core\.g_ro_bank\[27\]\.u_ro\.n\[13\]
*851 u_puf\.u_core\.g_ro_bank\[27\]\.u_ro\.n\[14\]
*852 u_puf\.u_core\.g_ro_bank\[27\]\.u_ro\.n\[15\]
*853 u_puf\.u_core\.g_ro_bank\[27\]\.u_ro\.n\[16\]
*854 u_puf\.u_core\.g_ro_bank\[27\]\.u_ro\.n\[17\]
*855 u_puf\.u_core\.g_ro_bank\[27\]\.u_ro\.n\[18\]
*856 u_puf\.u_core\.g_ro_bank\[27\]\.u_ro\.n\[19\]
*857 u_puf\.u_core\.g_ro_bank\[27\]\.u_ro\.n\[1\]
*858 u_puf\.u_core\.g_ro_bank\[27\]\.u_ro\.n\[20\]
*859 u_puf\.u_core\.g_ro_bank\[27\]\.u_ro\.n\[21\]
*860 u_puf\.u_core\.g_ro_bank\[27\]\.u_ro\.n\[22\]
*861 u_puf\.u_core\.g_ro_bank\[27\]\.u_ro\.n\[23\]
*862 u_puf\.u_core\.g_ro_bank\[27\]\.u_ro\.n\[24\]
*863 u_puf\.u_core\.g_ro_bank\[27\]\.u_ro\.n\[25\]
*864 u_puf\.u_core\.g_ro_bank\[27\]\.u_ro\.n\[26\]
*865 u_puf\.u_core\.g_ro_bank\[27\]\.u_ro\.n\[27\]
*866 u_puf\.u_core\.g_ro_bank\[27\]\.u_ro\.n\[28\]
*867 u_puf\.u_core\.g_ro_bank\[27\]\.u_ro\.n\[29\]
*868 u_puf\.u_core\.g_ro_bank\[27\]\.u_ro\.n\[2\]
*869 u_puf\.u_core\.g_ro_bank\[27\]\.u_ro\.n\[30\]
*870 u_puf\.u_core\.g_ro_bank\[27\]\.u_ro\.n\[3\]
*871 u_puf\.u_core\.g_ro_bank\[27\]\.u_ro\.n\[4\]
*872 u_puf\.u_core\.g_ro_bank\[27\]\.u_ro\.n\[5\]
*873 u_puf\.u_core\.g_ro_bank\[27\]\.u_ro\.n\[6\]
*874 u_puf\.u_core\.g_ro_bank\[27\]\.u_ro\.n\[7\]
*875 u_puf\.u_core\.g_ro_bank\[27\]\.u_ro\.n\[8\]
*876 u_puf\.u_core\.g_ro_bank\[27\]\.u_ro\.n\[9\]
*877 u_puf\.u_core\.g_ro_bank\[27\]\.u_ro\.out
*878 u_puf\.u_core\.g_ro_bank\[28\]\.u_ro\.en
*879 u_puf\.u_core\.g_ro_bank\[28\]\.u_ro\.n\[0\]
*880 u_puf\.u_core\.g_ro_bank\[28\]\.u_ro\.n\[10\]
*881 u_puf\.u_core\.g_ro_bank\[28\]\.u_ro\.n\[11\]
*882 u_puf\.u_core\.g_ro_bank\[28\]\.u_ro\.n\[12\]
*883 u_puf\.u_core\.g_ro_bank\[28\]\.u_ro\.n\[13\]
*884 u_puf\.u_core\.g_ro_bank\[28\]\.u_ro\.n\[14\]
*885 u_puf\.u_core\.g_ro_bank\[28\]\.u_ro\.n\[15\]
*886 u_puf\.u_core\.g_ro_bank\[28\]\.u_ro\.n\[16\]
*887 u_puf\.u_core\.g_ro_bank\[28\]\.u_ro\.n\[17\]
*888 u_puf\.u_core\.g_ro_bank\[28\]\.u_ro\.n\[18\]
*889 u_puf\.u_core\.g_ro_bank\[28\]\.u_ro\.n\[19\]
*890 u_puf\.u_core\.g_ro_bank\[28\]\.u_ro\.n\[1\]
*891 u_puf\.u_core\.g_ro_bank\[28\]\.u_ro\.n\[20\]
*892 u_puf\.u_core\.g_ro_bank\[28\]\.u_ro\.n\[21\]
*893 u_puf\.u_core\.g_ro_bank\[28\]\.u_ro\.n\[22\]
*894 u_puf\.u_core\.g_ro_bank\[28\]\.u_ro\.n\[23\]
*895 u_puf\.u_core\.g_ro_bank\[28\]\.u_ro\.n\[24\]
*896 u_puf\.u_core\.g_ro_bank\[28\]\.u_ro\.n\[25\]
*897 u_puf\.u_core\.g_ro_bank\[28\]\.u_ro\.n\[26\]
*898 u_puf\.u_core\.g_ro_bank\[28\]\.u_ro\.n\[27\]
*899 u_puf\.u_core\.g_ro_bank\[28\]\.u_ro\.n\[28\]
*900 u_puf\.u_core\.g_ro_bank\[28\]\.u_ro\.n\[29\]
*901 u_puf\.u_core\.g_ro_bank\[28\]\.u_ro\.n\[2\]
*902 u_puf\.u_core\.g_ro_bank\[28\]\.u_ro\.n\[30\]
*903 u_puf\.u_core\.g_ro_bank\[28\]\.u_ro\.n\[3\]
*904 u_puf\.u_core\.g_ro_bank\[28\]\.u_ro\.n\[4\]
*905 u_puf\.u_core\.g_ro_bank\[28\]\.u_ro\.n\[5\]
*906 u_puf\.u_core\.g_ro_bank\[28\]\.u_ro\.n\[6\]
*907 u_puf\.u_core\.g_ro_bank\[28\]\.u_ro\.n\[7\]
*908 u_puf\.u_core\.g_ro_bank\[28\]\.u_ro\.n\[8\]
*909 u_puf\.u_core\.g_ro_bank\[28\]\.u_ro\.n\[9\]
*910 u_puf\.u_core\.g_ro_bank\[28\]\.u_ro\.out
*911 u_puf\.u_core\.g_ro_bank\[29\]\.u_ro\.en
*912 u_puf\.u_core\.g_ro_bank\[29\]\.u_ro\.n\[0\]
*913 u_puf\.u_core\.g_ro_bank\[29\]\.u_ro\.n\[10\]
*914 u_puf\.u_core\.g_ro_bank\[29\]\.u_ro\.n\[11\]
*915 u_puf\.u_core\.g_ro_bank\[29\]\.u_ro\.n\[12\]
*916 u_puf\.u_core\.g_ro_bank\[29\]\.u_ro\.n\[13\]
*917 u_puf\.u_core\.g_ro_bank\[29\]\.u_ro\.n\[14\]
*918 u_puf\.u_core\.g_ro_bank\[29\]\.u_ro\.n\[15\]
*919 u_puf\.u_core\.g_ro_bank\[29\]\.u_ro\.n\[16\]
*920 u_puf\.u_core\.g_ro_bank\[29\]\.u_ro\.n\[17\]
*921 u_puf\.u_core\.g_ro_bank\[29\]\.u_ro\.n\[18\]
*922 u_puf\.u_core\.g_ro_bank\[29\]\.u_ro\.n\[19\]
*923 u_puf\.u_core\.g_ro_bank\[29\]\.u_ro\.n\[1\]
*924 u_puf\.u_core\.g_ro_bank\[29\]\.u_ro\.n\[20\]
*925 u_puf\.u_core\.g_ro_bank\[29\]\.u_ro\.n\[21\]
*926 u_puf\.u_core\.g_ro_bank\[29\]\.u_ro\.n\[22\]
*927 u_puf\.u_core\.g_ro_bank\[29\]\.u_ro\.n\[23\]
*928 u_puf\.u_core\.g_ro_bank\[29\]\.u_ro\.n\[24\]
*929 u_puf\.u_core\.g_ro_bank\[29\]\.u_ro\.n\[25\]
*930 u_puf\.u_core\.g_ro_bank\[29\]\.u_ro\.n\[26\]
*931 u_puf\.u_core\.g_ro_bank\[29\]\.u_ro\.n\[27\]
*932 u_puf\.u_core\.g_ro_bank\[29\]\.u_ro\.n\[28\]
*933 u_puf\.u_core\.g_ro_bank\[29\]\.u_ro\.n\[29\]
*934 u_puf\.u_core\.g_ro_bank\[29\]\.u_ro\.n\[2\]
*935 u_puf\.u_core\.g_ro_bank\[29\]\.u_ro\.n\[30\]
*936 u_puf\.u_core\.g_ro_bank\[29\]\.u_ro\.n\[3\]
*937 u_puf\.u_core\.g_ro_bank\[29\]\.u_ro\.n\[4\]
*938 u_puf\.u_core\.g_ro_bank\[29\]\.u_ro\.n\[5\]
*939 u_puf\.u_core\.g_ro_bank\[29\]\.u_ro\.n\[6\]
*940 u_puf\.u_core\.g_ro_bank\[29\]\.u_ro\.n\[7\]
*941 u_puf\.u_core\.g_ro_bank\[29\]\.u_ro\.n\[8\]
*942 u_puf\.u_core\.g_ro_bank\[29\]\.u_ro\.n\[9\]
*943 u_puf\.u_core\.g_ro_bank\[29\]\.u_ro\.out
*944 u_puf\.u_core\.g_ro_bank\[2\]\.u_ro\.en
*945 u_puf\.u_core\.g_ro_bank\[2\]\.u_ro\.n\[0\]
*946 u_puf\.u_core\.g_ro_bank\[2\]\.u_ro\.n\[10\]
*947 u_puf\.u_core\.g_ro_bank\[2\]\.u_ro\.n\[11\]
*948 u_puf\.u_core\.g_ro_bank\[2\]\.u_ro\.n\[12\]
*949 u_puf\.u_core\.g_ro_bank\[2\]\.u_ro\.n\[13\]
*950 u_puf\.u_core\.g_ro_bank\[2\]\.u_ro\.n\[14\]
*951 u_puf\.u_core\.g_ro_bank\[2\]\.u_ro\.n\[15\]
*952 u_puf\.u_core\.g_ro_bank\[2\]\.u_ro\.n\[16\]
*953 u_puf\.u_core\.g_ro_bank\[2\]\.u_ro\.n\[17\]
*954 u_puf\.u_core\.g_ro_bank\[2\]\.u_ro\.n\[18\]
*955 u_puf\.u_core\.g_ro_bank\[2\]\.u_ro\.n\[19\]
*956 u_puf\.u_core\.g_ro_bank\[2\]\.u_ro\.n\[1\]
*957 u_puf\.u_core\.g_ro_bank\[2\]\.u_ro\.n\[20\]
*958 u_puf\.u_core\.g_ro_bank\[2\]\.u_ro\.n\[21\]
*959 u_puf\.u_core\.g_ro_bank\[2\]\.u_ro\.n\[22\]
*960 u_puf\.u_core\.g_ro_bank\[2\]\.u_ro\.n\[23\]
*961 u_puf\.u_core\.g_ro_bank\[2\]\.u_ro\.n\[24\]
*962 u_puf\.u_core\.g_ro_bank\[2\]\.u_ro\.n\[25\]
*963 u_puf\.u_core\.g_ro_bank\[2\]\.u_ro\.n\[26\]
*964 u_puf\.u_core\.g_ro_bank\[2\]\.u_ro\.n\[27\]
*965 u_puf\.u_core\.g_ro_bank\[2\]\.u_ro\.n\[28\]
*966 u_puf\.u_core\.g_ro_bank\[2\]\.u_ro\.n\[29\]
*967 u_puf\.u_core\.g_ro_bank\[2\]\.u_ro\.n\[2\]
*968 u_puf\.u_core\.g_ro_bank\[2\]\.u_ro\.n\[30\]
*969 u_puf\.u_core\.g_ro_bank\[2\]\.u_ro\.n\[3\]
*970 u_puf\.u_core\.g_ro_bank\[2\]\.u_ro\.n\[4\]
*971 u_puf\.u_core\.g_ro_bank\[2\]\.u_ro\.n\[5\]
*972 u_puf\.u_core\.g_ro_bank\[2\]\.u_ro\.n\[6\]
*973 u_puf\.u_core\.g_ro_bank\[2\]\.u_ro\.n\[7\]
*974 u_puf\.u_core\.g_ro_bank\[2\]\.u_ro\.n\[8\]
*975 u_puf\.u_core\.g_ro_bank\[2\]\.u_ro\.n\[9\]
*976 u_puf\.u_core\.g_ro_bank\[2\]\.u_ro\.out
*977 u_puf\.u_core\.g_ro_bank\[30\]\.u_ro\.en
*978 u_puf\.u_core\.g_ro_bank\[30\]\.u_ro\.n\[0\]
*979 u_puf\.u_core\.g_ro_bank\[30\]\.u_ro\.n\[10\]
*980 u_puf\.u_core\.g_ro_bank\[30\]\.u_ro\.n\[11\]
*981 u_puf\.u_core\.g_ro_bank\[30\]\.u_ro\.n\[12\]
*982 u_puf\.u_core\.g_ro_bank\[30\]\.u_ro\.n\[13\]
*983 u_puf\.u_core\.g_ro_bank\[30\]\.u_ro\.n\[14\]
*984 u_puf\.u_core\.g_ro_bank\[30\]\.u_ro\.n\[15\]
*985 u_puf\.u_core\.g_ro_bank\[30\]\.u_ro\.n\[16\]
*986 u_puf\.u_core\.g_ro_bank\[30\]\.u_ro\.n\[17\]
*987 u_puf\.u_core\.g_ro_bank\[30\]\.u_ro\.n\[18\]
*988 u_puf\.u_core\.g_ro_bank\[30\]\.u_ro\.n\[19\]
*989 u_puf\.u_core\.g_ro_bank\[30\]\.u_ro\.n\[1\]
*990 u_puf\.u_core\.g_ro_bank\[30\]\.u_ro\.n\[20\]
*991 u_puf\.u_core\.g_ro_bank\[30\]\.u_ro\.n\[21\]
*992 u_puf\.u_core\.g_ro_bank\[30\]\.u_ro\.n\[22\]
*993 u_puf\.u_core\.g_ro_bank\[30\]\.u_ro\.n\[23\]
*994 u_puf\.u_core\.g_ro_bank\[30\]\.u_ro\.n\[24\]
*995 u_puf\.u_core\.g_ro_bank\[30\]\.u_ro\.n\[25\]
*996 u_puf\.u_core\.g_ro_bank\[30\]\.u_ro\.n\[26\]
*997 u_puf\.u_core\.g_ro_bank\[30\]\.u_ro\.n\[27\]
*998 u_puf\.u_core\.g_ro_bank\[30\]\.u_ro\.n\[28\]
*999 u_puf\.u_core\.g_ro_bank\[30\]\.u_ro\.n\[29\]
*1000 u_puf\.u_core\.g_ro_bank\[30\]\.u_ro\.n\[2\]
*1001 u_puf\.u_core\.g_ro_bank\[30\]\.u_ro\.n\[30\]
*1002 u_puf\.u_core\.g_ro_bank\[30\]\.u_ro\.n\[3\]
*1003 u_puf\.u_core\.g_ro_bank\[30\]\.u_ro\.n\[4\]
*1004 u_puf\.u_core\.g_ro_bank\[30\]\.u_ro\.n\[5\]
*1005 u_puf\.u_core\.g_ro_bank\[30\]\.u_ro\.n\[6\]
*1006 u_puf\.u_core\.g_ro_bank\[30\]\.u_ro\.n\[7\]
*1007 u_puf\.u_core\.g_ro_bank\[30\]\.u_ro\.n\[8\]
*1008 u_puf\.u_core\.g_ro_bank\[30\]\.u_ro\.n\[9\]
*1009 u_puf\.u_core\.g_ro_bank\[30\]\.u_ro\.out
*1010 u_puf\.u_core\.g_ro_bank\[31\]\.u_ro\.en
*1011 u_puf\.u_core\.g_ro_bank\[31\]\.u_ro\.n\[0\]
*1012 u_puf\.u_core\.g_ro_bank\[31\]\.u_ro\.n\[10\]
*1013 u_puf\.u_core\.g_ro_bank\[31\]\.u_ro\.n\[11\]
*1014 u_puf\.u_core\.g_ro_bank\[31\]\.u_ro\.n\[12\]
*1015 u_puf\.u_core\.g_ro_bank\[31\]\.u_ro\.n\[13\]
*1016 u_puf\.u_core\.g_ro_bank\[31\]\.u_ro\.n\[14\]
*1017 u_puf\.u_core\.g_ro_bank\[31\]\.u_ro\.n\[15\]
*1018 u_puf\.u_core\.g_ro_bank\[31\]\.u_ro\.n\[16\]
*1019 u_puf\.u_core\.g_ro_bank\[31\]\.u_ro\.n\[17\]
*1020 u_puf\.u_core\.g_ro_bank\[31\]\.u_ro\.n\[18\]
*1021 u_puf\.u_core\.g_ro_bank\[31\]\.u_ro\.n\[19\]
*1022 u_puf\.u_core\.g_ro_bank\[31\]\.u_ro\.n\[1\]
*1023 u_puf\.u_core\.g_ro_bank\[31\]\.u_ro\.n\[20\]
*1024 u_puf\.u_core\.g_ro_bank\[31\]\.u_ro\.n\[21\]
*1025 u_puf\.u_core\.g_ro_bank\[31\]\.u_ro\.n\[22\]
*1026 u_puf\.u_core\.g_ro_bank\[31\]\.u_ro\.n\[23\]
*1027 u_puf\.u_core\.g_ro_bank\[31\]\.u_ro\.n\[24\]
*1028 u_puf\.u_core\.g_ro_bank\[31\]\.u_ro\.n\[25\]
*1029 u_puf\.u_core\.g_ro_bank\[31\]\.u_ro\.n\[26\]
*1030 u_puf\.u_core\.g_ro_bank\[31\]\.u_ro\.n\[27\]
*1031 u_puf\.u_core\.g_ro_bank\[31\]\.u_ro\.n\[28\]
*1032 u_puf\.u_core\.g_ro_bank\[31\]\.u_ro\.n\[29\]
*1033 u_puf\.u_core\.g_ro_bank\[31\]\.u_ro\.n\[2\]
*1034 u_puf\.u_core\.g_ro_bank\[31\]\.u_ro\.n\[30\]
*1035 u_puf\.u_core\.g_ro_bank\[31\]\.u_ro\.n\[3\]
*1036 u_puf\.u_core\.g_ro_bank\[31\]\.u_ro\.n\[4\]
*1037 u_puf\.u_core\.g_ro_bank\[31\]\.u_ro\.n\[5\]
*1038 u_puf\.u_core\.g_ro_bank\[31\]\.u_ro\.n\[6\]
*1039 u_puf\.u_core\.g_ro_bank\[31\]\.u_ro\.n\[7\]
*1040 u_puf\.u_core\.g_ro_bank\[31\]\.u_ro\.n\[8\]
*1041 u_puf\.u_core\.g_ro_bank\[31\]\.u_ro\.n\[9\]
*1042 u_puf\.u_core\.g_ro_bank\[31\]\.u_ro\.out
*1043 u_puf\.u_core\.g_ro_bank\[3\]\.u_ro\.en
*1044 u_puf\.u_core\.g_ro_bank\[3\]\.u_ro\.n\[0\]
*1045 u_puf\.u_core\.g_ro_bank\[3\]\.u_ro\.n\[10\]
*1046 u_puf\.u_core\.g_ro_bank\[3\]\.u_ro\.n\[11\]
*1047 u_puf\.u_core\.g_ro_bank\[3\]\.u_ro\.n\[12\]
*1048 u_puf\.u_core\.g_ro_bank\[3\]\.u_ro\.n\[13\]
*1049 u_puf\.u_core\.g_ro_bank\[3\]\.u_ro\.n\[14\]
*1050 u_puf\.u_core\.g_ro_bank\[3\]\.u_ro\.n\[15\]
*1051 u_puf\.u_core\.g_ro_bank\[3\]\.u_ro\.n\[16\]
*1052 u_puf\.u_core\.g_ro_bank\[3\]\.u_ro\.n\[17\]
*1053 u_puf\.u_core\.g_ro_bank\[3\]\.u_ro\.n\[18\]
*1054 u_puf\.u_core\.g_ro_bank\[3\]\.u_ro\.n\[19\]
*1055 u_puf\.u_core\.g_ro_bank\[3\]\.u_ro\.n\[1\]
*1056 u_puf\.u_core\.g_ro_bank\[3\]\.u_ro\.n\[20\]
*1057 u_puf\.u_core\.g_ro_bank\[3\]\.u_ro\.n\[21\]
*1058 u_puf\.u_core\.g_ro_bank\[3\]\.u_ro\.n\[22\]
*1059 u_puf\.u_core\.g_ro_bank\[3\]\.u_ro\.n\[23\]
*1060 u_puf\.u_core\.g_ro_bank\[3\]\.u_ro\.n\[24\]
*1061 u_puf\.u_core\.g_ro_bank\[3\]\.u_ro\.n\[25\]
*1062 u_puf\.u_core\.g_ro_bank\[3\]\.u_ro\.n\[26\]
*1063 u_puf\.u_core\.g_ro_bank\[3\]\.u_ro\.n\[27\]
*1064 u_puf\.u_core\.g_ro_bank\[3\]\.u_ro\.n\[28\]
*1065 u_puf\.u_core\.g_ro_bank\[3\]\.u_ro\.n\[29\]
*1066 u_puf\.u_core\.g_ro_bank\[3\]\.u_ro\.n\[2\]
*1067 u_puf\.u_core\.g_ro_bank\[3\]\.u_ro\.n\[30\]
*1068 u_puf\.u_core\.g_ro_bank\[3\]\.u_ro\.n\[3\]
*1069 u_puf\.u_core\.g_ro_bank\[3\]\.u_ro\.n\[4\]
*1070 u_puf\.u_core\.g_ro_bank\[3\]\.u_ro\.n\[5\]
*1071 u_puf\.u_core\.g_ro_bank\[3\]\.u_ro\.n\[6\]
*1072 u_puf\.u_core\.g_ro_bank\[3\]\.u_ro\.n\[7\]
*1073 u_puf\.u_core\.g_ro_bank\[3\]\.u_ro\.n\[8\]
*1074 u_puf\.u_core\.g_ro_bank\[3\]\.u_ro\.n\[9\]
*1075 u_puf\.u_core\.g_ro_bank\[3\]\.u_ro\.out
*1076 u_puf\.u_core\.g_ro_bank\[4\]\.u_ro\.en
*1077 u_puf\.u_core\.g_ro_bank\[4\]\.u_ro\.n\[0\]
*1078 u_puf\.u_core\.g_ro_bank\[4\]\.u_ro\.n\[10\]
*1079 u_puf\.u_core\.g_ro_bank\[4\]\.u_ro\.n\[11\]
*1080 u_puf\.u_core\.g_ro_bank\[4\]\.u_ro\.n\[12\]
*1081 u_puf\.u_core\.g_ro_bank\[4\]\.u_ro\.n\[13\]
*1082 u_puf\.u_core\.g_ro_bank\[4\]\.u_ro\.n\[14\]
*1083 u_puf\.u_core\.g_ro_bank\[4\]\.u_ro\.n\[15\]
*1084 u_puf\.u_core\.g_ro_bank\[4\]\.u_ro\.n\[16\]
*1085 u_puf\.u_core\.g_ro_bank\[4\]\.u_ro\.n\[17\]
*1086 u_puf\.u_core\.g_ro_bank\[4\]\.u_ro\.n\[18\]
*1087 u_puf\.u_core\.g_ro_bank\[4\]\.u_ro\.n\[19\]
*1088 u_puf\.u_core\.g_ro_bank\[4\]\.u_ro\.n\[1\]
*1089 u_puf\.u_core\.g_ro_bank\[4\]\.u_ro\.n\[20\]
*1090 u_puf\.u_core\.g_ro_bank\[4\]\.u_ro\.n\[21\]
*1091 u_puf\.u_core\.g_ro_bank\[4\]\.u_ro\.n\[22\]
*1092 u_puf\.u_core\.g_ro_bank\[4\]\.u_ro\.n\[23\]
*1093 u_puf\.u_core\.g_ro_bank\[4\]\.u_ro\.n\[24\]
*1094 u_puf\.u_core\.g_ro_bank\[4\]\.u_ro\.n\[25\]
*1095 u_puf\.u_core\.g_ro_bank\[4\]\.u_ro\.n\[26\]
*1096 u_puf\.u_core\.g_ro_bank\[4\]\.u_ro\.n\[27\]
*1097 u_puf\.u_core\.g_ro_bank\[4\]\.u_ro\.n\[28\]
*1098 u_puf\.u_core\.g_ro_bank\[4\]\.u_ro\.n\[29\]
*1099 u_puf\.u_core\.g_ro_bank\[4\]\.u_ro\.n\[2\]
*1100 u_puf\.u_core\.g_ro_bank\[4\]\.u_ro\.n\[30\]
*1101 u_puf\.u_core\.g_ro_bank\[4\]\.u_ro\.n\[3\]
*1102 u_puf\.u_core\.g_ro_bank\[4\]\.u_ro\.n\[4\]
*1103 u_puf\.u_core\.g_ro_bank\[4\]\.u_ro\.n\[5\]
*1104 u_puf\.u_core\.g_ro_bank\[4\]\.u_ro\.n\[6\]
*1105 u_puf\.u_core\.g_ro_bank\[4\]\.u_ro\.n\[7\]
*1106 u_puf\.u_core\.g_ro_bank\[4\]\.u_ro\.n\[8\]
*1107 u_puf\.u_core\.g_ro_bank\[4\]\.u_ro\.n\[9\]
*1108 u_puf\.u_core\.g_ro_bank\[4\]\.u_ro\.out
*1109 u_puf\.u_core\.g_ro_bank\[5\]\.u_ro\.en
*1110 u_puf\.u_core\.g_ro_bank\[5\]\.u_ro\.n\[0\]
*1111 u_puf\.u_core\.g_ro_bank\[5\]\.u_ro\.n\[10\]
*1112 u_puf\.u_core\.g_ro_bank\[5\]\.u_ro\.n\[11\]
*1113 u_puf\.u_core\.g_ro_bank\[5\]\.u_ro\.n\[12\]
*1114 u_puf\.u_core\.g_ro_bank\[5\]\.u_ro\.n\[13\]
*1115 u_puf\.u_core\.g_ro_bank\[5\]\.u_ro\.n\[14\]
*1116 u_puf\.u_core\.g_ro_bank\[5\]\.u_ro\.n\[15\]
*1117 u_puf\.u_core\.g_ro_bank\[5\]\.u_ro\.n\[16\]
*1118 u_puf\.u_core\.g_ro_bank\[5\]\.u_ro\.n\[17\]
*1119 u_puf\.u_core\.g_ro_bank\[5\]\.u_ro\.n\[18\]
*1120 u_puf\.u_core\.g_ro_bank\[5\]\.u_ro\.n\[19\]
*1121 u_puf\.u_core\.g_ro_bank\[5\]\.u_ro\.n\[1\]
*1122 u_puf\.u_core\.g_ro_bank\[5\]\.u_ro\.n\[20\]
*1123 u_puf\.u_core\.g_ro_bank\[5\]\.u_ro\.n\[21\]
*1124 u_puf\.u_core\.g_ro_bank\[5\]\.u_ro\.n\[22\]
*1125 u_puf\.u_core\.g_ro_bank\[5\]\.u_ro\.n\[23\]
*1126 u_puf\.u_core\.g_ro_bank\[5\]\.u_ro\.n\[24\]
*1127 u_puf\.u_core\.g_ro_bank\[5\]\.u_ro\.n\[25\]
*1128 u_puf\.u_core\.g_ro_bank\[5\]\.u_ro\.n\[26\]
*1129 u_puf\.u_core\.g_ro_bank\[5\]\.u_ro\.n\[27\]
*1130 u_puf\.u_core\.g_ro_bank\[5\]\.u_ro\.n\[28\]
*1131 u_puf\.u_core\.g_ro_bank\[5\]\.u_ro\.n\[29\]
*1132 u_puf\.u_core\.g_ro_bank\[5\]\.u_ro\.n\[2\]
*1133 u_puf\.u_core\.g_ro_bank\[5\]\.u_ro\.n\[30\]
*1134 u_puf\.u_core\.g_ro_bank\[5\]\.u_ro\.n\[3\]
*1135 u_puf\.u_core\.g_ro_bank\[5\]\.u_ro\.n\[4\]
*1136 u_puf\.u_core\.g_ro_bank\[5\]\.u_ro\.n\[5\]
*1137 u_puf\.u_core\.g_ro_bank\[5\]\.u_ro\.n\[6\]
*1138 u_puf\.u_core\.g_ro_bank\[5\]\.u_ro\.n\[7\]
*1139 u_puf\.u_core\.g_ro_bank\[5\]\.u_ro\.n\[8\]
*1140 u_puf\.u_core\.g_ro_bank\[5\]\.u_ro\.n\[9\]
*1141 u_puf\.u_core\.g_ro_bank\[5\]\.u_ro\.out
*1142 u_puf\.u_core\.g_ro_bank\[6\]\.u_ro\.en
*1143 u_puf\.u_core\.g_ro_bank\[6\]\.u_ro\.n\[0\]
*1144 u_puf\.u_core\.g_ro_bank\[6\]\.u_ro\.n\[10\]
*1145 u_puf\.u_core\.g_ro_bank\[6\]\.u_ro\.n\[11\]
*1146 u_puf\.u_core\.g_ro_bank\[6\]\.u_ro\.n\[12\]
*1147 u_puf\.u_core\.g_ro_bank\[6\]\.u_ro\.n\[13\]
*1148 u_puf\.u_core\.g_ro_bank\[6\]\.u_ro\.n\[14\]
*1149 u_puf\.u_core\.g_ro_bank\[6\]\.u_ro\.n\[15\]
*1150 u_puf\.u_core\.g_ro_bank\[6\]\.u_ro\.n\[16\]
*1151 u_puf\.u_core\.g_ro_bank\[6\]\.u_ro\.n\[17\]
*1152 u_puf\.u_core\.g_ro_bank\[6\]\.u_ro\.n\[18\]
*1153 u_puf\.u_core\.g_ro_bank\[6\]\.u_ro\.n\[19\]
*1154 u_puf\.u_core\.g_ro_bank\[6\]\.u_ro\.n\[1\]
*1155 u_puf\.u_core\.g_ro_bank\[6\]\.u_ro\.n\[20\]
*1156 u_puf\.u_core\.g_ro_bank\[6\]\.u_ro\.n\[21\]
*1157 u_puf\.u_core\.g_ro_bank\[6\]\.u_ro\.n\[22\]
*1158 u_puf\.u_core\.g_ro_bank\[6\]\.u_ro\.n\[23\]
*1159 u_puf\.u_core\.g_ro_bank\[6\]\.u_ro\.n\[24\]
*1160 u_puf\.u_core\.g_ro_bank\[6\]\.u_ro\.n\[25\]
*1161 u_puf\.u_core\.g_ro_bank\[6\]\.u_ro\.n\[26\]
*1162 u_puf\.u_core\.g_ro_bank\[6\]\.u_ro\.n\[27\]
*1163 u_puf\.u_core\.g_ro_bank\[6\]\.u_ro\.n\[28\]
*1164 u_puf\.u_core\.g_ro_bank\[6\]\.u_ro\.n\[29\]
*1165 u_puf\.u_core\.g_ro_bank\[6\]\.u_ro\.n\[2\]
*1166 u_puf\.u_core\.g_ro_bank\[6\]\.u_ro\.n\[30\]
*1167 u_puf\.u_core\.g_ro_bank\[6\]\.u_ro\.n\[3\]
*1168 u_puf\.u_core\.g_ro_bank\[6\]\.u_ro\.n\[4\]
*1169 u_puf\.u_core\.g_ro_bank\[6\]\.u_ro\.n\[5\]
*1170 u_puf\.u_core\.g_ro_bank\[6\]\.u_ro\.n\[6\]
*1171 u_puf\.u_core\.g_ro_bank\[6\]\.u_ro\.n\[7\]
*1172 u_puf\.u_core\.g_ro_bank\[6\]\.u_ro\.n\[8\]
*1173 u_puf\.u_core\.g_ro_bank\[6\]\.u_ro\.n\[9\]
*1174 u_puf\.u_core\.g_ro_bank\[6\]\.u_ro\.out
*1175 u_puf\.u_core\.g_ro_bank\[7\]\.u_ro\.en
*1176 u_puf\.u_core\.g_ro_bank\[7\]\.u_ro\.n\[0\]
*1177 u_puf\.u_core\.g_ro_bank\[7\]\.u_ro\.n\[10\]
*1178 u_puf\.u_core\.g_ro_bank\[7\]\.u_ro\.n\[11\]
*1179 u_puf\.u_core\.g_ro_bank\[7\]\.u_ro\.n\[12\]
*1180 u_puf\.u_core\.g_ro_bank\[7\]\.u_ro\.n\[13\]
*1181 u_puf\.u_core\.g_ro_bank\[7\]\.u_ro\.n\[14\]
*1182 u_puf\.u_core\.g_ro_bank\[7\]\.u_ro\.n\[15\]
*1183 u_puf\.u_core\.g_ro_bank\[7\]\.u_ro\.n\[16\]
*1184 u_puf\.u_core\.g_ro_bank\[7\]\.u_ro\.n\[17\]
*1185 u_puf\.u_core\.g_ro_bank\[7\]\.u_ro\.n\[18\]
*1186 u_puf\.u_core\.g_ro_bank\[7\]\.u_ro\.n\[19\]
*1187 u_puf\.u_core\.g_ro_bank\[7\]\.u_ro\.n\[1\]
*1188 u_puf\.u_core\.g_ro_bank\[7\]\.u_ro\.n\[20\]
*1189 u_puf\.u_core\.g_ro_bank\[7\]\.u_ro\.n\[21\]
*1190 u_puf\.u_core\.g_ro_bank\[7\]\.u_ro\.n\[22\]
*1191 u_puf\.u_core\.g_ro_bank\[7\]\.u_ro\.n\[23\]
*1192 u_puf\.u_core\.g_ro_bank\[7\]\.u_ro\.n\[24\]
*1193 u_puf\.u_core\.g_ro_bank\[7\]\.u_ro\.n\[25\]
*1194 u_puf\.u_core\.g_ro_bank\[7\]\.u_ro\.n\[26\]
*1195 u_puf\.u_core\.g_ro_bank\[7\]\.u_ro\.n\[27\]
*1196 u_puf\.u_core\.g_ro_bank\[7\]\.u_ro\.n\[28\]
*1197 u_puf\.u_core\.g_ro_bank\[7\]\.u_ro\.n\[29\]
*1198 u_puf\.u_core\.g_ro_bank\[7\]\.u_ro\.n\[2\]
*1199 u_puf\.u_core\.g_ro_bank\[7\]\.u_ro\.n\[30\]
*1200 u_puf\.u_core\.g_ro_bank\[7\]\.u_ro\.n\[3\]
*1201 u_puf\.u_core\.g_ro_bank\[7\]\.u_ro\.n\[4\]
*1202 u_puf\.u_core\.g_ro_bank\[7\]\.u_ro\.n\[5\]
*1203 u_puf\.u_core\.g_ro_bank\[7\]\.u_ro\.n\[6\]
*1204 u_puf\.u_core\.g_ro_bank\[7\]\.u_ro\.n\[7\]
*1205 u_puf\.u_core\.g_ro_bank\[7\]\.u_ro\.n\[8\]
*1206 u_puf\.u_core\.g_ro_bank\[7\]\.u_ro\.n\[9\]
*1207 u_puf\.u_core\.g_ro_bank\[7\]\.u_ro\.out
*1208 u_puf\.u_core\.g_ro_bank\[8\]\.u_ro\.en
*1209 u_puf\.u_core\.g_ro_bank\[8\]\.u_ro\.n\[0\]
*1210 u_puf\.u_core\.g_ro_bank\[8\]\.u_ro\.n\[10\]
*1211 u_puf\.u_core\.g_ro_bank\[8\]\.u_ro\.n\[11\]
*1212 u_puf\.u_core\.g_ro_bank\[8\]\.u_ro\.n\[12\]
*1213 u_puf\.u_core\.g_ro_bank\[8\]\.u_ro\.n\[13\]
*1214 u_puf\.u_core\.g_ro_bank\[8\]\.u_ro\.n\[14\]
*1215 u_puf\.u_core\.g_ro_bank\[8\]\.u_ro\.n\[15\]
*1216 u_puf\.u_core\.g_ro_bank\[8\]\.u_ro\.n\[16\]
*1217 u_puf\.u_core\.g_ro_bank\[8\]\.u_ro\.n\[17\]
*1218 u_puf\.u_core\.g_ro_bank\[8\]\.u_ro\.n\[18\]
*1219 u_puf\.u_core\.g_ro_bank\[8\]\.u_ro\.n\[19\]
*1220 u_puf\.u_core\.g_ro_bank\[8\]\.u_ro\.n\[1\]
*1221 u_puf\.u_core\.g_ro_bank\[8\]\.u_ro\.n\[20\]
*1222 u_puf\.u_core\.g_ro_bank\[8\]\.u_ro\.n\[21\]
*1223 u_puf\.u_core\.g_ro_bank\[8\]\.u_ro\.n\[22\]
*1224 u_puf\.u_core\.g_ro_bank\[8\]\.u_ro\.n\[23\]
*1225 u_puf\.u_core\.g_ro_bank\[8\]\.u_ro\.n\[24\]
*1226 u_puf\.u_core\.g_ro_bank\[8\]\.u_ro\.n\[25\]
*1227 u_puf\.u_core\.g_ro_bank\[8\]\.u_ro\.n\[26\]
*1228 u_puf\.u_core\.g_ro_bank\[8\]\.u_ro\.n\[27\]
*1229 u_puf\.u_core\.g_ro_bank\[8\]\.u_ro\.n\[28\]
*1230 u_puf\.u_core\.g_ro_bank\[8\]\.u_ro\.n\[29\]
*1231 u_puf\.u_core\.g_ro_bank\[8\]\.u_ro\.n\[2\]
*1232 u_puf\.u_core\.g_ro_bank\[8\]\.u_ro\.n\[30\]
*1233 u_puf\.u_core\.g_ro_bank\[8\]\.u_ro\.n\[3\]
*1234 u_puf\.u_core\.g_ro_bank\[8\]\.u_ro\.n\[4\]
*1235 u_puf\.u_core\.g_ro_bank\[8\]\.u_ro\.n\[5\]
*1236 u_puf\.u_core\.g_ro_bank\[8\]\.u_ro\.n\[6\]
*1237 u_puf\.u_core\.g_ro_bank\[8\]\.u_ro\.n\[7\]
*1238 u_puf\.u_core\.g_ro_bank\[8\]\.u_ro\.n\[8\]
*1239 u_puf\.u_core\.g_ro_bank\[8\]\.u_ro\.n\[9\]
*1240 u_puf\.u_core\.g_ro_bank\[8\]\.u_ro\.out
*1241 u_puf\.u_core\.g_ro_bank\[9\]\.u_ro\.en
*1242 u_puf\.u_core\.g_ro_bank\[9\]\.u_ro\.n\[0\]
*1243 u_puf\.u_core\.g_ro_bank\[9\]\.u_ro\.n\[10\]
*1244 u_puf\.u_core\.g_ro_bank\[9\]\.u_ro\.n\[11\]
*1245 u_puf\.u_core\.g_ro_bank\[9\]\.u_ro\.n\[12\]
*1246 u_puf\.u_core\.g_ro_bank\[9\]\.u_ro\.n\[13\]
*1247 u_puf\.u_core\.g_ro_bank\[9\]\.u_ro\.n\[14\]
*1248 u_puf\.u_core\.g_ro_bank\[9\]\.u_ro\.n\[15\]
*1249 u_puf\.u_core\.g_ro_bank\[9\]\.u_ro\.n\[16\]
*1250 u_puf\.u_core\.g_ro_bank\[9\]\.u_ro\.n\[17\]
*1251 u_puf\.u_core\.g_ro_bank\[9\]\.u_ro\.n\[18\]
*1252 u_puf\.u_core\.g_ro_bank\[9\]\.u_ro\.n\[19\]
*1253 u_puf\.u_core\.g_ro_bank\[9\]\.u_ro\.n\[1\]
*1254 u_puf\.u_core\.g_ro_bank\[9\]\.u_ro\.n\[20\]
*1255 u_puf\.u_core\.g_ro_bank\[9\]\.u_ro\.n\[21\]
*1256 u_puf\.u_core\.g_ro_bank\[9\]\.u_ro\.n\[22\]
*1257 u_puf\.u_core\.g_ro_bank\[9\]\.u_ro\.n\[23\]
*1258 u_puf\.u_core\.g_ro_bank\[9\]\.u_ro\.n\[24\]
*1259 u_puf\.u_core\.g_ro_bank\[9\]\.u_ro\.n\[25\]
*1260 u_puf\.u_core\.g_ro_bank\[9\]\.u_ro\.n\[26\]
*1261 u_puf\.u_core\.g_ro_bank\[9\]\.u_ro\.n\[27\]
*1262 u_puf\.u_core\.g_ro_bank\[9\]\.u_ro\.n\[28\]
*1263 u_puf\.u_core\.g_ro_bank\[9\]\.u_ro\.n\[29\]
*1264 u_puf\.u_core\.g_ro_bank\[9\]\.u_ro\.n\[2\]
*1265 u_puf\.u_core\.g_ro_bank\[9\]\.u_ro\.n\[30\]
*1266 u_puf\.u_core\.g_ro_bank\[9\]\.u_ro\.n\[3\]
*1267 u_puf\.u_core\.g_ro_bank\[9\]\.u_ro\.n\[4\]
*1268 u_puf\.u_core\.g_ro_bank\[9\]\.u_ro\.n\[5\]
*1269 u_puf\.u_core\.g_ro_bank\[9\]\.u_ro\.n\[6\]
*1270 u_puf\.u_core\.g_ro_bank\[9\]\.u_ro\.n\[7\]
*1271 u_puf\.u_core\.g_ro_bank\[9\]\.u_ro\.n\[8\]
*1272 u_puf\.u_core\.g_ro_bank\[9\]\.u_ro\.n\[9\]
*1273 u_puf\.u_core\.g_ro_bank\[9\]\.u_ro\.out
*1274 u_puf\.u_core\.gated_ro
*1275 u_puf\.u_core\.wtimer\[0\]
*1276 u_puf\.u_core\.wtimer\[10\]
*1277 u_puf\.u_core\.wtimer\[11\]
*1278 u_puf\.u_core\.wtimer\[12\]
*1279 u_puf\.u_core\.wtimer\[13\]
*1280 u_puf\.u_core\.wtimer\[14\]
*1281 u_puf\.u_core\.wtimer\[15\]
*1282 u_puf\.u_core\.wtimer\[1\]
*1283 u_puf\.u_core\.wtimer\[2\]
*1284 u_puf\.u_core\.wtimer\[3\]
*1285 u_puf\.u_core\.wtimer\[4\]
*1286 u_puf\.u_core\.wtimer\[5\]
*1287 u_puf\.u_core\.wtimer\[6\]
*1288 u_puf\.u_core\.wtimer\[7\]
*1289 u_puf\.u_core\.wtimer\[8\]
*1290 u_puf\.u_core\.wtimer\[9\]
*1291 FILLER_0_100
*1292 FILLER_0_103
*1293 FILLER_0_106
*1294 FILLER_0_109
*1295 FILLER_0_113
*1296 FILLER_0_116
*1297 FILLER_0_119
*1298 FILLER_0_12
*1299 FILLER_0_122
*1300 FILLER_0_125
*1301 FILLER_0_128
*1302 FILLER_0_131
*1303 FILLER_0_134
*1304 FILLER_0_137
*1305 FILLER_0_141
*1306 FILLER_0_144
*1307 FILLER_0_147
*1308 FILLER_0_15
*1309 FILLER_0_150
*1310 FILLER_0_153
*1311 FILLER_0_156
*1312 FILLER_0_159
*1313 FILLER_0_162
*1314 FILLER_0_165
*1315 FILLER_0_169
*1316 FILLER_0_172
*1317 FILLER_0_175
*1318 FILLER_0_178
*1319 FILLER_0_18
*1320 FILLER_0_181
*1321 FILLER_0_184
*1322 FILLER_0_187
*1323 FILLER_0_190
*1324 FILLER_0_193
*1325 FILLER_0_197
*1326 FILLER_0_200
*1327 FILLER_0_203
*1328 FILLER_0_206
*1329 FILLER_0_209
*1330 FILLER_0_21
*1331 FILLER_0_212
*1332 FILLER_0_215
*1333 FILLER_0_218
*1334 FILLER_0_221
*1335 FILLER_0_225
*1336 FILLER_0_228
*1337 FILLER_0_231
*1338 FILLER_0_234
*1339 FILLER_0_237
*1340 FILLER_0_24
*1341 FILLER_0_240
*1342 FILLER_0_243
*1343 FILLER_0_246
*1344 FILLER_0_249
*1345 FILLER_0_253
*1346 FILLER_0_256
*1347 FILLER_0_259
*1348 FILLER_0_262
*1349 FILLER_0_265
*1350 FILLER_0_268
*1351 FILLER_0_27
*1352 FILLER_0_271
*1353 FILLER_0_274
*1354 FILLER_0_277
*1355 FILLER_0_281
*1356 FILLER_0_284
*1357 FILLER_0_287
*1358 FILLER_0_29
*1359 FILLER_0_290
*1360 FILLER_0_293
*1361 FILLER_0_296
*1362 FILLER_0_299
*1363 FILLER_0_3
*1364 FILLER_0_302
*1365 FILLER_0_305
*1366 FILLER_0_309
*1367 FILLER_0_312
*1368 FILLER_0_315
*1369 FILLER_0_318
*1370 FILLER_0_32
*1371 FILLER_0_321
*1372 FILLER_0_324
*1373 FILLER_0_327
*1374 FILLER_0_330
*1375 FILLER_0_333
*1376 FILLER_0_35
*1377 FILLER_0_38
*1378 FILLER_0_41
*1379 FILLER_0_44
*1380 FILLER_0_47
*1381 FILLER_0_50
*1382 FILLER_0_53
*1383 FILLER_0_57
*1384 FILLER_0_6
*1385 FILLER_0_60
*1386 FILLER_0_63
*1387 FILLER_0_66
*1388 FILLER_0_69
*1389 FILLER_0_72
*1390 FILLER_0_75
*1391 FILLER_0_78
*1392 FILLER_0_81
*1393 FILLER_0_85
*1394 FILLER_0_88
*1395 FILLER_0_9
*1396 FILLER_0_91
*1397 FILLER_0_94
*1398 FILLER_0_97
*1399 FILLER_10_106
*1400 FILLER_10_114
*1401 FILLER_10_117
*1402 FILLER_10_12
*1403 FILLER_10_120
*1404 FILLER_10_123
*1405 FILLER_10_134
*1406 FILLER_10_137
*1407 FILLER_10_141
*1408 FILLER_10_15
*1409 FILLER_10_169
*1410 FILLER_10_172
*1411 FILLER_10_175
*1412 FILLER_10_178
*1413 FILLER_10_18
*1414 FILLER_10_181
*1415 FILLER_10_184
*1416 FILLER_10_197
*1417 FILLER_10_200
*1418 FILLER_10_203
*1419 FILLER_10_206
*1420 FILLER_10_209
*1421 FILLER_10_21
*1422 FILLER_10_212
*1423 FILLER_10_234
*1424 FILLER_10_237
*1425 FILLER_10_24
*1426 FILLER_10_240
*1427 FILLER_10_246
*1428 FILLER_10_249
*1429 FILLER_10_259
*1430 FILLER_10_262
*1431 FILLER_10_265
*1432 FILLER_10_268
*1433 FILLER_10_27
*1434 FILLER_10_278
*1435 FILLER_10_281
*1436 FILLER_10_284
*1437 FILLER_10_287
*1438 FILLER_10_29
*1439 FILLER_10_296
*1440 FILLER_10_3
*1441 FILLER_10_307
*1442 FILLER_10_309
*1443 FILLER_10_312
*1444 FILLER_10_315
*1445 FILLER_10_318
*1446 FILLER_10_32
*1447 FILLER_10_321
*1448 FILLER_10_324
*1449 FILLER_10_327
*1450 FILLER_10_330
*1451 FILLER_10_333
*1452 FILLER_10_35
*1453 FILLER_10_38
*1454 FILLER_10_44
*1455 FILLER_10_48
*1456 FILLER_10_6
*1457 FILLER_10_62
*1458 FILLER_10_65
*1459 FILLER_10_68
*1460 FILLER_10_71
*1461 FILLER_10_74
*1462 FILLER_10_78
*1463 FILLER_10_81
*1464 FILLER_10_85
*1465 FILLER_10_88
*1466 FILLER_10_9
*1467 FILLER_10_91
*1468 FILLER_10_94
*1469 FILLER_10_97
*1470 FILLER_11_100
*1471 FILLER_11_103
*1472 FILLER_11_106
*1473 FILLER_11_113
*1474 FILLER_11_12
*1475 FILLER_11_123
*1476 FILLER_11_130
*1477 FILLER_11_149
*1478 FILLER_11_15
*1479 FILLER_11_152
*1480 FILLER_11_155
*1481 FILLER_11_158
*1482 FILLER_11_161
*1483 FILLER_11_164
*1484 FILLER_11_169
*1485 FILLER_11_176
*1486 FILLER_11_179
*1487 FILLER_11_18
*1488 FILLER_11_191
*1489 FILLER_11_194
*1490 FILLER_11_200
*1491 FILLER_11_21
*1492 FILLER_11_221
*1493 FILLER_11_225
*1494 FILLER_11_228
*1495 FILLER_11_24
*1496 FILLER_11_251
*1497 FILLER_11_254
*1498 FILLER_11_265
*1499 FILLER_11_27
*1500 FILLER_11_274
*1501 FILLER_11_277
*1502 FILLER_11_281
*1503 FILLER_11_284
*1504 FILLER_11_294
*1505 FILLER_11_298
*1506 FILLER_11_3
*1507 FILLER_11_309
*1508 FILLER_11_312
*1509 FILLER_11_315
*1510 FILLER_11_318
*1511 FILLER_11_321
*1512 FILLER_11_324
*1513 FILLER_11_327
*1514 FILLER_11_330
*1515 FILLER_11_333
*1516 FILLER_11_37
*1517 FILLER_11_44
*1518 FILLER_11_47
*1519 FILLER_11_54
*1520 FILLER_11_6
*1521 FILLER_11_63
*1522 FILLER_11_68
*1523 FILLER_11_71
*1524 FILLER_11_9
*1525 FILLER_11_93
*1526 FILLER_11_97
*1527 FILLER_12_12
*1528 FILLER_12_121
*1529 FILLER_12_129
*1530 FILLER_12_132
*1531 FILLER_12_135
*1532 FILLER_12_138
*1533 FILLER_12_15
*1534 FILLER_12_162
*1535 FILLER_12_165
*1536 FILLER_12_173
*1537 FILLER_12_176
*1538 FILLER_12_179
*1539 FILLER_12_18
*1540 FILLER_12_182
*1541 FILLER_12_185
*1542 FILLER_12_188
*1543 FILLER_12_194
*1544 FILLER_12_206
*1545 FILLER_12_209
*1546 FILLER_12_21
*1547 FILLER_12_212
*1548 FILLER_12_215
*1549 FILLER_12_24
*1550 FILLER_12_242
*1551 FILLER_12_251
*1552 FILLER_12_253
*1553 FILLER_12_256
*1554 FILLER_12_268
*1555 FILLER_12_275
*1556 FILLER_12_278
*1557 FILLER_12_289
*1558 FILLER_12_29
*1559 FILLER_12_292
*1560 FILLER_12_295
*1561 FILLER_12_298
*1562 FILLER_12_3
*1563 FILLER_12_306
*1564 FILLER_12_309
*1565 FILLER_12_312
*1566 FILLER_12_315
*1567 FILLER_12_318
*1568 FILLER_12_321
*1569 FILLER_12_324
*1570 FILLER_12_327
*1571 FILLER_12_330
*1572 FILLER_12_333
*1573 FILLER_12_36
*1574 FILLER_12_39
*1575 FILLER_12_42
*1576 FILLER_12_45
*1577 FILLER_12_6
*1578 FILLER_12_60
*1579 FILLER_12_63
*1580 FILLER_12_72
*1581 FILLER_12_79
*1582 FILLER_12_82
*1583 FILLER_12_85
*1584 FILLER_12_9
*1585 FILLER_13_102
*1586 FILLER_13_105
*1587 FILLER_13_108
*1588 FILLER_13_111
*1589 FILLER_13_113
*1590 FILLER_13_12
*1591 FILLER_13_127
*1592 FILLER_13_130
*1593 FILLER_13_133
*1594 FILLER_13_136
*1595 FILLER_13_140
*1596 FILLER_13_147
*1597 FILLER_13_15
*1598 FILLER_13_150
*1599 FILLER_13_153
*1600 FILLER_13_172
*1601 FILLER_13_175
*1602 FILLER_13_178
*1603 FILLER_13_18
*1604 FILLER_13_202
*1605 FILLER_13_205
*1606 FILLER_13_208
*1607 FILLER_13_21
*1608 FILLER_13_211
*1609 FILLER_13_225
*1610 FILLER_13_228
*1611 FILLER_13_231
*1612 FILLER_13_234
*1613 FILLER_13_237
*1614 FILLER_13_24
*1615 FILLER_13_240
*1616 FILLER_13_248
*1617 FILLER_13_256
*1618 FILLER_13_259
*1619 FILLER_13_262
*1620 FILLER_13_27
*1621 FILLER_13_273
*1622 FILLER_13_276
*1623 FILLER_13_279
*1624 FILLER_13_287
*1625 FILLER_13_290
*1626 FILLER_13_3
*1627 FILLER_13_311
*1628 FILLER_13_314
*1629 FILLER_13_317
*1630 FILLER_13_320
*1631 FILLER_13_325
*1632 FILLER_13_328
*1633 FILLER_13_331
*1634 FILLER_13_334
*1635 FILLER_13_41
*1636 FILLER_13_44
*1637 FILLER_13_54
*1638 FILLER_13_57
*1639 FILLER_13_6
*1640 FILLER_13_60
*1641 FILLER_13_74
*1642 FILLER_13_77
*1643 FILLER_13_80
*1644 FILLER_13_83
*1645 FILLER_13_86
*1646 FILLER_13_89
*1647 FILLER_13_9
*1648 FILLER_13_92
*1649 FILLER_14_100
*1650 FILLER_14_103
*1651 FILLER_14_106
*1652 FILLER_14_109
*1653 FILLER_14_114
*1654 FILLER_14_12
*1655 FILLER_14_123
*1656 FILLER_14_126
*1657 FILLER_14_141
*1658 FILLER_14_15
*1659 FILLER_14_154
*1660 FILLER_14_157
*1661 FILLER_14_160
*1662 FILLER_14_163
*1663 FILLER_14_171
*1664 FILLER_14_174
*1665 FILLER_14_177
*1666 FILLER_14_18
*1667 FILLER_14_184
*1668 FILLER_14_187
*1669 FILLER_14_195
*1670 FILLER_14_197
*1671 FILLER_14_200
*1672 FILLER_14_21
*1673 FILLER_14_210
*1674 FILLER_14_213
*1675 FILLER_14_216
*1676 FILLER_14_219
*1677 FILLER_14_235
*1678 FILLER_14_238
*1679 FILLER_14_24
*1680 FILLER_14_241
*1681 FILLER_14_244
*1682 FILLER_14_251
*1683 FILLER_14_256
*1684 FILLER_14_259
*1685 FILLER_14_262
*1686 FILLER_14_27
*1687 FILLER_14_275
*1688 FILLER_14_278
*1689 FILLER_14_29
*1690 FILLER_14_295
*1691 FILLER_14_298
*1692 FILLER_14_3
*1693 FILLER_14_301
*1694 FILLER_14_304
*1695 FILLER_14_309
*1696 FILLER_14_32
*1697 FILLER_14_331
*1698 FILLER_14_334
*1699 FILLER_14_35
*1700 FILLER_14_38
*1701 FILLER_14_53
*1702 FILLER_14_56
*1703 FILLER_14_6
*1704 FILLER_14_67
*1705 FILLER_14_9
*1706 FILLER_14_97
*1707 FILLER_15_12
*1708 FILLER_15_121
*1709 FILLER_15_134
*1710 FILLER_15_137
*1711 FILLER_15_140
*1712 FILLER_15_143
*1713 FILLER_15_146
*1714 FILLER_15_15
*1715 FILLER_15_160
*1716 FILLER_15_163
*1717 FILLER_15_166
*1718 FILLER_15_169
*1719 FILLER_15_172
*1720 FILLER_15_175
*1721 FILLER_15_178
*1722 FILLER_15_18
*1723 FILLER_15_200
*1724 FILLER_15_203
*1725 FILLER_15_206
*1726 FILLER_15_21
*1727 FILLER_15_214
*1728 FILLER_15_218
*1729 FILLER_15_225
*1730 FILLER_15_24
*1731 FILLER_15_249
*1732 FILLER_15_252
*1733 FILLER_15_255
*1734 FILLER_15_258
*1735 FILLER_15_261
*1736 FILLER_15_264
*1737 FILLER_15_27
*1738 FILLER_15_271
*1739 FILLER_15_277
*1740 FILLER_15_281
*1741 FILLER_15_284
*1742 FILLER_15_287
*1743 FILLER_15_290
*1744 FILLER_15_293
*1745 FILLER_15_296
*1746 FILLER_15_299
*1747 FILLER_15_3
*1748 FILLER_15_312
*1749 FILLER_15_315
*1750 FILLER_15_318
*1751 FILLER_15_321
*1752 FILLER_15_331
*1753 FILLER_15_334
*1754 FILLER_15_35
*1755 FILLER_15_49
*1756 FILLER_15_52
*1757 FILLER_15_55
*1758 FILLER_15_57
*1759 FILLER_15_6
*1760 FILLER_15_67
*1761 FILLER_15_70
*1762 FILLER_15_73
*1763 FILLER_15_76
*1764 FILLER_15_79
*1765 FILLER_15_82
*1766 FILLER_15_85
*1767 FILLER_15_88
*1768 FILLER_15_9
*1769 FILLER_15_92
*1770 FILLER_16_107
*1771 FILLER_16_110
*1772 FILLER_16_113
*1773 FILLER_16_118
*1774 FILLER_16_12
*1775 FILLER_16_121
*1776 FILLER_16_124
*1777 FILLER_16_127
*1778 FILLER_16_144
*1779 FILLER_16_147
*1780 FILLER_16_15
*1781 FILLER_16_150
*1782 FILLER_16_164
*1783 FILLER_16_167
*1784 FILLER_16_175
*1785 FILLER_16_178
*1786 FILLER_16_18
*1787 FILLER_16_181
*1788 FILLER_16_184
*1789 FILLER_16_190
*1790 FILLER_16_193
*1791 FILLER_16_197
*1792 FILLER_16_230
*1793 FILLER_16_233
*1794 FILLER_16_236
*1795 FILLER_16_239
*1796 FILLER_16_242
*1797 FILLER_16_253
*1798 FILLER_16_256
*1799 FILLER_16_259
*1800 FILLER_16_262
*1801 FILLER_16_265
*1802 FILLER_16_29
*1803 FILLER_16_295
*1804 FILLER_16_298
*1805 FILLER_16_3
*1806 FILLER_16_303
*1807 FILLER_16_312
*1808 FILLER_16_316
*1809 FILLER_16_32
*1810 FILLER_16_328
*1811 FILLER_16_331
*1812 FILLER_16_334
*1813 FILLER_16_35
*1814 FILLER_16_48
*1815 FILLER_16_51
*1816 FILLER_16_6
*1817 FILLER_16_85
*1818 FILLER_16_9
*1819 FILLER_16_90
*1820 FILLER_16_95
*1821 FILLER_16_98
*1822 FILLER_17_113
*1823 FILLER_17_12
*1824 FILLER_17_133
*1825 FILLER_17_136
*1826 FILLER_17_139
*1827 FILLER_17_15
*1828 FILLER_17_155
*1829 FILLER_17_158
*1830 FILLER_17_161
*1831 FILLER_17_164
*1832 FILLER_17_172
*1833 FILLER_17_182
*1834 FILLER_17_186
*1835 FILLER_17_190
*1836 FILLER_17_193
*1837 FILLER_17_198
*1838 FILLER_17_205
*1839 FILLER_17_208
*1840 FILLER_17_211
*1841 FILLER_17_214
*1842 FILLER_17_217
*1843 FILLER_17_220
*1844 FILLER_17_223
*1845 FILLER_17_225
*1846 FILLER_17_228
*1847 FILLER_17_267
*1848 FILLER_17_270
*1849 FILLER_17_28
*1850 FILLER_17_281
*1851 FILLER_17_284
*1852 FILLER_17_287
*1853 FILLER_17_3
*1854 FILLER_17_307
*1855 FILLER_17_31
*1856 FILLER_17_310
*1857 FILLER_17_313
*1858 FILLER_17_331
*1859 FILLER_17_334
*1860 FILLER_17_34
*1861 FILLER_17_44
*1862 FILLER_17_47
*1863 FILLER_17_50
*1864 FILLER_17_57
*1865 FILLER_17_6
*1866 FILLER_17_65
*1867 FILLER_17_68
*1868 FILLER_17_71
*1869 FILLER_17_74
*1870 FILLER_17_77
*1871 FILLER_17_80
*1872 FILLER_17_89
*1873 FILLER_17_9
*1874 FILLER_17_92
*1875 FILLER_17_95
*1876 FILLER_18_105
*1877 FILLER_18_108
*1878 FILLER_18_111
*1879 FILLER_18_114
*1880 FILLER_18_117
*1881 FILLER_18_12
*1882 FILLER_18_120
*1883 FILLER_18_128
*1884 FILLER_18_139
*1885 FILLER_18_141
*1886 FILLER_18_145
*1887 FILLER_18_148
*1888 FILLER_18_15
*1889 FILLER_18_151
*1890 FILLER_18_154
*1891 FILLER_18_157
*1892 FILLER_18_160
*1893 FILLER_18_163
*1894 FILLER_18_166
*1895 FILLER_18_173
*1896 FILLER_18_176
*1897 FILLER_18_179
*1898 FILLER_18_182
*1899 FILLER_18_189
*1900 FILLER_18_212
*1901 FILLER_18_226
*1902 FILLER_18_229
*1903 FILLER_18_247
*1904 FILLER_18_253
*1905 FILLER_18_256
*1906 FILLER_18_260
*1907 FILLER_18_266
*1908 FILLER_18_281
*1909 FILLER_18_284
*1910 FILLER_18_29
*1911 FILLER_18_299
*1912 FILLER_18_3
*1913 FILLER_18_312
*1914 FILLER_18_315
*1915 FILLER_18_318
*1916 FILLER_18_32
*1917 FILLER_18_333
*1918 FILLER_18_35
*1919 FILLER_18_45
*1920 FILLER_18_48
*1921 FILLER_18_51
*1922 FILLER_18_54
*1923 FILLER_18_6
*1924 FILLER_18_9
*1925 FILLER_18_91
*1926 FILLER_19_12
*1927 FILLER_19_125
*1928 FILLER_19_133
*1929 FILLER_19_136
*1930 FILLER_19_15
*1931 FILLER_19_166
*1932 FILLER_19_169
*1933 FILLER_19_177
*1934 FILLER_19_18
*1935 FILLER_19_189
*1936 FILLER_19_192
*1937 FILLER_19_195
*1938 FILLER_19_198
*1939 FILLER_19_204
*1940 FILLER_19_207
*1941 FILLER_19_21
*1942 FILLER_19_210
*1943 FILLER_19_218
*1944 FILLER_19_223
*1945 FILLER_19_228
*1946 FILLER_19_231
*1947 FILLER_19_234
*1948 FILLER_19_237
*1949 FILLER_19_24
*1950 FILLER_19_240
*1951 FILLER_19_243
*1952 FILLER_19_249
*1953 FILLER_19_252
*1954 FILLER_19_257
*1955 FILLER_19_27
*1956 FILLER_19_271
*1957 FILLER_19_276
*1958 FILLER_19_279
*1959 FILLER_19_281
*1960 FILLER_19_284
*1961 FILLER_19_294
*1962 FILLER_19_297
*1963 FILLER_19_3
*1964 FILLER_19_300
*1965 FILLER_19_314
*1966 FILLER_19_317
*1967 FILLER_19_32
*1968 FILLER_19_320
*1969 FILLER_19_323
*1970 FILLER_19_326
*1971 FILLER_19_329
*1972 FILLER_19_332
*1973 FILLER_19_42
*1974 FILLER_19_45
*1975 FILLER_19_52
*1976 FILLER_19_55
*1977 FILLER_19_57
*1978 FILLER_19_6
*1979 FILLER_19_63
*1980 FILLER_19_66
*1981 FILLER_19_69
*1982 FILLER_19_73
*1983 FILLER_19_77
*1984 FILLER_19_80
*1985 FILLER_19_83
*1986 FILLER_19_89
*1987 FILLER_19_9
*1988 FILLER_19_92
*1989 FILLER_19_95
*1990 FILLER_1_102
*1991 FILLER_1_105
*1992 FILLER_1_108
*1993 FILLER_1_111
*1994 FILLER_1_113
*1995 FILLER_1_116
*1996 FILLER_1_119
*1997 FILLER_1_12
*1998 FILLER_1_122
*1999 FILLER_1_125
*2000 FILLER_1_128
*2001 FILLER_1_131
*2002 FILLER_1_134
*2003 FILLER_1_137
*2004 FILLER_1_140
*2005 FILLER_1_143
*2006 FILLER_1_146
*2007 FILLER_1_149
*2008 FILLER_1_15
*2009 FILLER_1_152
*2010 FILLER_1_155
*2011 FILLER_1_158
*2012 FILLER_1_161
*2013 FILLER_1_164
*2014 FILLER_1_167
*2015 FILLER_1_169
*2016 FILLER_1_172
*2017 FILLER_1_175
*2018 FILLER_1_178
*2019 FILLER_1_18
*2020 FILLER_1_181
*2021 FILLER_1_184
*2022 FILLER_1_187
*2023 FILLER_1_190
*2024 FILLER_1_193
*2025 FILLER_1_196
*2026 FILLER_1_199
*2027 FILLER_1_202
*2028 FILLER_1_205
*2029 FILLER_1_208
*2030 FILLER_1_21
*2031 FILLER_1_211
*2032 FILLER_1_214
*2033 FILLER_1_217
*2034 FILLER_1_220
*2035 FILLER_1_223
*2036 FILLER_1_225
*2037 FILLER_1_228
*2038 FILLER_1_231
*2039 FILLER_1_234
*2040 FILLER_1_237
*2041 FILLER_1_24
*2042 FILLER_1_240
*2043 FILLER_1_243
*2044 FILLER_1_246
*2045 FILLER_1_249
*2046 FILLER_1_252
*2047 FILLER_1_255
*2048 FILLER_1_258
*2049 FILLER_1_261
*2050 FILLER_1_264
*2051 FILLER_1_267
*2052 FILLER_1_27
*2053 FILLER_1_270
*2054 FILLER_1_273
*2055 FILLER_1_276
*2056 FILLER_1_279
*2057 FILLER_1_281
*2058 FILLER_1_284
*2059 FILLER_1_287
*2060 FILLER_1_290
*2061 FILLER_1_293
*2062 FILLER_1_296
*2063 FILLER_1_299
*2064 FILLER_1_3
*2065 FILLER_1_30
*2066 FILLER_1_302
*2067 FILLER_1_305
*2068 FILLER_1_308
*2069 FILLER_1_311
*2070 FILLER_1_314
*2071 FILLER_1_317
*2072 FILLER_1_320
*2073 FILLER_1_323
*2074 FILLER_1_326
*2075 FILLER_1_329
*2076 FILLER_1_33
*2077 FILLER_1_332
*2078 FILLER_1_36
*2079 FILLER_1_39
*2080 FILLER_1_42
*2081 FILLER_1_45
*2082 FILLER_1_48
*2083 FILLER_1_51
*2084 FILLER_1_54
*2085 FILLER_1_57
*2086 FILLER_1_6
*2087 FILLER_1_60
*2088 FILLER_1_63
*2089 FILLER_1_66
*2090 FILLER_1_69
*2091 FILLER_1_72
*2092 FILLER_1_75
*2093 FILLER_1_78
*2094 FILLER_1_81
*2095 FILLER_1_84
*2096 FILLER_1_87
*2097 FILLER_1_9
*2098 FILLER_1_90
*2099 FILLER_1_93
*2100 FILLER_1_96
*2101 FILLER_1_99
*2102 FILLER_20_100
*2103 FILLER_20_103
*2104 FILLER_20_106
*2105 FILLER_20_109
*2106 FILLER_20_112
*2107 FILLER_20_115
*2108 FILLER_20_118
*2109 FILLER_20_12
*2110 FILLER_20_121
*2111 FILLER_20_124
*2112 FILLER_20_127
*2113 FILLER_20_130
*2114 FILLER_20_133
*2115 FILLER_20_136
*2116 FILLER_20_147
*2117 FILLER_20_15
*2118 FILLER_20_150
*2119 FILLER_20_153
*2120 FILLER_20_156
*2121 FILLER_20_159
*2122 FILLER_20_162
*2123 FILLER_20_172
*2124 FILLER_20_175
*2125 FILLER_20_18
*2126 FILLER_20_188
*2127 FILLER_20_191
*2128 FILLER_20_194
*2129 FILLER_20_21
*2130 FILLER_20_212
*2131 FILLER_20_226
*2132 FILLER_20_229
*2133 FILLER_20_232
*2134 FILLER_20_235
*2135 FILLER_20_24
*2136 FILLER_20_251
*2137 FILLER_20_256
*2138 FILLER_20_259
*2139 FILLER_20_262
*2140 FILLER_20_27
*2141 FILLER_20_271
*2142 FILLER_20_274
*2143 FILLER_20_277
*2144 FILLER_20_29
*2145 FILLER_20_298
*2146 FILLER_20_3
*2147 FILLER_20_302
*2148 FILLER_20_306
*2149 FILLER_20_315
*2150 FILLER_20_318
*2151 FILLER_20_32
*2152 FILLER_20_321
*2153 FILLER_20_324
*2154 FILLER_20_327
*2155 FILLER_20_330
*2156 FILLER_20_333
*2157 FILLER_20_35
*2158 FILLER_20_38
*2159 FILLER_20_6
*2160 FILLER_20_64
*2161 FILLER_20_71
*2162 FILLER_20_74
*2163 FILLER_20_77
*2164 FILLER_20_80
*2165 FILLER_20_9
*2166 FILLER_20_97
*2167 FILLER_21_108
*2168 FILLER_21_111
*2169 FILLER_21_119
*2170 FILLER_21_12
*2171 FILLER_21_128
*2172 FILLER_21_131
*2173 FILLER_21_134
*2174 FILLER_21_137
*2175 FILLER_21_148
*2176 FILLER_21_15
*2177 FILLER_21_165
*2178 FILLER_21_169
*2179 FILLER_21_172
*2180 FILLER_21_175
*2181 FILLER_21_18
*2182 FILLER_21_181
*2183 FILLER_21_184
*2184 FILLER_21_187
*2185 FILLER_21_190
*2186 FILLER_21_193
*2187 FILLER_21_204
*2188 FILLER_21_207
*2189 FILLER_21_21
*2190 FILLER_21_210
*2191 FILLER_21_213
*2192 FILLER_21_222
*2193 FILLER_21_225
*2194 FILLER_21_228
*2195 FILLER_21_231
*2196 FILLER_21_24
*2197 FILLER_21_246
*2198 FILLER_21_249
*2199 FILLER_21_259
*2200 FILLER_21_27
*2201 FILLER_21_279
*2202 FILLER_21_284
*2203 FILLER_21_289
*2204 FILLER_21_292
*2205 FILLER_21_295
*2206 FILLER_21_298
*2207 FILLER_21_3
*2208 FILLER_21_30
*2209 FILLER_21_301
*2210 FILLER_21_307
*2211 FILLER_21_312
*2212 FILLER_21_315
*2213 FILLER_21_318
*2214 FILLER_21_321
*2215 FILLER_21_324
*2216 FILLER_21_327
*2217 FILLER_21_33
*2218 FILLER_21_330
*2219 FILLER_21_333
*2220 FILLER_21_36
*2221 FILLER_21_39
*2222 FILLER_21_42
*2223 FILLER_21_45
*2224 FILLER_21_52
*2225 FILLER_21_55
*2226 FILLER_21_57
*2227 FILLER_21_6
*2228 FILLER_21_60
*2229 FILLER_21_63
*2230 FILLER_21_74
*2231 FILLER_21_77
*2232 FILLER_21_80
*2233 FILLER_21_9
*2234 FILLER_21_90
*2235 FILLER_21_93
*2236 FILLER_22_111
*2237 FILLER_22_114
*2238 FILLER_22_117
*2239 FILLER_22_12
*2240 FILLER_22_120
*2241 FILLER_22_130
*2242 FILLER_22_133
*2243 FILLER_22_136
*2244 FILLER_22_15
*2245 FILLER_22_156
*2246 FILLER_22_159
*2247 FILLER_22_162
*2248 FILLER_22_166
*2249 FILLER_22_169
*2250 FILLER_22_191
*2251 FILLER_22_206
*2252 FILLER_22_209
*2253 FILLER_22_213
*2254 FILLER_22_223
*2255 FILLER_22_226
*2256 FILLER_22_240
*2257 FILLER_22_243
*2258 FILLER_22_246
*2259 FILLER_22_249
*2260 FILLER_22_253
*2261 FILLER_22_277
*2262 FILLER_22_29
*2263 FILLER_22_290
*2264 FILLER_22_293
*2265 FILLER_22_296
*2266 FILLER_22_3
*2267 FILLER_22_307
*2268 FILLER_22_312
*2269 FILLER_22_318
*2270 FILLER_22_334
*2271 FILLER_22_43
*2272 FILLER_22_46
*2273 FILLER_22_6
*2274 FILLER_22_62
*2275 FILLER_22_65
*2276 FILLER_22_68
*2277 FILLER_22_79
*2278 FILLER_22_82
*2279 FILLER_22_9
*2280 FILLER_22_91
*2281 FILLER_22_94
*2282 FILLER_22_97
*2283 FILLER_23_109
*2284 FILLER_23_113
*2285 FILLER_23_12
*2286 FILLER_23_131
*2287 FILLER_23_134
*2288 FILLER_23_137
*2289 FILLER_23_140
*2290 FILLER_23_148
*2291 FILLER_23_152
*2292 FILLER_23_155
*2293 FILLER_23_158
*2294 FILLER_23_172
*2295 FILLER_23_175
*2296 FILLER_23_178
*2297 FILLER_23_181
*2298 FILLER_23_188
*2299 FILLER_23_191
*2300 FILLER_23_194
*2301 FILLER_23_197
*2302 FILLER_23_211
*2303 FILLER_23_215
*2304 FILLER_23_218
*2305 FILLER_23_22
*2306 FILLER_23_221
*2307 FILLER_23_225
*2308 FILLER_23_240
*2309 FILLER_23_243
*2310 FILLER_23_246
*2311 FILLER_23_25
*2312 FILLER_23_254
*2313 FILLER_23_261
*2314 FILLER_23_264
*2315 FILLER_23_267
*2316 FILLER_23_278
*2317 FILLER_23_28
*2318 FILLER_23_296
*2319 FILLER_23_299
*2320 FILLER_23_3
*2321 FILLER_23_31
*2322 FILLER_23_314
*2323 FILLER_23_317
*2324 FILLER_23_320
*2325 FILLER_23_323
*2326 FILLER_23_333
*2327 FILLER_23_45
*2328 FILLER_23_48
*2329 FILLER_23_51
*2330 FILLER_23_54
*2331 FILLER_23_57
*2332 FILLER_23_6
*2333 FILLER_23_60
*2334 FILLER_23_67
*2335 FILLER_23_70
*2336 FILLER_23_85
*2337 FILLER_23_9
*2338 FILLER_23_91
*2339 FILLER_23_94
*2340 FILLER_24_104
*2341 FILLER_24_107
*2342 FILLER_24_110
*2343 FILLER_24_113
*2344 FILLER_24_12
*2345 FILLER_24_122
*2346 FILLER_24_133
*2347 FILLER_24_141
*2348 FILLER_24_146
*2349 FILLER_24_153
*2350 FILLER_24_163
*2351 FILLER_24_166
*2352 FILLER_24_169
*2353 FILLER_24_172
*2354 FILLER_24_177
*2355 FILLER_24_181
*2356 FILLER_24_188
*2357 FILLER_24_191
*2358 FILLER_24_194
*2359 FILLER_24_197
*2360 FILLER_24_200
*2361 FILLER_24_203
*2362 FILLER_24_206
*2363 FILLER_24_225
*2364 FILLER_24_228
*2365 FILLER_24_231
*2366 FILLER_24_24
*2367 FILLER_24_245
*2368 FILLER_24_253
*2369 FILLER_24_258
*2370 FILLER_24_261
*2371 FILLER_24_264
*2372 FILLER_24_27
*2373 FILLER_24_275
*2374 FILLER_24_278
*2375 FILLER_24_281
*2376 FILLER_24_284
*2377 FILLER_24_287
*2378 FILLER_24_29
*2379 FILLER_24_290
*2380 FILLER_24_297
*2381 FILLER_24_3
*2382 FILLER_24_300
*2383 FILLER_24_303
*2384 FILLER_24_315
*2385 FILLER_24_318
*2386 FILLER_24_32
*2387 FILLER_24_325
*2388 FILLER_24_329
*2389 FILLER_24_332
*2390 FILLER_24_47
*2391 FILLER_24_50
*2392 FILLER_24_53
*2393 FILLER_24_6
*2394 FILLER_24_65
*2395 FILLER_24_71
*2396 FILLER_24_76
*2397 FILLER_24_83
*2398 FILLER_24_85
*2399 FILLER_24_9
*2400 FILLER_24_93
*2401 FILLER_25_104
*2402 FILLER_25_107
*2403 FILLER_25_110
*2404 FILLER_25_113
*2405 FILLER_25_12
*2406 FILLER_25_123
*2407 FILLER_25_131
*2408 FILLER_25_134
*2409 FILLER_25_137
*2410 FILLER_25_140
*2411 FILLER_25_147
*2412 FILLER_25_15
*2413 FILLER_25_150
*2414 FILLER_25_153
*2415 FILLER_25_165
*2416 FILLER_25_169
*2417 FILLER_25_18
*2418 FILLER_25_180
*2419 FILLER_25_187
*2420 FILLER_25_196
*2421 FILLER_25_210
*2422 FILLER_25_213
*2423 FILLER_25_216
*2424 FILLER_25_219
*2425 FILLER_25_258
*2426 FILLER_25_267
*2427 FILLER_25_281
*2428 FILLER_25_29
*2429 FILLER_25_298
*2430 FILLER_25_3
*2431 FILLER_25_301
*2432 FILLER_25_308
*2433 FILLER_25_321
*2434 FILLER_25_324
*2435 FILLER_25_327
*2436 FILLER_25_330
*2437 FILLER_25_333
*2438 FILLER_25_46
*2439 FILLER_25_49
*2440 FILLER_25_57
*2441 FILLER_25_6
*2442 FILLER_25_70
*2443 FILLER_25_73
*2444 FILLER_25_76
*2445 FILLER_25_80
*2446 FILLER_25_84
*2447 FILLER_25_89
*2448 FILLER_25_9
*2449 FILLER_25_92
*2450 FILLER_26_108
*2451 FILLER_26_118
*2452 FILLER_26_12
*2453 FILLER_26_121
*2454 FILLER_26_130
*2455 FILLER_26_136
*2456 FILLER_26_139
*2457 FILLER_26_148
*2458 FILLER_26_15
*2459 FILLER_26_151
*2460 FILLER_26_154
*2461 FILLER_26_157
*2462 FILLER_26_167
*2463 FILLER_26_171
*2464 FILLER_26_18
*2465 FILLER_26_181
*2466 FILLER_26_184
*2467 FILLER_26_187
*2468 FILLER_26_197
*2469 FILLER_26_205
*2470 FILLER_26_208
*2471 FILLER_26_21
*2472 FILLER_26_211
*2473 FILLER_26_214
*2474 FILLER_26_217
*2475 FILLER_26_231
*2476 FILLER_26_234
*2477 FILLER_26_237
*2478 FILLER_26_24
*2479 FILLER_26_243
*2480 FILLER_26_27
*2481 FILLER_26_270
*2482 FILLER_26_273
*2483 FILLER_26_276
*2484 FILLER_26_279
*2485 FILLER_26_282
*2486 FILLER_26_285
*2487 FILLER_26_288
*2488 FILLER_26_29
*2489 FILLER_26_298
*2490 FILLER_26_3
*2491 FILLER_26_301
*2492 FILLER_26_304
*2493 FILLER_26_307
*2494 FILLER_26_312
*2495 FILLER_26_315
*2496 FILLER_26_318
*2497 FILLER_26_32
*2498 FILLER_26_321
*2499 FILLER_26_324
*2500 FILLER_26_327
*2501 FILLER_26_330
*2502 FILLER_26_333
*2503 FILLER_26_35
*2504 FILLER_26_41
*2505 FILLER_26_44
*2506 FILLER_26_47
*2507 FILLER_26_58
*2508 FILLER_26_6
*2509 FILLER_26_61
*2510 FILLER_26_64
*2511 FILLER_26_75
*2512 FILLER_26_79
*2513 FILLER_26_82
*2514 FILLER_26_88
*2515 FILLER_26_9
*2516 FILLER_27_101
*2517 FILLER_27_116
*2518 FILLER_27_119
*2519 FILLER_27_12
*2520 FILLER_27_128
*2521 FILLER_27_131
*2522 FILLER_27_15
*2523 FILLER_27_160
*2524 FILLER_27_163
*2525 FILLER_27_166
*2526 FILLER_27_169
*2527 FILLER_27_172
*2528 FILLER_27_18
*2529 FILLER_27_181
*2530 FILLER_27_195
*2531 FILLER_27_204
*2532 FILLER_27_21
*2533 FILLER_27_213
*2534 FILLER_27_223
*2535 FILLER_27_225
*2536 FILLER_27_228
*2537 FILLER_27_24
*2538 FILLER_27_252
*2539 FILLER_27_27
*2540 FILLER_27_281
*2541 FILLER_27_284
*2542 FILLER_27_287
*2543 FILLER_27_3
*2544 FILLER_27_30
*2545 FILLER_27_33
*2546 FILLER_27_331
*2547 FILLER_27_334
*2548 FILLER_27_36
*2549 FILLER_27_39
*2550 FILLER_27_42
*2551 FILLER_27_45
*2552 FILLER_27_57
*2553 FILLER_27_6
*2554 FILLER_27_64
*2555 FILLER_27_67
*2556 FILLER_27_70
*2557 FILLER_27_73
*2558 FILLER_27_86
*2559 FILLER_27_89
*2560 FILLER_27_9
*2561 FILLER_27_92
*2562 FILLER_27_95
*2563 FILLER_27_98
*2564 FILLER_28_100
*2565 FILLER_28_113
*2566 FILLER_28_118
*2567 FILLER_28_12
*2568 FILLER_28_125
*2569 FILLER_28_128
*2570 FILLER_28_131
*2571 FILLER_28_134
*2572 FILLER_28_137
*2573 FILLER_28_141
*2574 FILLER_28_145
*2575 FILLER_28_148
*2576 FILLER_28_15
*2577 FILLER_28_155
*2578 FILLER_28_18
*2579 FILLER_28_184
*2580 FILLER_28_194
*2581 FILLER_28_197
*2582 FILLER_28_21
*2583 FILLER_28_212
*2584 FILLER_28_24
*2585 FILLER_28_253
*2586 FILLER_28_256
*2587 FILLER_28_27
*2588 FILLER_28_286
*2589 FILLER_28_289
*2590 FILLER_28_29
*2591 FILLER_28_292
*2592 FILLER_28_299
*2593 FILLER_28_3
*2594 FILLER_28_302
*2595 FILLER_28_305
*2596 FILLER_28_309
*2597 FILLER_28_32
*2598 FILLER_28_325
*2599 FILLER_28_328
*2600 FILLER_28_331
*2601 FILLER_28_334
*2602 FILLER_28_35
*2603 FILLER_28_38
*2604 FILLER_28_41
*2605 FILLER_28_47
*2606 FILLER_28_57
*2607 FILLER_28_6
*2608 FILLER_28_60
*2609 FILLER_28_9
*2610 FILLER_28_91
*2611 FILLER_28_94
*2612 FILLER_28_97
*2613 FILLER_29_110
*2614 FILLER_29_113
*2615 FILLER_29_116
*2616 FILLER_29_119
*2617 FILLER_29_12
*2618 FILLER_29_122
*2619 FILLER_29_15
*2620 FILLER_29_150
*2621 FILLER_29_155
*2622 FILLER_29_158
*2623 FILLER_29_162
*2624 FILLER_29_165
*2625 FILLER_29_169
*2626 FILLER_29_172
*2627 FILLER_29_18
*2628 FILLER_29_181
*2629 FILLER_29_184
*2630 FILLER_29_187
*2631 FILLER_29_21
*2632 FILLER_29_211
*2633 FILLER_29_214
*2634 FILLER_29_217
*2635 FILLER_29_220
*2636 FILLER_29_223
*2637 FILLER_29_225
*2638 FILLER_29_24
*2639 FILLER_29_264
*2640 FILLER_29_27
*2641 FILLER_29_281
*2642 FILLER_29_298
*2643 FILLER_29_3
*2644 FILLER_29_30
*2645 FILLER_29_306
*2646 FILLER_29_33
*2647 FILLER_29_36
*2648 FILLER_29_45
*2649 FILLER_29_48
*2650 FILLER_29_57
*2651 FILLER_29_6
*2652 FILLER_29_61
*2653 FILLER_29_64
*2654 FILLER_29_67
*2655 FILLER_29_70
*2656 FILLER_29_73
*2657 FILLER_29_76
*2658 FILLER_29_79
*2659 FILLER_29_82
*2660 FILLER_29_85
*2661 FILLER_29_9
*2662 FILLER_2_100
*2663 FILLER_2_103
*2664 FILLER_2_106
*2665 FILLER_2_109
*2666 FILLER_2_112
*2667 FILLER_2_115
*2668 FILLER_2_118
*2669 FILLER_2_12
*2670 FILLER_2_121
*2671 FILLER_2_124
*2672 FILLER_2_127
*2673 FILLER_2_130
*2674 FILLER_2_133
*2675 FILLER_2_136
*2676 FILLER_2_139
*2677 FILLER_2_141
*2678 FILLER_2_144
*2679 FILLER_2_147
*2680 FILLER_2_15
*2681 FILLER_2_150
*2682 FILLER_2_153
*2683 FILLER_2_156
*2684 FILLER_2_159
*2685 FILLER_2_162
*2686 FILLER_2_165
*2687 FILLER_2_168
*2688 FILLER_2_171
*2689 FILLER_2_174
*2690 FILLER_2_177
*2691 FILLER_2_18
*2692 FILLER_2_180
*2693 FILLER_2_183
*2694 FILLER_2_186
*2695 FILLER_2_189
*2696 FILLER_2_192
*2697 FILLER_2_195
*2698 FILLER_2_197
*2699 FILLER_2_200
*2700 FILLER_2_203
*2701 FILLER_2_206
*2702 FILLER_2_209
*2703 FILLER_2_21
*2704 FILLER_2_212
*2705 FILLER_2_215
*2706 FILLER_2_218
*2707 FILLER_2_221
*2708 FILLER_2_224
*2709 FILLER_2_227
*2710 FILLER_2_230
*2711 FILLER_2_233
*2712 FILLER_2_236
*2713 FILLER_2_239
*2714 FILLER_2_24
*2715 FILLER_2_242
*2716 FILLER_2_245
*2717 FILLER_2_248
*2718 FILLER_2_251
*2719 FILLER_2_253
*2720 FILLER_2_256
*2721 FILLER_2_259
*2722 FILLER_2_262
*2723 FILLER_2_265
*2724 FILLER_2_268
*2725 FILLER_2_27
*2726 FILLER_2_271
*2727 FILLER_2_274
*2728 FILLER_2_277
*2729 FILLER_2_280
*2730 FILLER_2_283
*2731 FILLER_2_286
*2732 FILLER_2_289
*2733 FILLER_2_29
*2734 FILLER_2_292
*2735 FILLER_2_295
*2736 FILLER_2_298
*2737 FILLER_2_3
*2738 FILLER_2_301
*2739 FILLER_2_304
*2740 FILLER_2_307
*2741 FILLER_2_309
*2742 FILLER_2_312
*2743 FILLER_2_315
*2744 FILLER_2_318
*2745 FILLER_2_32
*2746 FILLER_2_321
*2747 FILLER_2_324
*2748 FILLER_2_327
*2749 FILLER_2_330
*2750 FILLER_2_333
*2751 FILLER_2_35
*2752 FILLER_2_38
*2753 FILLER_2_41
*2754 FILLER_2_44
*2755 FILLER_2_47
*2756 FILLER_2_50
*2757 FILLER_2_53
*2758 FILLER_2_56
*2759 FILLER_2_59
*2760 FILLER_2_6
*2761 FILLER_2_62
*2762 FILLER_2_65
*2763 FILLER_2_68
*2764 FILLER_2_71
*2765 FILLER_2_74
*2766 FILLER_2_77
*2767 FILLER_2_80
*2768 FILLER_2_83
*2769 FILLER_2_85
*2770 FILLER_2_88
*2771 FILLER_2_9
*2772 FILLER_2_91
*2773 FILLER_2_94
*2774 FILLER_2_97
*2775 FILLER_30_107
*2776 FILLER_30_12
*2777 FILLER_30_127
*2778 FILLER_30_130
*2779 FILLER_30_133
*2780 FILLER_30_136
*2781 FILLER_30_141
*2782 FILLER_30_145
*2783 FILLER_30_148
*2784 FILLER_30_15
*2785 FILLER_30_151
*2786 FILLER_30_154
*2787 FILLER_30_18
*2788 FILLER_30_183
*2789 FILLER_30_186
*2790 FILLER_30_189
*2791 FILLER_30_192
*2792 FILLER_30_197
*2793 FILLER_30_200
*2794 FILLER_30_203
*2795 FILLER_30_206
*2796 FILLER_30_209
*2797 FILLER_30_21
*2798 FILLER_30_212
*2799 FILLER_30_215
*2800 FILLER_30_24
*2801 FILLER_30_241
*2802 FILLER_30_249
*2803 FILLER_30_253
*2804 FILLER_30_268
*2805 FILLER_30_27
*2806 FILLER_30_271
*2807 FILLER_30_274
*2808 FILLER_30_277
*2809 FILLER_30_280
*2810 FILLER_30_288
*2811 FILLER_30_29
*2812 FILLER_30_291
*2813 FILLER_30_3
*2814 FILLER_30_300
*2815 FILLER_30_32
*2816 FILLER_30_329
*2817 FILLER_30_332
*2818 FILLER_30_35
*2819 FILLER_30_50
*2820 FILLER_30_6
*2821 FILLER_30_85
*2822 FILLER_30_9
*2823 FILLER_30_92
*2824 FILLER_30_95
*2825 FILLER_30_98
*2826 FILLER_31_116
*2827 FILLER_31_119
*2828 FILLER_31_12
*2829 FILLER_31_122
*2830 FILLER_31_128
*2831 FILLER_31_135
*2832 FILLER_31_139
*2833 FILLER_31_142
*2834 FILLER_31_145
*2835 FILLER_31_15
*2836 FILLER_31_169
*2837 FILLER_31_172
*2838 FILLER_31_178
*2839 FILLER_31_18
*2840 FILLER_31_181
*2841 FILLER_31_184
*2842 FILLER_31_187
*2843 FILLER_31_21
*2844 FILLER_31_214
*2845 FILLER_31_24
*2846 FILLER_31_260
*2847 FILLER_31_27
*2848 FILLER_31_281
*2849 FILLER_31_284
*2850 FILLER_31_291
*2851 FILLER_31_3
*2852 FILLER_31_30
*2853 FILLER_31_33
*2854 FILLER_31_36
*2855 FILLER_31_39
*2856 FILLER_31_44
*2857 FILLER_31_47
*2858 FILLER_31_50
*2859 FILLER_31_53
*2860 FILLER_31_57
*2861 FILLER_31_6
*2862 FILLER_31_63
*2863 FILLER_31_66
*2864 FILLER_31_69
*2865 FILLER_31_72
*2866 FILLER_31_85
*2867 FILLER_31_88
*2868 FILLER_31_9
*2869 FILLER_31_91
*2870 FILLER_31_94
*2871 FILLER_31_97
*2872 FILLER_32_100
*2873 FILLER_32_103
*2874 FILLER_32_12
*2875 FILLER_32_124
*2876 FILLER_32_127
*2877 FILLER_32_130
*2878 FILLER_32_136
*2879 FILLER_32_139
*2880 FILLER_32_141
*2881 FILLER_32_144
*2882 FILLER_32_147
*2883 FILLER_32_15
*2884 FILLER_32_151
*2885 FILLER_32_157
*2886 FILLER_32_160
*2887 FILLER_32_163
*2888 FILLER_32_166
*2889 FILLER_32_18
*2890 FILLER_32_192
*2891 FILLER_32_195
*2892 FILLER_32_200
*2893 FILLER_32_203
*2894 FILLER_32_206
*2895 FILLER_32_209
*2896 FILLER_32_21
*2897 FILLER_32_212
*2898 FILLER_32_215
*2899 FILLER_32_224
*2900 FILLER_32_227
*2901 FILLER_32_236
*2902 FILLER_32_239
*2903 FILLER_32_24
*2904 FILLER_32_242
*2905 FILLER_32_251
*2906 FILLER_32_258
*2907 FILLER_32_269
*2908 FILLER_32_27
*2909 FILLER_32_280
*2910 FILLER_32_29
*2911 FILLER_32_297
*2912 FILLER_32_3
*2913 FILLER_32_300
*2914 FILLER_32_32
*2915 FILLER_32_334
*2916 FILLER_32_35
*2917 FILLER_32_38
*2918 FILLER_32_41
*2919 FILLER_32_44
*2920 FILLER_32_47
*2921 FILLER_32_50
*2922 FILLER_32_53
*2923 FILLER_32_56
*2924 FILLER_32_59
*2925 FILLER_32_6
*2926 FILLER_32_62
*2927 FILLER_32_65
*2928 FILLER_32_68
*2929 FILLER_32_71
*2930 FILLER_32_74
*2931 FILLER_32_77
*2932 FILLER_32_80
*2933 FILLER_32_83
*2934 FILLER_32_85
*2935 FILLER_32_88
*2936 FILLER_32_9
*2937 FILLER_32_91
*2938 FILLER_32_94
*2939 FILLER_32_97
*2940 FILLER_33_102
*2941 FILLER_33_105
*2942 FILLER_33_108
*2943 FILLER_33_111
*2944 FILLER_33_113
*2945 FILLER_33_116
*2946 FILLER_33_119
*2947 FILLER_33_12
*2948 FILLER_33_122
*2949 FILLER_33_149
*2950 FILLER_33_15
*2951 FILLER_33_152
*2952 FILLER_33_155
*2953 FILLER_33_166
*2954 FILLER_33_169
*2955 FILLER_33_172
*2956 FILLER_33_175
*2957 FILLER_33_179
*2958 FILLER_33_18
*2959 FILLER_33_184
*2960 FILLER_33_187
*2961 FILLER_33_191
*2962 FILLER_33_194
*2963 FILLER_33_205
*2964 FILLER_33_208
*2965 FILLER_33_21
*2966 FILLER_33_24
*2967 FILLER_33_246
*2968 FILLER_33_258
*2969 FILLER_33_27
*2970 FILLER_33_297
*2971 FILLER_33_3
*2972 FILLER_33_30
*2973 FILLER_33_300
*2974 FILLER_33_308
*2975 FILLER_33_311
*2976 FILLER_33_33
*2977 FILLER_33_333
*2978 FILLER_33_36
*2979 FILLER_33_39
*2980 FILLER_33_42
*2981 FILLER_33_45
*2982 FILLER_33_48
*2983 FILLER_33_51
*2984 FILLER_33_54
*2985 FILLER_33_57
*2986 FILLER_33_6
*2987 FILLER_33_60
*2988 FILLER_33_63
*2989 FILLER_33_66
*2990 FILLER_33_69
*2991 FILLER_33_72
*2992 FILLER_33_75
*2993 FILLER_33_78
*2994 FILLER_33_81
*2995 FILLER_33_84
*2996 FILLER_33_87
*2997 FILLER_33_9
*2998 FILLER_33_90
*2999 FILLER_33_93
*3000 FILLER_33_96
*3001 FILLER_33_99
*3002 FILLER_34_100
*3003 FILLER_34_103
*3004 FILLER_34_106
*3005 FILLER_34_109
*3006 FILLER_34_112
*3007 FILLER_34_115
*3008 FILLER_34_118
*3009 FILLER_34_12
*3010 FILLER_34_141
*3011 FILLER_34_15
*3012 FILLER_34_168
*3013 FILLER_34_171
*3014 FILLER_34_174
*3015 FILLER_34_18
*3016 FILLER_34_200
*3017 FILLER_34_203
*3018 FILLER_34_206
*3019 FILLER_34_209
*3020 FILLER_34_21
*3021 FILLER_34_232
*3022 FILLER_34_235
*3023 FILLER_34_24
*3024 FILLER_34_251
*3025 FILLER_34_253
*3026 FILLER_34_27
*3027 FILLER_34_278
*3028 FILLER_34_287
*3029 FILLER_34_29
*3030 FILLER_34_3
*3031 FILLER_34_309
*3032 FILLER_34_312
*3033 FILLER_34_32
*3034 FILLER_34_334
*3035 FILLER_34_35
*3036 FILLER_34_38
*3037 FILLER_34_41
*3038 FILLER_34_44
*3039 FILLER_34_47
*3040 FILLER_34_50
*3041 FILLER_34_53
*3042 FILLER_34_56
*3043 FILLER_34_59
*3044 FILLER_34_6
*3045 FILLER_34_62
*3046 FILLER_34_65
*3047 FILLER_34_68
*3048 FILLER_34_71
*3049 FILLER_34_74
*3050 FILLER_34_77
*3051 FILLER_34_80
*3052 FILLER_34_83
*3053 FILLER_34_85
*3054 FILLER_34_88
*3055 FILLER_34_9
*3056 FILLER_34_91
*3057 FILLER_34_94
*3058 FILLER_34_97
*3059 FILLER_35_102
*3060 FILLER_35_105
*3061 FILLER_35_108
*3062 FILLER_35_111
*3063 FILLER_35_113
*3064 FILLER_35_116
*3065 FILLER_35_119
*3066 FILLER_35_12
*3067 FILLER_35_122
*3068 FILLER_35_129
*3069 FILLER_35_132
*3070 FILLER_35_135
*3071 FILLER_35_138
*3072 FILLER_35_141
*3073 FILLER_35_144
*3074 FILLER_35_15
*3075 FILLER_35_153
*3076 FILLER_35_156
*3077 FILLER_35_169
*3078 FILLER_35_172
*3079 FILLER_35_175
*3080 FILLER_35_178
*3081 FILLER_35_18
*3082 FILLER_35_181
*3083 FILLER_35_21
*3084 FILLER_35_215
*3085 FILLER_35_218
*3086 FILLER_35_221
*3087 FILLER_35_233
*3088 FILLER_35_24
*3089 FILLER_35_27
*3090 FILLER_35_278
*3091 FILLER_35_288
*3092 FILLER_35_3
*3093 FILLER_35_30
*3094 FILLER_35_324
*3095 FILLER_35_33
*3096 FILLER_35_36
*3097 FILLER_35_39
*3098 FILLER_35_42
*3099 FILLER_35_45
*3100 FILLER_35_48
*3101 FILLER_35_51
*3102 FILLER_35_54
*3103 FILLER_35_57
*3104 FILLER_35_6
*3105 FILLER_35_60
*3106 FILLER_35_63
*3107 FILLER_35_66
*3108 FILLER_35_69
*3109 FILLER_35_72
*3110 FILLER_35_75
*3111 FILLER_35_78
*3112 FILLER_35_81
*3113 FILLER_35_84
*3114 FILLER_35_87
*3115 FILLER_35_9
*3116 FILLER_35_90
*3117 FILLER_35_93
*3118 FILLER_35_96
*3119 FILLER_35_99
*3120 FILLER_36_100
*3121 FILLER_36_103
*3122 FILLER_36_106
*3123 FILLER_36_109
*3124 FILLER_36_112
*3125 FILLER_36_115
*3126 FILLER_36_118
*3127 FILLER_36_12
*3128 FILLER_36_141
*3129 FILLER_36_144
*3130 FILLER_36_15
*3131 FILLER_36_178
*3132 FILLER_36_18
*3133 FILLER_36_181
*3134 FILLER_36_184
*3135 FILLER_36_197
*3136 FILLER_36_200
*3137 FILLER_36_203
*3138 FILLER_36_206
*3139 FILLER_36_209
*3140 FILLER_36_21
*3141 FILLER_36_231
*3142 FILLER_36_24
*3143 FILLER_36_261
*3144 FILLER_36_27
*3145 FILLER_36_29
*3146 FILLER_36_3
*3147 FILLER_36_309
*3148 FILLER_36_312
*3149 FILLER_36_32
*3150 FILLER_36_35
*3151 FILLER_36_38
*3152 FILLER_36_41
*3153 FILLER_36_44
*3154 FILLER_36_47
*3155 FILLER_36_50
*3156 FILLER_36_53
*3157 FILLER_36_56
*3158 FILLER_36_59
*3159 FILLER_36_6
*3160 FILLER_36_62
*3161 FILLER_36_65
*3162 FILLER_36_68
*3163 FILLER_36_71
*3164 FILLER_36_74
*3165 FILLER_36_77
*3166 FILLER_36_80
*3167 FILLER_36_83
*3168 FILLER_36_85
*3169 FILLER_36_88
*3170 FILLER_36_9
*3171 FILLER_36_91
*3172 FILLER_36_94
*3173 FILLER_36_97
*3174 FILLER_37_102
*3175 FILLER_37_105
*3176 FILLER_37_108
*3177 FILLER_37_111
*3178 FILLER_37_113
*3179 FILLER_37_116
*3180 FILLER_37_119
*3181 FILLER_37_12
*3182 FILLER_37_128
*3183 FILLER_37_131
*3184 FILLER_37_15
*3185 FILLER_37_161
*3186 FILLER_37_164
*3187 FILLER_37_18
*3188 FILLER_37_190
*3189 FILLER_37_21
*3190 FILLER_37_219
*3191 FILLER_37_222
*3192 FILLER_37_24
*3193 FILLER_37_27
*3194 FILLER_37_289
*3195 FILLER_37_3
*3196 FILLER_37_30
*3197 FILLER_37_306
*3198 FILLER_37_33
*3199 FILLER_37_332
*3200 FILLER_37_36
*3201 FILLER_37_39
*3202 FILLER_37_42
*3203 FILLER_37_45
*3204 FILLER_37_48
*3205 FILLER_37_51
*3206 FILLER_37_54
*3207 FILLER_37_57
*3208 FILLER_37_6
*3209 FILLER_37_60
*3210 FILLER_37_63
*3211 FILLER_37_66
*3212 FILLER_37_69
*3213 FILLER_37_72
*3214 FILLER_37_75
*3215 FILLER_37_78
*3216 FILLER_37_81
*3217 FILLER_37_84
*3218 FILLER_37_87
*3219 FILLER_37_9
*3220 FILLER_37_90
*3221 FILLER_37_93
*3222 FILLER_37_96
*3223 FILLER_37_99
*3224 FILLER_38_100
*3225 FILLER_38_106
*3226 FILLER_38_113
*3227 FILLER_38_118
*3228 FILLER_38_12
*3229 FILLER_38_124
*3230 FILLER_38_130
*3231 FILLER_38_136
*3232 FILLER_38_141
*3233 FILLER_38_144
*3234 FILLER_38_148
*3235 FILLER_38_15
*3236 FILLER_38_151
*3237 FILLER_38_154
*3238 FILLER_38_157
*3239 FILLER_38_169
*3240 FILLER_38_174
*3241 FILLER_38_177
*3242 FILLER_38_18
*3243 FILLER_38_189
*3244 FILLER_38_197
*3245 FILLER_38_200
*3246 FILLER_38_203
*3247 FILLER_38_206
*3248 FILLER_38_21
*3249 FILLER_38_211
*3250 FILLER_38_214
*3251 FILLER_38_217
*3252 FILLER_38_220
*3253 FILLER_38_223
*3254 FILLER_38_233
*3255 FILLER_38_236
*3256 FILLER_38_239
*3257 FILLER_38_24
*3258 FILLER_38_244
*3259 FILLER_38_247
*3260 FILLER_38_250
*3261 FILLER_38_253
*3262 FILLER_38_267
*3263 FILLER_38_27
*3264 FILLER_38_276
*3265 FILLER_38_279
*3266 FILLER_38_29
*3267 FILLER_38_3
*3268 FILLER_38_309
*3269 FILLER_38_32
*3270 FILLER_38_332
*3271 FILLER_38_35
*3272 FILLER_38_38
*3273 FILLER_38_41
*3274 FILLER_38_44
*3275 FILLER_38_47
*3276 FILLER_38_50
*3277 FILLER_38_53
*3278 FILLER_38_57
*3279 FILLER_38_6
*3280 FILLER_38_60
*3281 FILLER_38_64
*3282 FILLER_38_70
*3283 FILLER_38_76
*3284 FILLER_38_82
*3285 FILLER_38_88
*3286 FILLER_38_9
*3287 FILLER_38_94
*3288 FILLER_3_102
*3289 FILLER_3_105
*3290 FILLER_3_108
*3291 FILLER_3_111
*3292 FILLER_3_113
*3293 FILLER_3_116
*3294 FILLER_3_119
*3295 FILLER_3_12
*3296 FILLER_3_122
*3297 FILLER_3_125
*3298 FILLER_3_128
*3299 FILLER_3_131
*3300 FILLER_3_134
*3301 FILLER_3_137
*3302 FILLER_3_140
*3303 FILLER_3_143
*3304 FILLER_3_146
*3305 FILLER_3_149
*3306 FILLER_3_15
*3307 FILLER_3_152
*3308 FILLER_3_155
*3309 FILLER_3_158
*3310 FILLER_3_161
*3311 FILLER_3_164
*3312 FILLER_3_167
*3313 FILLER_3_169
*3314 FILLER_3_172
*3315 FILLER_3_175
*3316 FILLER_3_178
*3317 FILLER_3_18
*3318 FILLER_3_181
*3319 FILLER_3_184
*3320 FILLER_3_187
*3321 FILLER_3_190
*3322 FILLER_3_193
*3323 FILLER_3_196
*3324 FILLER_3_199
*3325 FILLER_3_202
*3326 FILLER_3_205
*3327 FILLER_3_208
*3328 FILLER_3_21
*3329 FILLER_3_211
*3330 FILLER_3_214
*3331 FILLER_3_217
*3332 FILLER_3_220
*3333 FILLER_3_223
*3334 FILLER_3_225
*3335 FILLER_3_228
*3336 FILLER_3_231
*3337 FILLER_3_234
*3338 FILLER_3_237
*3339 FILLER_3_24
*3340 FILLER_3_240
*3341 FILLER_3_243
*3342 FILLER_3_246
*3343 FILLER_3_249
*3344 FILLER_3_252
*3345 FILLER_3_255
*3346 FILLER_3_258
*3347 FILLER_3_261
*3348 FILLER_3_264
*3349 FILLER_3_267
*3350 FILLER_3_27
*3351 FILLER_3_270
*3352 FILLER_3_273
*3353 FILLER_3_276
*3354 FILLER_3_279
*3355 FILLER_3_281
*3356 FILLER_3_284
*3357 FILLER_3_287
*3358 FILLER_3_290
*3359 FILLER_3_293
*3360 FILLER_3_296
*3361 FILLER_3_299
*3362 FILLER_3_3
*3363 FILLER_3_30
*3364 FILLER_3_302
*3365 FILLER_3_305
*3366 FILLER_3_308
*3367 FILLER_3_311
*3368 FILLER_3_314
*3369 FILLER_3_317
*3370 FILLER_3_320
*3371 FILLER_3_323
*3372 FILLER_3_326
*3373 FILLER_3_329
*3374 FILLER_3_33
*3375 FILLER_3_332
*3376 FILLER_3_36
*3377 FILLER_3_39
*3378 FILLER_3_42
*3379 FILLER_3_45
*3380 FILLER_3_48
*3381 FILLER_3_51
*3382 FILLER_3_54
*3383 FILLER_3_57
*3384 FILLER_3_6
*3385 FILLER_3_60
*3386 FILLER_3_63
*3387 FILLER_3_66
*3388 FILLER_3_69
*3389 FILLER_3_72
*3390 FILLER_3_75
*3391 FILLER_3_78
*3392 FILLER_3_81
*3393 FILLER_3_84
*3394 FILLER_3_87
*3395 FILLER_3_9
*3396 FILLER_3_90
*3397 FILLER_3_93
*3398 FILLER_3_96
*3399 FILLER_3_99
*3400 FILLER_4_100
*3401 FILLER_4_103
*3402 FILLER_4_106
*3403 FILLER_4_109
*3404 FILLER_4_112
*3405 FILLER_4_115
*3406 FILLER_4_118
*3407 FILLER_4_12
*3408 FILLER_4_121
*3409 FILLER_4_124
*3410 FILLER_4_127
*3411 FILLER_4_130
*3412 FILLER_4_133
*3413 FILLER_4_136
*3414 FILLER_4_139
*3415 FILLER_4_141
*3416 FILLER_4_144
*3417 FILLER_4_147
*3418 FILLER_4_15
*3419 FILLER_4_150
*3420 FILLER_4_153
*3421 FILLER_4_156
*3422 FILLER_4_159
*3423 FILLER_4_162
*3424 FILLER_4_165
*3425 FILLER_4_168
*3426 FILLER_4_171
*3427 FILLER_4_174
*3428 FILLER_4_177
*3429 FILLER_4_18
*3430 FILLER_4_180
*3431 FILLER_4_183
*3432 FILLER_4_186
*3433 FILLER_4_189
*3434 FILLER_4_192
*3435 FILLER_4_195
*3436 FILLER_4_197
*3437 FILLER_4_200
*3438 FILLER_4_203
*3439 FILLER_4_206
*3440 FILLER_4_209
*3441 FILLER_4_21
*3442 FILLER_4_212
*3443 FILLER_4_215
*3444 FILLER_4_218
*3445 FILLER_4_221
*3446 FILLER_4_224
*3447 FILLER_4_227
*3448 FILLER_4_230
*3449 FILLER_4_233
*3450 FILLER_4_236
*3451 FILLER_4_239
*3452 FILLER_4_24
*3453 FILLER_4_242
*3454 FILLER_4_245
*3455 FILLER_4_248
*3456 FILLER_4_251
*3457 FILLER_4_253
*3458 FILLER_4_256
*3459 FILLER_4_259
*3460 FILLER_4_262
*3461 FILLER_4_265
*3462 FILLER_4_268
*3463 FILLER_4_27
*3464 FILLER_4_271
*3465 FILLER_4_274
*3466 FILLER_4_277
*3467 FILLER_4_280
*3468 FILLER_4_283
*3469 FILLER_4_286
*3470 FILLER_4_289
*3471 FILLER_4_29
*3472 FILLER_4_292
*3473 FILLER_4_295
*3474 FILLER_4_298
*3475 FILLER_4_3
*3476 FILLER_4_301
*3477 FILLER_4_304
*3478 FILLER_4_307
*3479 FILLER_4_309
*3480 FILLER_4_312
*3481 FILLER_4_315
*3482 FILLER_4_318
*3483 FILLER_4_32
*3484 FILLER_4_321
*3485 FILLER_4_324
*3486 FILLER_4_327
*3487 FILLER_4_330
*3488 FILLER_4_333
*3489 FILLER_4_35
*3490 FILLER_4_38
*3491 FILLER_4_41
*3492 FILLER_4_44
*3493 FILLER_4_47
*3494 FILLER_4_50
*3495 FILLER_4_53
*3496 FILLER_4_56
*3497 FILLER_4_59
*3498 FILLER_4_6
*3499 FILLER_4_62
*3500 FILLER_4_65
*3501 FILLER_4_68
*3502 FILLER_4_71
*3503 FILLER_4_74
*3504 FILLER_4_77
*3505 FILLER_4_80
*3506 FILLER_4_83
*3507 FILLER_4_85
*3508 FILLER_4_88
*3509 FILLER_4_9
*3510 FILLER_4_91
*3511 FILLER_4_94
*3512 FILLER_4_97
*3513 FILLER_5_102
*3514 FILLER_5_105
*3515 FILLER_5_108
*3516 FILLER_5_111
*3517 FILLER_5_113
*3518 FILLER_5_116
*3519 FILLER_5_119
*3520 FILLER_5_12
*3521 FILLER_5_122
*3522 FILLER_5_125
*3523 FILLER_5_128
*3524 FILLER_5_131
*3525 FILLER_5_134
*3526 FILLER_5_137
*3527 FILLER_5_140
*3528 FILLER_5_143
*3529 FILLER_5_146
*3530 FILLER_5_149
*3531 FILLER_5_15
*3532 FILLER_5_152
*3533 FILLER_5_155
*3534 FILLER_5_158
*3535 FILLER_5_161
*3536 FILLER_5_164
*3537 FILLER_5_167
*3538 FILLER_5_169
*3539 FILLER_5_172
*3540 FILLER_5_175
*3541 FILLER_5_178
*3542 FILLER_5_18
*3543 FILLER_5_181
*3544 FILLER_5_184
*3545 FILLER_5_187
*3546 FILLER_5_190
*3547 FILLER_5_193
*3548 FILLER_5_196
*3549 FILLER_5_199
*3550 FILLER_5_202
*3551 FILLER_5_205
*3552 FILLER_5_208
*3553 FILLER_5_21
*3554 FILLER_5_211
*3555 FILLER_5_214
*3556 FILLER_5_217
*3557 FILLER_5_220
*3558 FILLER_5_223
*3559 FILLER_5_225
*3560 FILLER_5_228
*3561 FILLER_5_231
*3562 FILLER_5_234
*3563 FILLER_5_237
*3564 FILLER_5_24
*3565 FILLER_5_240
*3566 FILLER_5_243
*3567 FILLER_5_246
*3568 FILLER_5_249
*3569 FILLER_5_252
*3570 FILLER_5_255
*3571 FILLER_5_258
*3572 FILLER_5_261
*3573 FILLER_5_264
*3574 FILLER_5_267
*3575 FILLER_5_27
*3576 FILLER_5_270
*3577 FILLER_5_273
*3578 FILLER_5_276
*3579 FILLER_5_279
*3580 FILLER_5_281
*3581 FILLER_5_284
*3582 FILLER_5_287
*3583 FILLER_5_290
*3584 FILLER_5_293
*3585 FILLER_5_296
*3586 FILLER_5_299
*3587 FILLER_5_3
*3588 FILLER_5_30
*3589 FILLER_5_302
*3590 FILLER_5_305
*3591 FILLER_5_308
*3592 FILLER_5_311
*3593 FILLER_5_314
*3594 FILLER_5_317
*3595 FILLER_5_320
*3596 FILLER_5_323
*3597 FILLER_5_326
*3598 FILLER_5_329
*3599 FILLER_5_33
*3600 FILLER_5_332
*3601 FILLER_5_36
*3602 FILLER_5_39
*3603 FILLER_5_42
*3604 FILLER_5_45
*3605 FILLER_5_48
*3606 FILLER_5_51
*3607 FILLER_5_54
*3608 FILLER_5_57
*3609 FILLER_5_6
*3610 FILLER_5_60
*3611 FILLER_5_63
*3612 FILLER_5_66
*3613 FILLER_5_69
*3614 FILLER_5_72
*3615 FILLER_5_75
*3616 FILLER_5_78
*3617 FILLER_5_81
*3618 FILLER_5_84
*3619 FILLER_5_87
*3620 FILLER_5_9
*3621 FILLER_5_90
*3622 FILLER_5_93
*3623 FILLER_5_96
*3624 FILLER_5_99
*3625 FILLER_6_100
*3626 FILLER_6_103
*3627 FILLER_6_106
*3628 FILLER_6_109
*3629 FILLER_6_112
*3630 FILLER_6_115
*3631 FILLER_6_118
*3632 FILLER_6_12
*3633 FILLER_6_121
*3634 FILLER_6_124
*3635 FILLER_6_127
*3636 FILLER_6_130
*3637 FILLER_6_133
*3638 FILLER_6_136
*3639 FILLER_6_139
*3640 FILLER_6_141
*3641 FILLER_6_144
*3642 FILLER_6_147
*3643 FILLER_6_15
*3644 FILLER_6_150
*3645 FILLER_6_153
*3646 FILLER_6_156
*3647 FILLER_6_159
*3648 FILLER_6_162
*3649 FILLER_6_165
*3650 FILLER_6_168
*3651 FILLER_6_171
*3652 FILLER_6_174
*3653 FILLER_6_177
*3654 FILLER_6_18
*3655 FILLER_6_180
*3656 FILLER_6_183
*3657 FILLER_6_186
*3658 FILLER_6_189
*3659 FILLER_6_192
*3660 FILLER_6_195
*3661 FILLER_6_197
*3662 FILLER_6_200
*3663 FILLER_6_203
*3664 FILLER_6_206
*3665 FILLER_6_209
*3666 FILLER_6_21
*3667 FILLER_6_212
*3668 FILLER_6_215
*3669 FILLER_6_218
*3670 FILLER_6_221
*3671 FILLER_6_224
*3672 FILLER_6_227
*3673 FILLER_6_230
*3674 FILLER_6_233
*3675 FILLER_6_236
*3676 FILLER_6_239
*3677 FILLER_6_24
*3678 FILLER_6_242
*3679 FILLER_6_245
*3680 FILLER_6_248
*3681 FILLER_6_251
*3682 FILLER_6_253
*3683 FILLER_6_256
*3684 FILLER_6_259
*3685 FILLER_6_262
*3686 FILLER_6_265
*3687 FILLER_6_268
*3688 FILLER_6_27
*3689 FILLER_6_271
*3690 FILLER_6_274
*3691 FILLER_6_277
*3692 FILLER_6_280
*3693 FILLER_6_283
*3694 FILLER_6_286
*3695 FILLER_6_289
*3696 FILLER_6_29
*3697 FILLER_6_292
*3698 FILLER_6_295
*3699 FILLER_6_298
*3700 FILLER_6_3
*3701 FILLER_6_301
*3702 FILLER_6_304
*3703 FILLER_6_307
*3704 FILLER_6_309
*3705 FILLER_6_312
*3706 FILLER_6_315
*3707 FILLER_6_318
*3708 FILLER_6_32
*3709 FILLER_6_321
*3710 FILLER_6_324
*3711 FILLER_6_327
*3712 FILLER_6_330
*3713 FILLER_6_333
*3714 FILLER_6_35
*3715 FILLER_6_38
*3716 FILLER_6_41
*3717 FILLER_6_44
*3718 FILLER_6_47
*3719 FILLER_6_50
*3720 FILLER_6_53
*3721 FILLER_6_56
*3722 FILLER_6_59
*3723 FILLER_6_6
*3724 FILLER_6_62
*3725 FILLER_6_65
*3726 FILLER_6_68
*3727 FILLER_6_71
*3728 FILLER_6_74
*3729 FILLER_6_77
*3730 FILLER_6_80
*3731 FILLER_6_83
*3732 FILLER_6_85
*3733 FILLER_6_88
*3734 FILLER_6_9
*3735 FILLER_6_91
*3736 FILLER_6_94
*3737 FILLER_6_97
*3738 FILLER_7_102
*3739 FILLER_7_105
*3740 FILLER_7_108
*3741 FILLER_7_111
*3742 FILLER_7_113
*3743 FILLER_7_116
*3744 FILLER_7_119
*3745 FILLER_7_12
*3746 FILLER_7_122
*3747 FILLER_7_125
*3748 FILLER_7_128
*3749 FILLER_7_131
*3750 FILLER_7_134
*3751 FILLER_7_137
*3752 FILLER_7_140
*3753 FILLER_7_143
*3754 FILLER_7_146
*3755 FILLER_7_149
*3756 FILLER_7_15
*3757 FILLER_7_152
*3758 FILLER_7_155
*3759 FILLER_7_158
*3760 FILLER_7_161
*3761 FILLER_7_164
*3762 FILLER_7_167
*3763 FILLER_7_169
*3764 FILLER_7_172
*3765 FILLER_7_175
*3766 FILLER_7_178
*3767 FILLER_7_18
*3768 FILLER_7_181
*3769 FILLER_7_184
*3770 FILLER_7_187
*3771 FILLER_7_190
*3772 FILLER_7_193
*3773 FILLER_7_196
*3774 FILLER_7_199
*3775 FILLER_7_202
*3776 FILLER_7_205
*3777 FILLER_7_208
*3778 FILLER_7_21
*3779 FILLER_7_211
*3780 FILLER_7_214
*3781 FILLER_7_217
*3782 FILLER_7_220
*3783 FILLER_7_223
*3784 FILLER_7_225
*3785 FILLER_7_228
*3786 FILLER_7_231
*3787 FILLER_7_234
*3788 FILLER_7_237
*3789 FILLER_7_24
*3790 FILLER_7_240
*3791 FILLER_7_243
*3792 FILLER_7_246
*3793 FILLER_7_249
*3794 FILLER_7_252
*3795 FILLER_7_255
*3796 FILLER_7_258
*3797 FILLER_7_261
*3798 FILLER_7_264
*3799 FILLER_7_267
*3800 FILLER_7_27
*3801 FILLER_7_270
*3802 FILLER_7_273
*3803 FILLER_7_276
*3804 FILLER_7_279
*3805 FILLER_7_281
*3806 FILLER_7_284
*3807 FILLER_7_287
*3808 FILLER_7_290
*3809 FILLER_7_293
*3810 FILLER_7_296
*3811 FILLER_7_299
*3812 FILLER_7_3
*3813 FILLER_7_30
*3814 FILLER_7_302
*3815 FILLER_7_305
*3816 FILLER_7_308
*3817 FILLER_7_311
*3818 FILLER_7_314
*3819 FILLER_7_317
*3820 FILLER_7_320
*3821 FILLER_7_323
*3822 FILLER_7_326
*3823 FILLER_7_329
*3824 FILLER_7_33
*3825 FILLER_7_332
*3826 FILLER_7_36
*3827 FILLER_7_39
*3828 FILLER_7_42
*3829 FILLER_7_45
*3830 FILLER_7_48
*3831 FILLER_7_51
*3832 FILLER_7_54
*3833 FILLER_7_57
*3834 FILLER_7_6
*3835 FILLER_7_60
*3836 FILLER_7_63
*3837 FILLER_7_66
*3838 FILLER_7_69
*3839 FILLER_7_72
*3840 FILLER_7_75
*3841 FILLER_7_78
*3842 FILLER_7_81
*3843 FILLER_7_84
*3844 FILLER_7_87
*3845 FILLER_7_9
*3846 FILLER_7_90
*3847 FILLER_7_93
*3848 FILLER_7_96
*3849 FILLER_7_99
*3850 FILLER_8_100
*3851 FILLER_8_106
*3852 FILLER_8_109
*3853 FILLER_8_112
*3854 FILLER_8_115
*3855 FILLER_8_118
*3856 FILLER_8_12
*3857 FILLER_8_121
*3858 FILLER_8_124
*3859 FILLER_8_127
*3860 FILLER_8_130
*3861 FILLER_8_133
*3862 FILLER_8_136
*3863 FILLER_8_139
*3864 FILLER_8_141
*3865 FILLER_8_144
*3866 FILLER_8_147
*3867 FILLER_8_15
*3868 FILLER_8_150
*3869 FILLER_8_153
*3870 FILLER_8_156
*3871 FILLER_8_159
*3872 FILLER_8_162
*3873 FILLER_8_165
*3874 FILLER_8_168
*3875 FILLER_8_171
*3876 FILLER_8_174
*3877 FILLER_8_177
*3878 FILLER_8_18
*3879 FILLER_8_180
*3880 FILLER_8_183
*3881 FILLER_8_186
*3882 FILLER_8_189
*3883 FILLER_8_192
*3884 FILLER_8_195
*3885 FILLER_8_197
*3886 FILLER_8_200
*3887 FILLER_8_203
*3888 FILLER_8_206
*3889 FILLER_8_209
*3890 FILLER_8_21
*3891 FILLER_8_212
*3892 FILLER_8_215
*3893 FILLER_8_218
*3894 FILLER_8_221
*3895 FILLER_8_224
*3896 FILLER_8_227
*3897 FILLER_8_230
*3898 FILLER_8_233
*3899 FILLER_8_236
*3900 FILLER_8_239
*3901 FILLER_8_24
*3902 FILLER_8_242
*3903 FILLER_8_245
*3904 FILLER_8_248
*3905 FILLER_8_253
*3906 FILLER_8_256
*3907 FILLER_8_259
*3908 FILLER_8_262
*3909 FILLER_8_265
*3910 FILLER_8_268
*3911 FILLER_8_27
*3912 FILLER_8_271
*3913 FILLER_8_274
*3914 FILLER_8_277
*3915 FILLER_8_280
*3916 FILLER_8_283
*3917 FILLER_8_286
*3918 FILLER_8_289
*3919 FILLER_8_29
*3920 FILLER_8_292
*3921 FILLER_8_295
*3922 FILLER_8_298
*3923 FILLER_8_3
*3924 FILLER_8_301
*3925 FILLER_8_304
*3926 FILLER_8_307
*3927 FILLER_8_309
*3928 FILLER_8_312
*3929 FILLER_8_315
*3930 FILLER_8_318
*3931 FILLER_8_32
*3932 FILLER_8_321
*3933 FILLER_8_324
*3934 FILLER_8_327
*3935 FILLER_8_330
*3936 FILLER_8_333
*3937 FILLER_8_35
*3938 FILLER_8_38
*3939 FILLER_8_41
*3940 FILLER_8_44
*3941 FILLER_8_47
*3942 FILLER_8_50
*3943 FILLER_8_53
*3944 FILLER_8_56
*3945 FILLER_8_59
*3946 FILLER_8_6
*3947 FILLER_8_62
*3948 FILLER_8_65
*3949 FILLER_8_68
*3950 FILLER_8_71
*3951 FILLER_8_74
*3952 FILLER_8_77
*3953 FILLER_8_80
*3954 FILLER_8_83
*3955 FILLER_8_85
*3956 FILLER_8_88
*3957 FILLER_8_9
*3958 FILLER_8_91
*3959 FILLER_8_94
*3960 FILLER_8_97
*3961 FILLER_9_12
*3962 FILLER_9_128
*3963 FILLER_9_131
*3964 FILLER_9_134
*3965 FILLER_9_137
*3966 FILLER_9_140
*3967 FILLER_9_143
*3968 FILLER_9_146
*3969 FILLER_9_149
*3970 FILLER_9_15
*3971 FILLER_9_152
*3972 FILLER_9_155
*3973 FILLER_9_158
*3974 FILLER_9_161
*3975 FILLER_9_164
*3976 FILLER_9_167
*3977 FILLER_9_169
*3978 FILLER_9_172
*3979 FILLER_9_175
*3980 FILLER_9_178
*3981 FILLER_9_18
*3982 FILLER_9_181
*3983 FILLER_9_184
*3984 FILLER_9_187
*3985 FILLER_9_190
*3986 FILLER_9_21
*3987 FILLER_9_216
*3988 FILLER_9_219
*3989 FILLER_9_222
*3990 FILLER_9_225
*3991 FILLER_9_228
*3992 FILLER_9_231
*3993 FILLER_9_234
*3994 FILLER_9_237
*3995 FILLER_9_24
*3996 FILLER_9_240
*3997 FILLER_9_27
*3998 FILLER_9_277
*3999 FILLER_9_281
*4000 FILLER_9_284
*4001 FILLER_9_287
*4002 FILLER_9_290
*4003 FILLER_9_293
*4004 FILLER_9_3
*4005 FILLER_9_30
*4006 FILLER_9_301
*4007 FILLER_9_304
*4008 FILLER_9_307
*4009 FILLER_9_310
*4010 FILLER_9_313
*4011 FILLER_9_316
*4012 FILLER_9_319
*4013 FILLER_9_322
*4014 FILLER_9_325
*4015 FILLER_9_328
*4016 FILLER_9_33
*4017 FILLER_9_331
*4018 FILLER_9_334
*4019 FILLER_9_36
*4020 FILLER_9_39
*4021 FILLER_9_42
*4022 FILLER_9_45
*4023 FILLER_9_48
*4024 FILLER_9_51
*4025 FILLER_9_54
*4026 FILLER_9_57
*4027 FILLER_9_6
*4028 FILLER_9_60
*4029 FILLER_9_63
*4030 FILLER_9_66
*4031 FILLER_9_69
*4032 FILLER_9_72
*4033 FILLER_9_75
*4034 FILLER_9_78
*4035 FILLER_9_81
*4036 FILLER_9_84
*4037 FILLER_9_87
*4038 FILLER_9_9
*4039 FILLER_9_90
*4040 FILLER_9_93
*4041 FILLER_9_96
*4042 FILLER_9_99
*4043 PHY_EDGE_ROW_0_Left_39
*4044 PHY_EDGE_ROW_0_Right_0
*4045 PHY_EDGE_ROW_10_Left_49
*4046 PHY_EDGE_ROW_10_Right_10
*4047 PHY_EDGE_ROW_11_Left_50
*4048 PHY_EDGE_ROW_11_Right_11
*4049 PHY_EDGE_ROW_12_Left_51
*4050 PHY_EDGE_ROW_12_Right_12
*4051 PHY_EDGE_ROW_13_Left_52
*4052 PHY_EDGE_ROW_13_Right_13
*4053 PHY_EDGE_ROW_14_Left_53
*4054 PHY_EDGE_ROW_14_Right_14
*4055 PHY_EDGE_ROW_15_Left_54
*4056 PHY_EDGE_ROW_15_Right_15
*4057 PHY_EDGE_ROW_16_Left_55
*4058 PHY_EDGE_ROW_16_Right_16
*4059 PHY_EDGE_ROW_17_Left_56
*4060 PHY_EDGE_ROW_17_Right_17
*4061 PHY_EDGE_ROW_18_Left_57
*4062 PHY_EDGE_ROW_18_Right_18
*4063 PHY_EDGE_ROW_19_Left_58
*4064 PHY_EDGE_ROW_19_Right_19
*4065 PHY_EDGE_ROW_1_Left_40
*4066 PHY_EDGE_ROW_1_Right_1
*4067 PHY_EDGE_ROW_20_Left_59
*4068 PHY_EDGE_ROW_20_Right_20
*4069 PHY_EDGE_ROW_21_Left_60
*4070 PHY_EDGE_ROW_21_Right_21
*4071 PHY_EDGE_ROW_22_Left_61
*4072 PHY_EDGE_ROW_22_Right_22
*4073 PHY_EDGE_ROW_23_Left_62
*4074 PHY_EDGE_ROW_23_Right_23
*4075 PHY_EDGE_ROW_24_Left_63
*4076 PHY_EDGE_ROW_24_Right_24
*4077 PHY_EDGE_ROW_25_Left_64
*4078 PHY_EDGE_ROW_25_Right_25
*4079 PHY_EDGE_ROW_26_Left_65
*4080 PHY_EDGE_ROW_26_Right_26
*4081 PHY_EDGE_ROW_27_Left_66
*4082 PHY_EDGE_ROW_27_Right_27
*4083 PHY_EDGE_ROW_28_Left_67
*4084 PHY_EDGE_ROW_28_Right_28
*4085 PHY_EDGE_ROW_29_Left_68
*4086 PHY_EDGE_ROW_29_Right_29
*4087 PHY_EDGE_ROW_2_Left_41
*4088 PHY_EDGE_ROW_2_Right_2
*4089 PHY_EDGE_ROW_30_Left_69
*4090 PHY_EDGE_ROW_30_Right_30
*4091 PHY_EDGE_ROW_31_Left_70
*4092 PHY_EDGE_ROW_31_Right_31
*4093 PHY_EDGE_ROW_32_Left_71
*4094 PHY_EDGE_ROW_32_Right_32
*4095 PHY_EDGE_ROW_33_Left_72
*4096 PHY_EDGE_ROW_33_Right_33
*4097 PHY_EDGE_ROW_34_Left_73
*4098 PHY_EDGE_ROW_34_Right_34
*4099 PHY_EDGE_ROW_35_Left_74
*4100 PHY_EDGE_ROW_35_Right_35
*4101 PHY_EDGE_ROW_36_Left_75
*4102 PHY_EDGE_ROW_36_Right_36
*4103 PHY_EDGE_ROW_37_Left_76
*4104 PHY_EDGE_ROW_37_Right_37
*4105 PHY_EDGE_ROW_38_Left_77
*4106 PHY_EDGE_ROW_38_Right_38
*4107 PHY_EDGE_ROW_3_Left_42
*4108 PHY_EDGE_ROW_3_Right_3
*4109 PHY_EDGE_ROW_4_Left_43
*4110 PHY_EDGE_ROW_4_Right_4
*4111 PHY_EDGE_ROW_5_Left_44
*4112 PHY_EDGE_ROW_5_Right_5
*4113 PHY_EDGE_ROW_6_Left_45
*4114 PHY_EDGE_ROW_6_Right_6
*4115 PHY_EDGE_ROW_7_Left_46
*4116 PHY_EDGE_ROW_7_Right_7
*4117 PHY_EDGE_ROW_8_Left_47
*4118 PHY_EDGE_ROW_8_Right_8
*4119 PHY_EDGE_ROW_9_Left_48
*4120 PHY_EDGE_ROW_9_Right_9
*4121 TAP_TAPCELL_ROW_0_78
*4122 TAP_TAPCELL_ROW_0_79
*4123 TAP_TAPCELL_ROW_0_80
*4124 TAP_TAPCELL_ROW_0_81
*4125 TAP_TAPCELL_ROW_0_82
*4126 TAP_TAPCELL_ROW_0_83
*4127 TAP_TAPCELL_ROW_0_84
*4128 TAP_TAPCELL_ROW_0_85
*4129 TAP_TAPCELL_ROW_0_86
*4130 TAP_TAPCELL_ROW_0_87
*4131 TAP_TAPCELL_ROW_0_88
*4132 TAP_TAPCELL_ROW_10_138
*4133 TAP_TAPCELL_ROW_10_139
*4134 TAP_TAPCELL_ROW_10_140
*4135 TAP_TAPCELL_ROW_10_141
*4136 TAP_TAPCELL_ROW_10_142
*4137 TAP_TAPCELL_ROW_10_143
*4138 TAP_TAPCELL_ROW_11_144
*4139 TAP_TAPCELL_ROW_11_145
*4140 TAP_TAPCELL_ROW_11_146
*4141 TAP_TAPCELL_ROW_11_147
*4142 TAP_TAPCELL_ROW_11_148
*4143 TAP_TAPCELL_ROW_12_149
*4144 TAP_TAPCELL_ROW_12_150
*4145 TAP_TAPCELL_ROW_12_151
*4146 TAP_TAPCELL_ROW_12_152
*4147 TAP_TAPCELL_ROW_12_153
*4148 TAP_TAPCELL_ROW_12_154
*4149 TAP_TAPCELL_ROW_13_155
*4150 TAP_TAPCELL_ROW_13_156
*4151 TAP_TAPCELL_ROW_13_157
*4152 TAP_TAPCELL_ROW_13_158
*4153 TAP_TAPCELL_ROW_13_159
*4154 TAP_TAPCELL_ROW_14_160
*4155 TAP_TAPCELL_ROW_14_161
*4156 TAP_TAPCELL_ROW_14_162
*4157 TAP_TAPCELL_ROW_14_163
*4158 TAP_TAPCELL_ROW_14_164
*4159 TAP_TAPCELL_ROW_14_165
*4160 TAP_TAPCELL_ROW_15_166
*4161 TAP_TAPCELL_ROW_15_167
*4162 TAP_TAPCELL_ROW_15_168
*4163 TAP_TAPCELL_ROW_15_169
*4164 TAP_TAPCELL_ROW_15_170
*4165 TAP_TAPCELL_ROW_16_171
*4166 TAP_TAPCELL_ROW_16_172
*4167 TAP_TAPCELL_ROW_16_173
*4168 TAP_TAPCELL_ROW_16_174
*4169 TAP_TAPCELL_ROW_16_175
*4170 TAP_TAPCELL_ROW_16_176
*4171 TAP_TAPCELL_ROW_17_177
*4172 TAP_TAPCELL_ROW_17_178
*4173 TAP_TAPCELL_ROW_17_179
*4174 TAP_TAPCELL_ROW_17_180
*4175 TAP_TAPCELL_ROW_17_181
*4176 TAP_TAPCELL_ROW_18_182
*4177 TAP_TAPCELL_ROW_18_183
*4178 TAP_TAPCELL_ROW_18_184
*4179 TAP_TAPCELL_ROW_18_185
*4180 TAP_TAPCELL_ROW_18_186
*4181 TAP_TAPCELL_ROW_18_187
*4182 TAP_TAPCELL_ROW_19_188
*4183 TAP_TAPCELL_ROW_19_189
*4184 TAP_TAPCELL_ROW_19_190
*4185 TAP_TAPCELL_ROW_19_191
*4186 TAP_TAPCELL_ROW_19_192
*4187 TAP_TAPCELL_ROW_1_89
*4188 TAP_TAPCELL_ROW_1_90
*4189 TAP_TAPCELL_ROW_1_91
*4190 TAP_TAPCELL_ROW_1_92
*4191 TAP_TAPCELL_ROW_1_93
*4192 TAP_TAPCELL_ROW_20_193
*4193 TAP_TAPCELL_ROW_20_194
*4194 TAP_TAPCELL_ROW_20_195
*4195 TAP_TAPCELL_ROW_20_196
*4196 TAP_TAPCELL_ROW_20_197
*4197 TAP_TAPCELL_ROW_20_198
*4198 TAP_TAPCELL_ROW_21_199
*4199 TAP_TAPCELL_ROW_21_200
*4200 TAP_TAPCELL_ROW_21_201
*4201 TAP_TAPCELL_ROW_21_202
*4202 TAP_TAPCELL_ROW_21_203
*4203 TAP_TAPCELL_ROW_22_204
*4204 TAP_TAPCELL_ROW_22_205
*4205 TAP_TAPCELL_ROW_22_206
*4206 TAP_TAPCELL_ROW_22_207
*4207 TAP_TAPCELL_ROW_22_208
*4208 TAP_TAPCELL_ROW_22_209
*4209 TAP_TAPCELL_ROW_23_210
*4210 TAP_TAPCELL_ROW_23_211
*4211 TAP_TAPCELL_ROW_23_212
*4212 TAP_TAPCELL_ROW_23_213
*4213 TAP_TAPCELL_ROW_23_214
*4214 TAP_TAPCELL_ROW_24_215
*4215 TAP_TAPCELL_ROW_24_216
*4216 TAP_TAPCELL_ROW_24_217
*4217 TAP_TAPCELL_ROW_24_218
*4218 TAP_TAPCELL_ROW_24_219
*4219 TAP_TAPCELL_ROW_24_220
*4220 TAP_TAPCELL_ROW_25_221
*4221 TAP_TAPCELL_ROW_25_222
*4222 TAP_TAPCELL_ROW_25_223
*4223 TAP_TAPCELL_ROW_25_224
*4224 TAP_TAPCELL_ROW_25_225
*4225 TAP_TAPCELL_ROW_26_226
*4226 TAP_TAPCELL_ROW_26_227
*4227 TAP_TAPCELL_ROW_26_228
*4228 TAP_TAPCELL_ROW_26_229
*4229 TAP_TAPCELL_ROW_26_230
*4230 TAP_TAPCELL_ROW_26_231
*4231 TAP_TAPCELL_ROW_27_232
*4232 TAP_TAPCELL_ROW_27_233
*4233 TAP_TAPCELL_ROW_27_234
*4234 TAP_TAPCELL_ROW_27_235
*4235 TAP_TAPCELL_ROW_27_236
*4236 TAP_TAPCELL_ROW_28_237
*4237 TAP_TAPCELL_ROW_28_238
*4238 TAP_TAPCELL_ROW_28_239
*4239 TAP_TAPCELL_ROW_28_240
*4240 TAP_TAPCELL_ROW_28_241
*4241 TAP_TAPCELL_ROW_28_242
*4242 TAP_TAPCELL_ROW_29_243
*4243 TAP_TAPCELL_ROW_29_244
*4244 TAP_TAPCELL_ROW_29_245
*4245 TAP_TAPCELL_ROW_29_246
*4246 TAP_TAPCELL_ROW_29_247
*4247 TAP_TAPCELL_ROW_2_94
*4248 TAP_TAPCELL_ROW_2_95
*4249 TAP_TAPCELL_ROW_2_96
*4250 TAP_TAPCELL_ROW_2_97
*4251 TAP_TAPCELL_ROW_2_98
*4252 TAP_TAPCELL_ROW_2_99
*4253 TAP_TAPCELL_ROW_30_248
*4254 TAP_TAPCELL_ROW_30_249
*4255 TAP_TAPCELL_ROW_30_250
*4256 TAP_TAPCELL_ROW_30_251
*4257 TAP_TAPCELL_ROW_30_252
*4258 TAP_TAPCELL_ROW_30_253
*4259 TAP_TAPCELL_ROW_31_254
*4260 TAP_TAPCELL_ROW_31_255
*4261 TAP_TAPCELL_ROW_31_256
*4262 TAP_TAPCELL_ROW_31_257
*4263 TAP_TAPCELL_ROW_31_258
*4264 TAP_TAPCELL_ROW_32_259
*4265 TAP_TAPCELL_ROW_32_260
*4266 TAP_TAPCELL_ROW_32_261
*4267 TAP_TAPCELL_ROW_32_262
*4268 TAP_TAPCELL_ROW_32_263
*4269 TAP_TAPCELL_ROW_32_264
*4270 TAP_TAPCELL_ROW_33_265
*4271 TAP_TAPCELL_ROW_33_266
*4272 TAP_TAPCELL_ROW_33_267
*4273 TAP_TAPCELL_ROW_33_268
*4274 TAP_TAPCELL_ROW_33_269
*4275 TAP_TAPCELL_ROW_34_270
*4276 TAP_TAPCELL_ROW_34_271
*4277 TAP_TAPCELL_ROW_34_272
*4278 TAP_TAPCELL_ROW_34_273
*4279 TAP_TAPCELL_ROW_34_274
*4280 TAP_TAPCELL_ROW_34_275
*4281 TAP_TAPCELL_ROW_35_276
*4282 TAP_TAPCELL_ROW_35_277
*4283 TAP_TAPCELL_ROW_35_278
*4284 TAP_TAPCELL_ROW_35_279
*4285 TAP_TAPCELL_ROW_35_280
*4286 TAP_TAPCELL_ROW_36_281
*4287 TAP_TAPCELL_ROW_36_282
*4288 TAP_TAPCELL_ROW_36_283
*4289 TAP_TAPCELL_ROW_36_284
*4290 TAP_TAPCELL_ROW_36_285
*4291 TAP_TAPCELL_ROW_36_286
*4292 TAP_TAPCELL_ROW_37_287
*4293 TAP_TAPCELL_ROW_37_288
*4294 TAP_TAPCELL_ROW_37_289
*4295 TAP_TAPCELL_ROW_37_290
*4296 TAP_TAPCELL_ROW_37_291
*4297 TAP_TAPCELL_ROW_38_292
*4298 TAP_TAPCELL_ROW_38_293
*4299 TAP_TAPCELL_ROW_38_294
*4300 TAP_TAPCELL_ROW_38_295
*4301 TAP_TAPCELL_ROW_38_296
*4302 TAP_TAPCELL_ROW_38_297
*4303 TAP_TAPCELL_ROW_38_298
*4304 TAP_TAPCELL_ROW_38_299
*4305 TAP_TAPCELL_ROW_38_300
*4306 TAP_TAPCELL_ROW_38_301
*4307 TAP_TAPCELL_ROW_38_302
*4308 TAP_TAPCELL_ROW_3_100
*4309 TAP_TAPCELL_ROW_3_101
*4310 TAP_TAPCELL_ROW_3_102
*4311 TAP_TAPCELL_ROW_3_103
*4312 TAP_TAPCELL_ROW_3_104
*4313 TAP_TAPCELL_ROW_4_105
*4314 TAP_TAPCELL_ROW_4_106
*4315 TAP_TAPCELL_ROW_4_107
*4316 TAP_TAPCELL_ROW_4_108
*4317 TAP_TAPCELL_ROW_4_109
*4318 TAP_TAPCELL_ROW_4_110
*4319 TAP_TAPCELL_ROW_5_111
*4320 TAP_TAPCELL_ROW_5_112
*4321 TAP_TAPCELL_ROW_5_113
*4322 TAP_TAPCELL_ROW_5_114
*4323 TAP_TAPCELL_ROW_5_115
*4324 TAP_TAPCELL_ROW_6_116
*4325 TAP_TAPCELL_ROW_6_117
*4326 TAP_TAPCELL_ROW_6_118
*4327 TAP_TAPCELL_ROW_6_119
*4328 TAP_TAPCELL_ROW_6_120
*4329 TAP_TAPCELL_ROW_6_121
*4330 TAP_TAPCELL_ROW_7_122
*4331 TAP_TAPCELL_ROW_7_123
*4332 TAP_TAPCELL_ROW_7_124
*4333 TAP_TAPCELL_ROW_7_125
*4334 TAP_TAPCELL_ROW_7_126
*4335 TAP_TAPCELL_ROW_8_127
*4336 TAP_TAPCELL_ROW_8_128
*4337 TAP_TAPCELL_ROW_8_129
*4338 TAP_TAPCELL_ROW_8_130
*4339 TAP_TAPCELL_ROW_8_131
*4340 TAP_TAPCELL_ROW_8_132
*4341 TAP_TAPCELL_ROW_9_133
*4342 TAP_TAPCELL_ROW_9_134
*4343 TAP_TAPCELL_ROW_9_135
*4344 TAP_TAPCELL_ROW_9_136
*4345 TAP_TAPCELL_ROW_9_137
*4346 _120_
*4347 _121_
*4348 _122_
*4349 _123_
*4350 _124_
*4351 _125_
*4352 _126_
*4353 _127_
*4354 _128_
*4355 _129_
*4356 _130_
*4357 _131_
*4358 _132_
*4359 _133_
*4360 _134_
*4361 _135_
*4362 _136_
*4363 _137_
*4364 _138_
*4365 _139_
*4366 _140_
*4367 _141_
*4368 _142_
*4369 _143_
*4370 _144_
*4371 _145_
*4372 _146_
*4373 _147_
*4374 _148_
*4375 _149_
*4376 _150_
*4377 _151_
*4378 _152_
*4379 _153_
*4380 _154_
*4381 _155_
*4382 _156_
*4383 _157_
*4384 _158_
*4385 _159_
*4386 _160_
*4387 _161_
*4388 _162_
*4389 _163_
*4390 _164_
*4391 _165_
*4392 _166_
*4393 _167_
*4394 _168_
*4395 _169_
*4396 _170_
*4397 _171_
*4398 _172_
*4399 _173_
*4400 _174_
*4401 _175_
*4402 _176_
*4403 _177_
*4404 _178_
*4405 _179_
*4406 _180_
*4407 _181_
*4408 _182_
*4409 _183_
*4410 _184_
*4411 _185_
*4412 _186_
*4413 _187_
*4414 _188_
*4415 _189_
*4416 _190_
*4417 _191_
*4418 _192_
*4419 _193_
*4420 _194_
*4421 _195_
*4422 _196_
*4423 _197_
*4424 _198_
*4425 _199_
*4426 _200_
*4427 _201_
*4428 _202_
*4429 _203_
*4430 _204_
*4431 _205_
*4432 _206_
*4433 _207_
*4434 _208_
*4435 _209_
*4436 _210_
*4437 _211_
*4438 _212_
*4439 _213_
*4440 _214_
*4441 _215_
*4442 _216_
*4443 _217_
*4444 _218_
*4445 _219_
*4446 _220_
*4447 _221_
*4448 _222_
*4449 _223_
*4450 _224_
*4451 _225_
*4452 _226_
*4453 _227_
*4454 _228_
*4455 _229_
*4456 _230_
*4457 _231_
*4458 _232_
*4459 _233_
*4460 _234_
*4461 _235_
*4462 _236_
*4463 _237_
*4464 _238_
*4465 _239_
*4466 _240_
*4467 _241_
*4468 _242_
*4469 _243_
*4470 _244_
*4471 _245_
*4472 _246_
*4473 _247_
*4474 _248_
*4475 _249_
*4476 _250_
*4477 _251_
*4478 _252_
*4479 _253_
*4480 _254_
*4481 _255_
*4482 _256_
*4483 _257_
*4484 _258_
*4485 _259_
*4486 _260_
*4487 _261_
*4488 _262_
*4489 _263_
*4490 _264_
*4491 _265_
*4492 _266_
*4493 _267_
*4494 _268_
*4495 _269_
*4496 _270_
*4497 _271_
*4498 _272_
*4499 _273_
*4500 _274_
*4501 _275_
*4502 _276_
*4503 _277_
*4504 _278_
*4505 _279_
*4506 _280_
*4507 _281_
*4508 _282_
*4509 _283_
*4510 _284_
*4511 _285_
*4512 _286_
*4513 _287_
*4514 _288_
*4515 _289_
*4516 _290_
*4517 _291_
*4518 _292_
*4519 _293_
*4520 _294_
*4521 _295_
*4522 _296_
*4523 _297_
*4524 _298_
*4525 _299_
*4526 _300_
*4527 _301_
*4528 _302_
*4529 _303_
*4530 _304_
*4531 _305_
*4532 _306_
*4533 _307_
*4534 _308_
*4535 _309_
*4536 _310_
*4537 _311_
*4538 _312_
*4539 _313_
*4540 _314_
*4541 _315_
*4542 _316_
*4543 _332_
*4544 clkbuf_0_clk
*4545 clkbuf_2_0__f_clk
*4546 clkbuf_2_1__f_clk
*4547 clkbuf_2_2__f_clk
*4548 clkbuf_2_3__f_clk
*4549 clkload0
*4550 fanout10
*4551 fanout11
*4552 fanout12
*4553 fanout13
*4554 fanout14
*4555 fanout15
*4556 fanout16
*4557 fanout17
*4558 fanout18
*4559 fanout9
*4560 hold33
*4561 hold34
*4562 hold35
*4563 hold36
*4564 hold37
*4565 hold38
*4566 hold39
*4567 hold40
*4568 hold41
*4569 input1
*4570 input2
*4571 input3
*4572 input4
*4573 input5
*4574 input6
*4575 input7
*4576 input8
*4577 tt_um_nikodemetrashvili20_ro_puf
*4578 tt_um_nikodemetrashvili20_ro_puf_19
*4579 tt_um_nikodemetrashvili20_ro_puf_20
*4580 tt_um_nikodemetrashvili20_ro_puf_21
*4581 tt_um_nikodemetrashvili20_ro_puf_22
*4582 tt_um_nikodemetrashvili20_ro_puf_23
*4583 tt_um_nikodemetrashvili20_ro_puf_24
*4584 tt_um_nikodemetrashvili20_ro_puf_25
*4585 tt_um_nikodemetrashvili20_ro_puf_26
*4586 tt_um_nikodemetrashvili20_ro_puf_27
*4587 tt_um_nikodemetrashvili20_ro_puf_28
*4588 tt_um_nikodemetrashvili20_ro_puf_29
*4589 tt_um_nikodemetrashvili20_ro_puf_30
*4590 tt_um_nikodemetrashvili20_ro_puf_31
*4591 tt_um_nikodemetrashvili20_ro_puf_32
*4592 u_puf\.u_core\.g_ro_bank\[0\]\.u_ro\.g_inv\[10\]\.u_inv
*4593 u_puf\.u_core\.g_ro_bank\[0\]\.u_ro\.g_inv\[11\]\.u_inv
*4594 u_puf\.u_core\.g_ro_bank\[0\]\.u_ro\.g_inv\[12\]\.u_inv
*4595 u_puf\.u_core\.g_ro_bank\[0\]\.u_ro\.g_inv\[13\]\.u_inv
*4596 u_puf\.u_core\.g_ro_bank\[0\]\.u_ro\.g_inv\[14\]\.u_inv
*4597 u_puf\.u_core\.g_ro_bank\[0\]\.u_ro\.g_inv\[15\]\.u_inv
*4598 u_puf\.u_core\.g_ro_bank\[0\]\.u_ro\.g_inv\[16\]\.u_inv
*4599 u_puf\.u_core\.g_ro_bank\[0\]\.u_ro\.g_inv\[17\]\.u_inv
*4600 u_puf\.u_core\.g_ro_bank\[0\]\.u_ro\.g_inv\[18\]\.u_inv
*4601 u_puf\.u_core\.g_ro_bank\[0\]\.u_ro\.g_inv\[19\]\.u_inv
*4602 u_puf\.u_core\.g_ro_bank\[0\]\.u_ro\.g_inv\[1\]\.u_inv
*4603 u_puf\.u_core\.g_ro_bank\[0\]\.u_ro\.g_inv\[20\]\.u_inv
*4604 u_puf\.u_core\.g_ro_bank\[0\]\.u_ro\.g_inv\[21\]\.u_inv
*4605 u_puf\.u_core\.g_ro_bank\[0\]\.u_ro\.g_inv\[22\]\.u_inv
*4606 u_puf\.u_core\.g_ro_bank\[0\]\.u_ro\.g_inv\[23\]\.u_inv
*4607 u_puf\.u_core\.g_ro_bank\[0\]\.u_ro\.g_inv\[24\]\.u_inv
*4608 u_puf\.u_core\.g_ro_bank\[0\]\.u_ro\.g_inv\[25\]\.u_inv
*4609 u_puf\.u_core\.g_ro_bank\[0\]\.u_ro\.g_inv\[26\]\.u_inv
*4610 u_puf\.u_core\.g_ro_bank\[0\]\.u_ro\.g_inv\[27\]\.u_inv
*4611 u_puf\.u_core\.g_ro_bank\[0\]\.u_ro\.g_inv\[28\]\.u_inv
*4612 u_puf\.u_core\.g_ro_bank\[0\]\.u_ro\.g_inv\[29\]\.u_inv
*4613 u_puf\.u_core\.g_ro_bank\[0\]\.u_ro\.g_inv\[2\]\.u_inv
*4614 u_puf\.u_core\.g_ro_bank\[0\]\.u_ro\.g_inv\[30\]\.u_inv
*4615 u_puf\.u_core\.g_ro_bank\[0\]\.u_ro\.g_inv\[3\]\.u_inv
*4616 u_puf\.u_core\.g_ro_bank\[0\]\.u_ro\.g_inv\[4\]\.u_inv
*4617 u_puf\.u_core\.g_ro_bank\[0\]\.u_ro\.g_inv\[5\]\.u_inv
*4618 u_puf\.u_core\.g_ro_bank\[0\]\.u_ro\.g_inv\[6\]\.u_inv
*4619 u_puf\.u_core\.g_ro_bank\[0\]\.u_ro\.g_inv\[7\]\.u_inv
*4620 u_puf\.u_core\.g_ro_bank\[0\]\.u_ro\.g_inv\[8\]\.u_inv
*4621 u_puf\.u_core\.g_ro_bank\[0\]\.u_ro\.g_inv\[9\]\.u_inv
*4622 u_puf\.u_core\.g_ro_bank\[0\]\.u_ro\.u_buf
*4623 u_puf\.u_core\.g_ro_bank\[0\]\.u_ro\.u_nand
*4624 u_puf\.u_core\.g_ro_bank\[10\]\.u_ro\.g_inv\[10\]\.u_inv
*4625 u_puf\.u_core\.g_ro_bank\[10\]\.u_ro\.g_inv\[11\]\.u_inv
*4626 u_puf\.u_core\.g_ro_bank\[10\]\.u_ro\.g_inv\[12\]\.u_inv
*4627 u_puf\.u_core\.g_ro_bank\[10\]\.u_ro\.g_inv\[13\]\.u_inv
*4628 u_puf\.u_core\.g_ro_bank\[10\]\.u_ro\.g_inv\[14\]\.u_inv
*4629 u_puf\.u_core\.g_ro_bank\[10\]\.u_ro\.g_inv\[15\]\.u_inv
*4630 u_puf\.u_core\.g_ro_bank\[10\]\.u_ro\.g_inv\[16\]\.u_inv
*4631 u_puf\.u_core\.g_ro_bank\[10\]\.u_ro\.g_inv\[17\]\.u_inv
*4632 u_puf\.u_core\.g_ro_bank\[10\]\.u_ro\.g_inv\[18\]\.u_inv
*4633 u_puf\.u_core\.g_ro_bank\[10\]\.u_ro\.g_inv\[19\]\.u_inv
*4634 u_puf\.u_core\.g_ro_bank\[10\]\.u_ro\.g_inv\[1\]\.u_inv
*4635 u_puf\.u_core\.g_ro_bank\[10\]\.u_ro\.g_inv\[20\]\.u_inv
*4636 u_puf\.u_core\.g_ro_bank\[10\]\.u_ro\.g_inv\[21\]\.u_inv
*4637 u_puf\.u_core\.g_ro_bank\[10\]\.u_ro\.g_inv\[22\]\.u_inv
*4638 u_puf\.u_core\.g_ro_bank\[10\]\.u_ro\.g_inv\[23\]\.u_inv
*4639 u_puf\.u_core\.g_ro_bank\[10\]\.u_ro\.g_inv\[24\]\.u_inv
*4640 u_puf\.u_core\.g_ro_bank\[10\]\.u_ro\.g_inv\[25\]\.u_inv
*4641 u_puf\.u_core\.g_ro_bank\[10\]\.u_ro\.g_inv\[26\]\.u_inv
*4642 u_puf\.u_core\.g_ro_bank\[10\]\.u_ro\.g_inv\[27\]\.u_inv
*4643 u_puf\.u_core\.g_ro_bank\[10\]\.u_ro\.g_inv\[28\]\.u_inv
*4644 u_puf\.u_core\.g_ro_bank\[10\]\.u_ro\.g_inv\[29\]\.u_inv
*4645 u_puf\.u_core\.g_ro_bank\[10\]\.u_ro\.g_inv\[2\]\.u_inv
*4646 u_puf\.u_core\.g_ro_bank\[10\]\.u_ro\.g_inv\[30\]\.u_inv
*4647 u_puf\.u_core\.g_ro_bank\[10\]\.u_ro\.g_inv\[3\]\.u_inv
*4648 u_puf\.u_core\.g_ro_bank\[10\]\.u_ro\.g_inv\[4\]\.u_inv
*4649 u_puf\.u_core\.g_ro_bank\[10\]\.u_ro\.g_inv\[5\]\.u_inv
*4650 u_puf\.u_core\.g_ro_bank\[10\]\.u_ro\.g_inv\[6\]\.u_inv
*4651 u_puf\.u_core\.g_ro_bank\[10\]\.u_ro\.g_inv\[7\]\.u_inv
*4652 u_puf\.u_core\.g_ro_bank\[10\]\.u_ro\.g_inv\[8\]\.u_inv
*4653 u_puf\.u_core\.g_ro_bank\[10\]\.u_ro\.g_inv\[9\]\.u_inv
*4654 u_puf\.u_core\.g_ro_bank\[10\]\.u_ro\.u_buf
*4655 u_puf\.u_core\.g_ro_bank\[10\]\.u_ro\.u_nand
*4656 u_puf\.u_core\.g_ro_bank\[11\]\.u_ro\.g_inv\[10\]\.u_inv
*4657 u_puf\.u_core\.g_ro_bank\[11\]\.u_ro\.g_inv\[11\]\.u_inv
*4658 u_puf\.u_core\.g_ro_bank\[11\]\.u_ro\.g_inv\[12\]\.u_inv
*4659 u_puf\.u_core\.g_ro_bank\[11\]\.u_ro\.g_inv\[13\]\.u_inv
*4660 u_puf\.u_core\.g_ro_bank\[11\]\.u_ro\.g_inv\[14\]\.u_inv
*4661 u_puf\.u_core\.g_ro_bank\[11\]\.u_ro\.g_inv\[15\]\.u_inv
*4662 u_puf\.u_core\.g_ro_bank\[11\]\.u_ro\.g_inv\[16\]\.u_inv
*4663 u_puf\.u_core\.g_ro_bank\[11\]\.u_ro\.g_inv\[17\]\.u_inv
*4664 u_puf\.u_core\.g_ro_bank\[11\]\.u_ro\.g_inv\[18\]\.u_inv
*4665 u_puf\.u_core\.g_ro_bank\[11\]\.u_ro\.g_inv\[19\]\.u_inv
*4666 u_puf\.u_core\.g_ro_bank\[11\]\.u_ro\.g_inv\[1\]\.u_inv
*4667 u_puf\.u_core\.g_ro_bank\[11\]\.u_ro\.g_inv\[20\]\.u_inv
*4668 u_puf\.u_core\.g_ro_bank\[11\]\.u_ro\.g_inv\[21\]\.u_inv
*4669 u_puf\.u_core\.g_ro_bank\[11\]\.u_ro\.g_inv\[22\]\.u_inv
*4670 u_puf\.u_core\.g_ro_bank\[11\]\.u_ro\.g_inv\[23\]\.u_inv
*4671 u_puf\.u_core\.g_ro_bank\[11\]\.u_ro\.g_inv\[24\]\.u_inv
*4672 u_puf\.u_core\.g_ro_bank\[11\]\.u_ro\.g_inv\[25\]\.u_inv
*4673 u_puf\.u_core\.g_ro_bank\[11\]\.u_ro\.g_inv\[26\]\.u_inv
*4674 u_puf\.u_core\.g_ro_bank\[11\]\.u_ro\.g_inv\[27\]\.u_inv
*4675 u_puf\.u_core\.g_ro_bank\[11\]\.u_ro\.g_inv\[28\]\.u_inv
*4676 u_puf\.u_core\.g_ro_bank\[11\]\.u_ro\.g_inv\[29\]\.u_inv
*4677 u_puf\.u_core\.g_ro_bank\[11\]\.u_ro\.g_inv\[2\]\.u_inv
*4678 u_puf\.u_core\.g_ro_bank\[11\]\.u_ro\.g_inv\[30\]\.u_inv
*4679 u_puf\.u_core\.g_ro_bank\[11\]\.u_ro\.g_inv\[3\]\.u_inv
*4680 u_puf\.u_core\.g_ro_bank\[11\]\.u_ro\.g_inv\[4\]\.u_inv
*4681 u_puf\.u_core\.g_ro_bank\[11\]\.u_ro\.g_inv\[5\]\.u_inv
*4682 u_puf\.u_core\.g_ro_bank\[11\]\.u_ro\.g_inv\[6\]\.u_inv
*4683 u_puf\.u_core\.g_ro_bank\[11\]\.u_ro\.g_inv\[7\]\.u_inv
*4684 u_puf\.u_core\.g_ro_bank\[11\]\.u_ro\.g_inv\[8\]\.u_inv
*4685 u_puf\.u_core\.g_ro_bank\[11\]\.u_ro\.g_inv\[9\]\.u_inv
*4686 u_puf\.u_core\.g_ro_bank\[11\]\.u_ro\.u_buf
*4687 u_puf\.u_core\.g_ro_bank\[11\]\.u_ro\.u_nand
*4688 u_puf\.u_core\.g_ro_bank\[12\]\.u_ro\.g_inv\[10\]\.u_inv
*4689 u_puf\.u_core\.g_ro_bank\[12\]\.u_ro\.g_inv\[11\]\.u_inv
*4690 u_puf\.u_core\.g_ro_bank\[12\]\.u_ro\.g_inv\[12\]\.u_inv
*4691 u_puf\.u_core\.g_ro_bank\[12\]\.u_ro\.g_inv\[13\]\.u_inv
*4692 u_puf\.u_core\.g_ro_bank\[12\]\.u_ro\.g_inv\[14\]\.u_inv
*4693 u_puf\.u_core\.g_ro_bank\[12\]\.u_ro\.g_inv\[15\]\.u_inv
*4694 u_puf\.u_core\.g_ro_bank\[12\]\.u_ro\.g_inv\[16\]\.u_inv
*4695 u_puf\.u_core\.g_ro_bank\[12\]\.u_ro\.g_inv\[17\]\.u_inv
*4696 u_puf\.u_core\.g_ro_bank\[12\]\.u_ro\.g_inv\[18\]\.u_inv
*4697 u_puf\.u_core\.g_ro_bank\[12\]\.u_ro\.g_inv\[19\]\.u_inv
*4698 u_puf\.u_core\.g_ro_bank\[12\]\.u_ro\.g_inv\[1\]\.u_inv
*4699 u_puf\.u_core\.g_ro_bank\[12\]\.u_ro\.g_inv\[20\]\.u_inv
*4700 u_puf\.u_core\.g_ro_bank\[12\]\.u_ro\.g_inv\[21\]\.u_inv
*4701 u_puf\.u_core\.g_ro_bank\[12\]\.u_ro\.g_inv\[22\]\.u_inv
*4702 u_puf\.u_core\.g_ro_bank\[12\]\.u_ro\.g_inv\[23\]\.u_inv
*4703 u_puf\.u_core\.g_ro_bank\[12\]\.u_ro\.g_inv\[24\]\.u_inv
*4704 u_puf\.u_core\.g_ro_bank\[12\]\.u_ro\.g_inv\[25\]\.u_inv
*4705 u_puf\.u_core\.g_ro_bank\[12\]\.u_ro\.g_inv\[26\]\.u_inv
*4706 u_puf\.u_core\.g_ro_bank\[12\]\.u_ro\.g_inv\[27\]\.u_inv
*4707 u_puf\.u_core\.g_ro_bank\[12\]\.u_ro\.g_inv\[28\]\.u_inv
*4708 u_puf\.u_core\.g_ro_bank\[12\]\.u_ro\.g_inv\[29\]\.u_inv
*4709 u_puf\.u_core\.g_ro_bank\[12\]\.u_ro\.g_inv\[2\]\.u_inv
*4710 u_puf\.u_core\.g_ro_bank\[12\]\.u_ro\.g_inv\[30\]\.u_inv
*4711 u_puf\.u_core\.g_ro_bank\[12\]\.u_ro\.g_inv\[3\]\.u_inv
*4712 u_puf\.u_core\.g_ro_bank\[12\]\.u_ro\.g_inv\[4\]\.u_inv
*4713 u_puf\.u_core\.g_ro_bank\[12\]\.u_ro\.g_inv\[5\]\.u_inv
*4714 u_puf\.u_core\.g_ro_bank\[12\]\.u_ro\.g_inv\[6\]\.u_inv
*4715 u_puf\.u_core\.g_ro_bank\[12\]\.u_ro\.g_inv\[7\]\.u_inv
*4716 u_puf\.u_core\.g_ro_bank\[12\]\.u_ro\.g_inv\[8\]\.u_inv
*4717 u_puf\.u_core\.g_ro_bank\[12\]\.u_ro\.g_inv\[9\]\.u_inv
*4718 u_puf\.u_core\.g_ro_bank\[12\]\.u_ro\.u_buf
*4719 u_puf\.u_core\.g_ro_bank\[12\]\.u_ro\.u_nand
*4720 u_puf\.u_core\.g_ro_bank\[13\]\.u_ro\.g_inv\[10\]\.u_inv
*4721 u_puf\.u_core\.g_ro_bank\[13\]\.u_ro\.g_inv\[11\]\.u_inv
*4722 u_puf\.u_core\.g_ro_bank\[13\]\.u_ro\.g_inv\[12\]\.u_inv
*4723 u_puf\.u_core\.g_ro_bank\[13\]\.u_ro\.g_inv\[13\]\.u_inv
*4724 u_puf\.u_core\.g_ro_bank\[13\]\.u_ro\.g_inv\[14\]\.u_inv
*4725 u_puf\.u_core\.g_ro_bank\[13\]\.u_ro\.g_inv\[15\]\.u_inv
*4726 u_puf\.u_core\.g_ro_bank\[13\]\.u_ro\.g_inv\[16\]\.u_inv
*4727 u_puf\.u_core\.g_ro_bank\[13\]\.u_ro\.g_inv\[17\]\.u_inv
*4728 u_puf\.u_core\.g_ro_bank\[13\]\.u_ro\.g_inv\[18\]\.u_inv
*4729 u_puf\.u_core\.g_ro_bank\[13\]\.u_ro\.g_inv\[19\]\.u_inv
*4730 u_puf\.u_core\.g_ro_bank\[13\]\.u_ro\.g_inv\[1\]\.u_inv
*4731 u_puf\.u_core\.g_ro_bank\[13\]\.u_ro\.g_inv\[20\]\.u_inv
*4732 u_puf\.u_core\.g_ro_bank\[13\]\.u_ro\.g_inv\[21\]\.u_inv
*4733 u_puf\.u_core\.g_ro_bank\[13\]\.u_ro\.g_inv\[22\]\.u_inv
*4734 u_puf\.u_core\.g_ro_bank\[13\]\.u_ro\.g_inv\[23\]\.u_inv
*4735 u_puf\.u_core\.g_ro_bank\[13\]\.u_ro\.g_inv\[24\]\.u_inv
*4736 u_puf\.u_core\.g_ro_bank\[13\]\.u_ro\.g_inv\[25\]\.u_inv
*4737 u_puf\.u_core\.g_ro_bank\[13\]\.u_ro\.g_inv\[26\]\.u_inv
*4738 u_puf\.u_core\.g_ro_bank\[13\]\.u_ro\.g_inv\[27\]\.u_inv
*4739 u_puf\.u_core\.g_ro_bank\[13\]\.u_ro\.g_inv\[28\]\.u_inv
*4740 u_puf\.u_core\.g_ro_bank\[13\]\.u_ro\.g_inv\[29\]\.u_inv
*4741 u_puf\.u_core\.g_ro_bank\[13\]\.u_ro\.g_inv\[2\]\.u_inv
*4742 u_puf\.u_core\.g_ro_bank\[13\]\.u_ro\.g_inv\[30\]\.u_inv
*4743 u_puf\.u_core\.g_ro_bank\[13\]\.u_ro\.g_inv\[3\]\.u_inv
*4744 u_puf\.u_core\.g_ro_bank\[13\]\.u_ro\.g_inv\[4\]\.u_inv
*4745 u_puf\.u_core\.g_ro_bank\[13\]\.u_ro\.g_inv\[5\]\.u_inv
*4746 u_puf\.u_core\.g_ro_bank\[13\]\.u_ro\.g_inv\[6\]\.u_inv
*4747 u_puf\.u_core\.g_ro_bank\[13\]\.u_ro\.g_inv\[7\]\.u_inv
*4748 u_puf\.u_core\.g_ro_bank\[13\]\.u_ro\.g_inv\[8\]\.u_inv
*4749 u_puf\.u_core\.g_ro_bank\[13\]\.u_ro\.g_inv\[9\]\.u_inv
*4750 u_puf\.u_core\.g_ro_bank\[13\]\.u_ro\.u_buf
*4751 u_puf\.u_core\.g_ro_bank\[13\]\.u_ro\.u_nand
*4752 u_puf\.u_core\.g_ro_bank\[14\]\.u_ro\.g_inv\[10\]\.u_inv
*4753 u_puf\.u_core\.g_ro_bank\[14\]\.u_ro\.g_inv\[11\]\.u_inv
*4754 u_puf\.u_core\.g_ro_bank\[14\]\.u_ro\.g_inv\[12\]\.u_inv
*4755 u_puf\.u_core\.g_ro_bank\[14\]\.u_ro\.g_inv\[13\]\.u_inv
*4756 u_puf\.u_core\.g_ro_bank\[14\]\.u_ro\.g_inv\[14\]\.u_inv
*4757 u_puf\.u_core\.g_ro_bank\[14\]\.u_ro\.g_inv\[15\]\.u_inv
*4758 u_puf\.u_core\.g_ro_bank\[14\]\.u_ro\.g_inv\[16\]\.u_inv
*4759 u_puf\.u_core\.g_ro_bank\[14\]\.u_ro\.g_inv\[17\]\.u_inv
*4760 u_puf\.u_core\.g_ro_bank\[14\]\.u_ro\.g_inv\[18\]\.u_inv
*4761 u_puf\.u_core\.g_ro_bank\[14\]\.u_ro\.g_inv\[19\]\.u_inv
*4762 u_puf\.u_core\.g_ro_bank\[14\]\.u_ro\.g_inv\[1\]\.u_inv
*4763 u_puf\.u_core\.g_ro_bank\[14\]\.u_ro\.g_inv\[20\]\.u_inv
*4764 u_puf\.u_core\.g_ro_bank\[14\]\.u_ro\.g_inv\[21\]\.u_inv
*4765 u_puf\.u_core\.g_ro_bank\[14\]\.u_ro\.g_inv\[22\]\.u_inv
*4766 u_puf\.u_core\.g_ro_bank\[14\]\.u_ro\.g_inv\[23\]\.u_inv
*4767 u_puf\.u_core\.g_ro_bank\[14\]\.u_ro\.g_inv\[24\]\.u_inv
*4768 u_puf\.u_core\.g_ro_bank\[14\]\.u_ro\.g_inv\[25\]\.u_inv
*4769 u_puf\.u_core\.g_ro_bank\[14\]\.u_ro\.g_inv\[26\]\.u_inv
*4770 u_puf\.u_core\.g_ro_bank\[14\]\.u_ro\.g_inv\[27\]\.u_inv
*4771 u_puf\.u_core\.g_ro_bank\[14\]\.u_ro\.g_inv\[28\]\.u_inv
*4772 u_puf\.u_core\.g_ro_bank\[14\]\.u_ro\.g_inv\[29\]\.u_inv
*4773 u_puf\.u_core\.g_ro_bank\[14\]\.u_ro\.g_inv\[2\]\.u_inv
*4774 u_puf\.u_core\.g_ro_bank\[14\]\.u_ro\.g_inv\[30\]\.u_inv
*4775 u_puf\.u_core\.g_ro_bank\[14\]\.u_ro\.g_inv\[3\]\.u_inv
*4776 u_puf\.u_core\.g_ro_bank\[14\]\.u_ro\.g_inv\[4\]\.u_inv
*4777 u_puf\.u_core\.g_ro_bank\[14\]\.u_ro\.g_inv\[5\]\.u_inv
*4778 u_puf\.u_core\.g_ro_bank\[14\]\.u_ro\.g_inv\[6\]\.u_inv
*4779 u_puf\.u_core\.g_ro_bank\[14\]\.u_ro\.g_inv\[7\]\.u_inv
*4780 u_puf\.u_core\.g_ro_bank\[14\]\.u_ro\.g_inv\[8\]\.u_inv
*4781 u_puf\.u_core\.g_ro_bank\[14\]\.u_ro\.g_inv\[9\]\.u_inv
*4782 u_puf\.u_core\.g_ro_bank\[14\]\.u_ro\.u_buf
*4783 u_puf\.u_core\.g_ro_bank\[14\]\.u_ro\.u_nand
*4784 u_puf\.u_core\.g_ro_bank\[15\]\.u_ro\.g_inv\[10\]\.u_inv
*4785 u_puf\.u_core\.g_ro_bank\[15\]\.u_ro\.g_inv\[11\]\.u_inv
*4786 u_puf\.u_core\.g_ro_bank\[15\]\.u_ro\.g_inv\[12\]\.u_inv
*4787 u_puf\.u_core\.g_ro_bank\[15\]\.u_ro\.g_inv\[13\]\.u_inv
*4788 u_puf\.u_core\.g_ro_bank\[15\]\.u_ro\.g_inv\[14\]\.u_inv
*4789 u_puf\.u_core\.g_ro_bank\[15\]\.u_ro\.g_inv\[15\]\.u_inv
*4790 u_puf\.u_core\.g_ro_bank\[15\]\.u_ro\.g_inv\[16\]\.u_inv
*4791 u_puf\.u_core\.g_ro_bank\[15\]\.u_ro\.g_inv\[17\]\.u_inv
*4792 u_puf\.u_core\.g_ro_bank\[15\]\.u_ro\.g_inv\[18\]\.u_inv
*4793 u_puf\.u_core\.g_ro_bank\[15\]\.u_ro\.g_inv\[19\]\.u_inv
*4794 u_puf\.u_core\.g_ro_bank\[15\]\.u_ro\.g_inv\[1\]\.u_inv
*4795 u_puf\.u_core\.g_ro_bank\[15\]\.u_ro\.g_inv\[20\]\.u_inv
*4796 u_puf\.u_core\.g_ro_bank\[15\]\.u_ro\.g_inv\[21\]\.u_inv
*4797 u_puf\.u_core\.g_ro_bank\[15\]\.u_ro\.g_inv\[22\]\.u_inv
*4798 u_puf\.u_core\.g_ro_bank\[15\]\.u_ro\.g_inv\[23\]\.u_inv
*4799 u_puf\.u_core\.g_ro_bank\[15\]\.u_ro\.g_inv\[24\]\.u_inv
*4800 u_puf\.u_core\.g_ro_bank\[15\]\.u_ro\.g_inv\[25\]\.u_inv
*4801 u_puf\.u_core\.g_ro_bank\[15\]\.u_ro\.g_inv\[26\]\.u_inv
*4802 u_puf\.u_core\.g_ro_bank\[15\]\.u_ro\.g_inv\[27\]\.u_inv
*4803 u_puf\.u_core\.g_ro_bank\[15\]\.u_ro\.g_inv\[28\]\.u_inv
*4804 u_puf\.u_core\.g_ro_bank\[15\]\.u_ro\.g_inv\[29\]\.u_inv
*4805 u_puf\.u_core\.g_ro_bank\[15\]\.u_ro\.g_inv\[2\]\.u_inv
*4806 u_puf\.u_core\.g_ro_bank\[15\]\.u_ro\.g_inv\[30\]\.u_inv
*4807 u_puf\.u_core\.g_ro_bank\[15\]\.u_ro\.g_inv\[3\]\.u_inv
*4808 u_puf\.u_core\.g_ro_bank\[15\]\.u_ro\.g_inv\[4\]\.u_inv
*4809 u_puf\.u_core\.g_ro_bank\[15\]\.u_ro\.g_inv\[5\]\.u_inv
*4810 u_puf\.u_core\.g_ro_bank\[15\]\.u_ro\.g_inv\[6\]\.u_inv
*4811 u_puf\.u_core\.g_ro_bank\[15\]\.u_ro\.g_inv\[7\]\.u_inv
*4812 u_puf\.u_core\.g_ro_bank\[15\]\.u_ro\.g_inv\[8\]\.u_inv
*4813 u_puf\.u_core\.g_ro_bank\[15\]\.u_ro\.g_inv\[9\]\.u_inv
*4814 u_puf\.u_core\.g_ro_bank\[15\]\.u_ro\.u_buf
*4815 u_puf\.u_core\.g_ro_bank\[15\]\.u_ro\.u_nand
*4816 u_puf\.u_core\.g_ro_bank\[16\]\.u_ro\.g_inv\[10\]\.u_inv
*4817 u_puf\.u_core\.g_ro_bank\[16\]\.u_ro\.g_inv\[11\]\.u_inv
*4818 u_puf\.u_core\.g_ro_bank\[16\]\.u_ro\.g_inv\[12\]\.u_inv
*4819 u_puf\.u_core\.g_ro_bank\[16\]\.u_ro\.g_inv\[13\]\.u_inv
*4820 u_puf\.u_core\.g_ro_bank\[16\]\.u_ro\.g_inv\[14\]\.u_inv
*4821 u_puf\.u_core\.g_ro_bank\[16\]\.u_ro\.g_inv\[15\]\.u_inv
*4822 u_puf\.u_core\.g_ro_bank\[16\]\.u_ro\.g_inv\[16\]\.u_inv
*4823 u_puf\.u_core\.g_ro_bank\[16\]\.u_ro\.g_inv\[17\]\.u_inv
*4824 u_puf\.u_core\.g_ro_bank\[16\]\.u_ro\.g_inv\[18\]\.u_inv
*4825 u_puf\.u_core\.g_ro_bank\[16\]\.u_ro\.g_inv\[19\]\.u_inv
*4826 u_puf\.u_core\.g_ro_bank\[16\]\.u_ro\.g_inv\[1\]\.u_inv
*4827 u_puf\.u_core\.g_ro_bank\[16\]\.u_ro\.g_inv\[20\]\.u_inv
*4828 u_puf\.u_core\.g_ro_bank\[16\]\.u_ro\.g_inv\[21\]\.u_inv
*4829 u_puf\.u_core\.g_ro_bank\[16\]\.u_ro\.g_inv\[22\]\.u_inv
*4830 u_puf\.u_core\.g_ro_bank\[16\]\.u_ro\.g_inv\[23\]\.u_inv
*4831 u_puf\.u_core\.g_ro_bank\[16\]\.u_ro\.g_inv\[24\]\.u_inv
*4832 u_puf\.u_core\.g_ro_bank\[16\]\.u_ro\.g_inv\[25\]\.u_inv
*4833 u_puf\.u_core\.g_ro_bank\[16\]\.u_ro\.g_inv\[26\]\.u_inv
*4834 u_puf\.u_core\.g_ro_bank\[16\]\.u_ro\.g_inv\[27\]\.u_inv
*4835 u_puf\.u_core\.g_ro_bank\[16\]\.u_ro\.g_inv\[28\]\.u_inv
*4836 u_puf\.u_core\.g_ro_bank\[16\]\.u_ro\.g_inv\[29\]\.u_inv
*4837 u_puf\.u_core\.g_ro_bank\[16\]\.u_ro\.g_inv\[2\]\.u_inv
*4838 u_puf\.u_core\.g_ro_bank\[16\]\.u_ro\.g_inv\[30\]\.u_inv
*4839 u_puf\.u_core\.g_ro_bank\[16\]\.u_ro\.g_inv\[3\]\.u_inv
*4840 u_puf\.u_core\.g_ro_bank\[16\]\.u_ro\.g_inv\[4\]\.u_inv
*4841 u_puf\.u_core\.g_ro_bank\[16\]\.u_ro\.g_inv\[5\]\.u_inv
*4842 u_puf\.u_core\.g_ro_bank\[16\]\.u_ro\.g_inv\[6\]\.u_inv
*4843 u_puf\.u_core\.g_ro_bank\[16\]\.u_ro\.g_inv\[7\]\.u_inv
*4844 u_puf\.u_core\.g_ro_bank\[16\]\.u_ro\.g_inv\[8\]\.u_inv
*4845 u_puf\.u_core\.g_ro_bank\[16\]\.u_ro\.g_inv\[9\]\.u_inv
*4846 u_puf\.u_core\.g_ro_bank\[16\]\.u_ro\.u_buf
*4847 u_puf\.u_core\.g_ro_bank\[16\]\.u_ro\.u_nand
*4848 u_puf\.u_core\.g_ro_bank\[17\]\.u_ro\.g_inv\[10\]\.u_inv
*4849 u_puf\.u_core\.g_ro_bank\[17\]\.u_ro\.g_inv\[11\]\.u_inv
*4850 u_puf\.u_core\.g_ro_bank\[17\]\.u_ro\.g_inv\[12\]\.u_inv
*4851 u_puf\.u_core\.g_ro_bank\[17\]\.u_ro\.g_inv\[13\]\.u_inv
*4852 u_puf\.u_core\.g_ro_bank\[17\]\.u_ro\.g_inv\[14\]\.u_inv
*4853 u_puf\.u_core\.g_ro_bank\[17\]\.u_ro\.g_inv\[15\]\.u_inv
*4854 u_puf\.u_core\.g_ro_bank\[17\]\.u_ro\.g_inv\[16\]\.u_inv
*4855 u_puf\.u_core\.g_ro_bank\[17\]\.u_ro\.g_inv\[17\]\.u_inv
*4856 u_puf\.u_core\.g_ro_bank\[17\]\.u_ro\.g_inv\[18\]\.u_inv
*4857 u_puf\.u_core\.g_ro_bank\[17\]\.u_ro\.g_inv\[19\]\.u_inv
*4858 u_puf\.u_core\.g_ro_bank\[17\]\.u_ro\.g_inv\[1\]\.u_inv
*4859 u_puf\.u_core\.g_ro_bank\[17\]\.u_ro\.g_inv\[20\]\.u_inv
*4860 u_puf\.u_core\.g_ro_bank\[17\]\.u_ro\.g_inv\[21\]\.u_inv
*4861 u_puf\.u_core\.g_ro_bank\[17\]\.u_ro\.g_inv\[22\]\.u_inv
*4862 u_puf\.u_core\.g_ro_bank\[17\]\.u_ro\.g_inv\[23\]\.u_inv
*4863 u_puf\.u_core\.g_ro_bank\[17\]\.u_ro\.g_inv\[24\]\.u_inv
*4864 u_puf\.u_core\.g_ro_bank\[17\]\.u_ro\.g_inv\[25\]\.u_inv
*4865 u_puf\.u_core\.g_ro_bank\[17\]\.u_ro\.g_inv\[26\]\.u_inv
*4866 u_puf\.u_core\.g_ro_bank\[17\]\.u_ro\.g_inv\[27\]\.u_inv
*4867 u_puf\.u_core\.g_ro_bank\[17\]\.u_ro\.g_inv\[28\]\.u_inv
*4868 u_puf\.u_core\.g_ro_bank\[17\]\.u_ro\.g_inv\[29\]\.u_inv
*4869 u_puf\.u_core\.g_ro_bank\[17\]\.u_ro\.g_inv\[2\]\.u_inv
*4870 u_puf\.u_core\.g_ro_bank\[17\]\.u_ro\.g_inv\[30\]\.u_inv
*4871 u_puf\.u_core\.g_ro_bank\[17\]\.u_ro\.g_inv\[3\]\.u_inv
*4872 u_puf\.u_core\.g_ro_bank\[17\]\.u_ro\.g_inv\[4\]\.u_inv
*4873 u_puf\.u_core\.g_ro_bank\[17\]\.u_ro\.g_inv\[5\]\.u_inv
*4874 u_puf\.u_core\.g_ro_bank\[17\]\.u_ro\.g_inv\[6\]\.u_inv
*4875 u_puf\.u_core\.g_ro_bank\[17\]\.u_ro\.g_inv\[7\]\.u_inv
*4876 u_puf\.u_core\.g_ro_bank\[17\]\.u_ro\.g_inv\[8\]\.u_inv
*4877 u_puf\.u_core\.g_ro_bank\[17\]\.u_ro\.g_inv\[9\]\.u_inv
*4878 u_puf\.u_core\.g_ro_bank\[17\]\.u_ro\.u_buf
*4879 u_puf\.u_core\.g_ro_bank\[17\]\.u_ro\.u_nand
*4880 u_puf\.u_core\.g_ro_bank\[18\]\.u_ro\.g_inv\[10\]\.u_inv
*4881 u_puf\.u_core\.g_ro_bank\[18\]\.u_ro\.g_inv\[11\]\.u_inv
*4882 u_puf\.u_core\.g_ro_bank\[18\]\.u_ro\.g_inv\[12\]\.u_inv
*4883 u_puf\.u_core\.g_ro_bank\[18\]\.u_ro\.g_inv\[13\]\.u_inv
*4884 u_puf\.u_core\.g_ro_bank\[18\]\.u_ro\.g_inv\[14\]\.u_inv
*4885 u_puf\.u_core\.g_ro_bank\[18\]\.u_ro\.g_inv\[15\]\.u_inv
*4886 u_puf\.u_core\.g_ro_bank\[18\]\.u_ro\.g_inv\[16\]\.u_inv
*4887 u_puf\.u_core\.g_ro_bank\[18\]\.u_ro\.g_inv\[17\]\.u_inv
*4888 u_puf\.u_core\.g_ro_bank\[18\]\.u_ro\.g_inv\[18\]\.u_inv
*4889 u_puf\.u_core\.g_ro_bank\[18\]\.u_ro\.g_inv\[19\]\.u_inv
*4890 u_puf\.u_core\.g_ro_bank\[18\]\.u_ro\.g_inv\[1\]\.u_inv
*4891 u_puf\.u_core\.g_ro_bank\[18\]\.u_ro\.g_inv\[20\]\.u_inv
*4892 u_puf\.u_core\.g_ro_bank\[18\]\.u_ro\.g_inv\[21\]\.u_inv
*4893 u_puf\.u_core\.g_ro_bank\[18\]\.u_ro\.g_inv\[22\]\.u_inv
*4894 u_puf\.u_core\.g_ro_bank\[18\]\.u_ro\.g_inv\[23\]\.u_inv
*4895 u_puf\.u_core\.g_ro_bank\[18\]\.u_ro\.g_inv\[24\]\.u_inv
*4896 u_puf\.u_core\.g_ro_bank\[18\]\.u_ro\.g_inv\[25\]\.u_inv
*4897 u_puf\.u_core\.g_ro_bank\[18\]\.u_ro\.g_inv\[26\]\.u_inv
*4898 u_puf\.u_core\.g_ro_bank\[18\]\.u_ro\.g_inv\[27\]\.u_inv
*4899 u_puf\.u_core\.g_ro_bank\[18\]\.u_ro\.g_inv\[28\]\.u_inv
*4900 u_puf\.u_core\.g_ro_bank\[18\]\.u_ro\.g_inv\[29\]\.u_inv
*4901 u_puf\.u_core\.g_ro_bank\[18\]\.u_ro\.g_inv\[2\]\.u_inv
*4902 u_puf\.u_core\.g_ro_bank\[18\]\.u_ro\.g_inv\[30\]\.u_inv
*4903 u_puf\.u_core\.g_ro_bank\[18\]\.u_ro\.g_inv\[3\]\.u_inv
*4904 u_puf\.u_core\.g_ro_bank\[18\]\.u_ro\.g_inv\[4\]\.u_inv
*4905 u_puf\.u_core\.g_ro_bank\[18\]\.u_ro\.g_inv\[5\]\.u_inv
*4906 u_puf\.u_core\.g_ro_bank\[18\]\.u_ro\.g_inv\[6\]\.u_inv
*4907 u_puf\.u_core\.g_ro_bank\[18\]\.u_ro\.g_inv\[7\]\.u_inv
*4908 u_puf\.u_core\.g_ro_bank\[18\]\.u_ro\.g_inv\[8\]\.u_inv
*4909 u_puf\.u_core\.g_ro_bank\[18\]\.u_ro\.g_inv\[9\]\.u_inv
*4910 u_puf\.u_core\.g_ro_bank\[18\]\.u_ro\.u_buf
*4911 u_puf\.u_core\.g_ro_bank\[18\]\.u_ro\.u_nand
*4912 u_puf\.u_core\.g_ro_bank\[19\]\.u_ro\.g_inv\[10\]\.u_inv
*4913 u_puf\.u_core\.g_ro_bank\[19\]\.u_ro\.g_inv\[11\]\.u_inv
*4914 u_puf\.u_core\.g_ro_bank\[19\]\.u_ro\.g_inv\[12\]\.u_inv
*4915 u_puf\.u_core\.g_ro_bank\[19\]\.u_ro\.g_inv\[13\]\.u_inv
*4916 u_puf\.u_core\.g_ro_bank\[19\]\.u_ro\.g_inv\[14\]\.u_inv
*4917 u_puf\.u_core\.g_ro_bank\[19\]\.u_ro\.g_inv\[15\]\.u_inv
*4918 u_puf\.u_core\.g_ro_bank\[19\]\.u_ro\.g_inv\[16\]\.u_inv
*4919 u_puf\.u_core\.g_ro_bank\[19\]\.u_ro\.g_inv\[17\]\.u_inv
*4920 u_puf\.u_core\.g_ro_bank\[19\]\.u_ro\.g_inv\[18\]\.u_inv
*4921 u_puf\.u_core\.g_ro_bank\[19\]\.u_ro\.g_inv\[19\]\.u_inv
*4922 u_puf\.u_core\.g_ro_bank\[19\]\.u_ro\.g_inv\[1\]\.u_inv
*4923 u_puf\.u_core\.g_ro_bank\[19\]\.u_ro\.g_inv\[20\]\.u_inv
*4924 u_puf\.u_core\.g_ro_bank\[19\]\.u_ro\.g_inv\[21\]\.u_inv
*4925 u_puf\.u_core\.g_ro_bank\[19\]\.u_ro\.g_inv\[22\]\.u_inv
*4926 u_puf\.u_core\.g_ro_bank\[19\]\.u_ro\.g_inv\[23\]\.u_inv
*4927 u_puf\.u_core\.g_ro_bank\[19\]\.u_ro\.g_inv\[24\]\.u_inv
*4928 u_puf\.u_core\.g_ro_bank\[19\]\.u_ro\.g_inv\[25\]\.u_inv
*4929 u_puf\.u_core\.g_ro_bank\[19\]\.u_ro\.g_inv\[26\]\.u_inv
*4930 u_puf\.u_core\.g_ro_bank\[19\]\.u_ro\.g_inv\[27\]\.u_inv
*4931 u_puf\.u_core\.g_ro_bank\[19\]\.u_ro\.g_inv\[28\]\.u_inv
*4932 u_puf\.u_core\.g_ro_bank\[19\]\.u_ro\.g_inv\[29\]\.u_inv
*4933 u_puf\.u_core\.g_ro_bank\[19\]\.u_ro\.g_inv\[2\]\.u_inv
*4934 u_puf\.u_core\.g_ro_bank\[19\]\.u_ro\.g_inv\[30\]\.u_inv
*4935 u_puf\.u_core\.g_ro_bank\[19\]\.u_ro\.g_inv\[3\]\.u_inv
*4936 u_puf\.u_core\.g_ro_bank\[19\]\.u_ro\.g_inv\[4\]\.u_inv
*4937 u_puf\.u_core\.g_ro_bank\[19\]\.u_ro\.g_inv\[5\]\.u_inv
*4938 u_puf\.u_core\.g_ro_bank\[19\]\.u_ro\.g_inv\[6\]\.u_inv
*4939 u_puf\.u_core\.g_ro_bank\[19\]\.u_ro\.g_inv\[7\]\.u_inv
*4940 u_puf\.u_core\.g_ro_bank\[19\]\.u_ro\.g_inv\[8\]\.u_inv
*4941 u_puf\.u_core\.g_ro_bank\[19\]\.u_ro\.g_inv\[9\]\.u_inv
*4942 u_puf\.u_core\.g_ro_bank\[19\]\.u_ro\.u_buf
*4943 u_puf\.u_core\.g_ro_bank\[19\]\.u_ro\.u_nand
*4944 u_puf\.u_core\.g_ro_bank\[1\]\.u_ro\.g_inv\[10\]\.u_inv
*4945 u_puf\.u_core\.g_ro_bank\[1\]\.u_ro\.g_inv\[11\]\.u_inv
*4946 u_puf\.u_core\.g_ro_bank\[1\]\.u_ro\.g_inv\[12\]\.u_inv
*4947 u_puf\.u_core\.g_ro_bank\[1\]\.u_ro\.g_inv\[13\]\.u_inv
*4948 u_puf\.u_core\.g_ro_bank\[1\]\.u_ro\.g_inv\[14\]\.u_inv
*4949 u_puf\.u_core\.g_ro_bank\[1\]\.u_ro\.g_inv\[15\]\.u_inv
*4950 u_puf\.u_core\.g_ro_bank\[1\]\.u_ro\.g_inv\[16\]\.u_inv
*4951 u_puf\.u_core\.g_ro_bank\[1\]\.u_ro\.g_inv\[17\]\.u_inv
*4952 u_puf\.u_core\.g_ro_bank\[1\]\.u_ro\.g_inv\[18\]\.u_inv
*4953 u_puf\.u_core\.g_ro_bank\[1\]\.u_ro\.g_inv\[19\]\.u_inv
*4954 u_puf\.u_core\.g_ro_bank\[1\]\.u_ro\.g_inv\[1\]\.u_inv
*4955 u_puf\.u_core\.g_ro_bank\[1\]\.u_ro\.g_inv\[20\]\.u_inv
*4956 u_puf\.u_core\.g_ro_bank\[1\]\.u_ro\.g_inv\[21\]\.u_inv
*4957 u_puf\.u_core\.g_ro_bank\[1\]\.u_ro\.g_inv\[22\]\.u_inv
*4958 u_puf\.u_core\.g_ro_bank\[1\]\.u_ro\.g_inv\[23\]\.u_inv
*4959 u_puf\.u_core\.g_ro_bank\[1\]\.u_ro\.g_inv\[24\]\.u_inv
*4960 u_puf\.u_core\.g_ro_bank\[1\]\.u_ro\.g_inv\[25\]\.u_inv
*4961 u_puf\.u_core\.g_ro_bank\[1\]\.u_ro\.g_inv\[26\]\.u_inv
*4962 u_puf\.u_core\.g_ro_bank\[1\]\.u_ro\.g_inv\[27\]\.u_inv
*4963 u_puf\.u_core\.g_ro_bank\[1\]\.u_ro\.g_inv\[28\]\.u_inv
*4964 u_puf\.u_core\.g_ro_bank\[1\]\.u_ro\.g_inv\[29\]\.u_inv
*4965 u_puf\.u_core\.g_ro_bank\[1\]\.u_ro\.g_inv\[2\]\.u_inv
*4966 u_puf\.u_core\.g_ro_bank\[1\]\.u_ro\.g_inv\[30\]\.u_inv
*4967 u_puf\.u_core\.g_ro_bank\[1\]\.u_ro\.g_inv\[3\]\.u_inv
*4968 u_puf\.u_core\.g_ro_bank\[1\]\.u_ro\.g_inv\[4\]\.u_inv
*4969 u_puf\.u_core\.g_ro_bank\[1\]\.u_ro\.g_inv\[5\]\.u_inv
*4970 u_puf\.u_core\.g_ro_bank\[1\]\.u_ro\.g_inv\[6\]\.u_inv
*4971 u_puf\.u_core\.g_ro_bank\[1\]\.u_ro\.g_inv\[7\]\.u_inv
*4972 u_puf\.u_core\.g_ro_bank\[1\]\.u_ro\.g_inv\[8\]\.u_inv
*4973 u_puf\.u_core\.g_ro_bank\[1\]\.u_ro\.g_inv\[9\]\.u_inv
*4974 u_puf\.u_core\.g_ro_bank\[1\]\.u_ro\.u_buf
*4975 u_puf\.u_core\.g_ro_bank\[1\]\.u_ro\.u_nand
*4976 u_puf\.u_core\.g_ro_bank\[20\]\.u_ro\.g_inv\[10\]\.u_inv
*4977 u_puf\.u_core\.g_ro_bank\[20\]\.u_ro\.g_inv\[11\]\.u_inv
*4978 u_puf\.u_core\.g_ro_bank\[20\]\.u_ro\.g_inv\[12\]\.u_inv
*4979 u_puf\.u_core\.g_ro_bank\[20\]\.u_ro\.g_inv\[13\]\.u_inv
*4980 u_puf\.u_core\.g_ro_bank\[20\]\.u_ro\.g_inv\[14\]\.u_inv
*4981 u_puf\.u_core\.g_ro_bank\[20\]\.u_ro\.g_inv\[15\]\.u_inv
*4982 u_puf\.u_core\.g_ro_bank\[20\]\.u_ro\.g_inv\[16\]\.u_inv
*4983 u_puf\.u_core\.g_ro_bank\[20\]\.u_ro\.g_inv\[17\]\.u_inv
*4984 u_puf\.u_core\.g_ro_bank\[20\]\.u_ro\.g_inv\[18\]\.u_inv
*4985 u_puf\.u_core\.g_ro_bank\[20\]\.u_ro\.g_inv\[19\]\.u_inv
*4986 u_puf\.u_core\.g_ro_bank\[20\]\.u_ro\.g_inv\[1\]\.u_inv
*4987 u_puf\.u_core\.g_ro_bank\[20\]\.u_ro\.g_inv\[20\]\.u_inv
*4988 u_puf\.u_core\.g_ro_bank\[20\]\.u_ro\.g_inv\[21\]\.u_inv
*4989 u_puf\.u_core\.g_ro_bank\[20\]\.u_ro\.g_inv\[22\]\.u_inv
*4990 u_puf\.u_core\.g_ro_bank\[20\]\.u_ro\.g_inv\[23\]\.u_inv
*4991 u_puf\.u_core\.g_ro_bank\[20\]\.u_ro\.g_inv\[24\]\.u_inv
*4992 u_puf\.u_core\.g_ro_bank\[20\]\.u_ro\.g_inv\[25\]\.u_inv
*4993 u_puf\.u_core\.g_ro_bank\[20\]\.u_ro\.g_inv\[26\]\.u_inv
*4994 u_puf\.u_core\.g_ro_bank\[20\]\.u_ro\.g_inv\[27\]\.u_inv
*4995 u_puf\.u_core\.g_ro_bank\[20\]\.u_ro\.g_inv\[28\]\.u_inv
*4996 u_puf\.u_core\.g_ro_bank\[20\]\.u_ro\.g_inv\[29\]\.u_inv
*4997 u_puf\.u_core\.g_ro_bank\[20\]\.u_ro\.g_inv\[2\]\.u_inv
*4998 u_puf\.u_core\.g_ro_bank\[20\]\.u_ro\.g_inv\[30\]\.u_inv
*4999 u_puf\.u_core\.g_ro_bank\[20\]\.u_ro\.g_inv\[3\]\.u_inv
*5000 u_puf\.u_core\.g_ro_bank\[20\]\.u_ro\.g_inv\[4\]\.u_inv
*5001 u_puf\.u_core\.g_ro_bank\[20\]\.u_ro\.g_inv\[5\]\.u_inv
*5002 u_puf\.u_core\.g_ro_bank\[20\]\.u_ro\.g_inv\[6\]\.u_inv
*5003 u_puf\.u_core\.g_ro_bank\[20\]\.u_ro\.g_inv\[7\]\.u_inv
*5004 u_puf\.u_core\.g_ro_bank\[20\]\.u_ro\.g_inv\[8\]\.u_inv
*5005 u_puf\.u_core\.g_ro_bank\[20\]\.u_ro\.g_inv\[9\]\.u_inv
*5006 u_puf\.u_core\.g_ro_bank\[20\]\.u_ro\.u_buf
*5007 u_puf\.u_core\.g_ro_bank\[20\]\.u_ro\.u_nand
*5008 u_puf\.u_core\.g_ro_bank\[21\]\.u_ro\.g_inv\[10\]\.u_inv
*5009 u_puf\.u_core\.g_ro_bank\[21\]\.u_ro\.g_inv\[11\]\.u_inv
*5010 u_puf\.u_core\.g_ro_bank\[21\]\.u_ro\.g_inv\[12\]\.u_inv
*5011 u_puf\.u_core\.g_ro_bank\[21\]\.u_ro\.g_inv\[13\]\.u_inv
*5012 u_puf\.u_core\.g_ro_bank\[21\]\.u_ro\.g_inv\[14\]\.u_inv
*5013 u_puf\.u_core\.g_ro_bank\[21\]\.u_ro\.g_inv\[15\]\.u_inv
*5014 u_puf\.u_core\.g_ro_bank\[21\]\.u_ro\.g_inv\[16\]\.u_inv
*5015 u_puf\.u_core\.g_ro_bank\[21\]\.u_ro\.g_inv\[17\]\.u_inv
*5016 u_puf\.u_core\.g_ro_bank\[21\]\.u_ro\.g_inv\[18\]\.u_inv
*5017 u_puf\.u_core\.g_ro_bank\[21\]\.u_ro\.g_inv\[19\]\.u_inv
*5018 u_puf\.u_core\.g_ro_bank\[21\]\.u_ro\.g_inv\[1\]\.u_inv
*5019 u_puf\.u_core\.g_ro_bank\[21\]\.u_ro\.g_inv\[20\]\.u_inv
*5020 u_puf\.u_core\.g_ro_bank\[21\]\.u_ro\.g_inv\[21\]\.u_inv
*5021 u_puf\.u_core\.g_ro_bank\[21\]\.u_ro\.g_inv\[22\]\.u_inv
*5022 u_puf\.u_core\.g_ro_bank\[21\]\.u_ro\.g_inv\[23\]\.u_inv
*5023 u_puf\.u_core\.g_ro_bank\[21\]\.u_ro\.g_inv\[24\]\.u_inv
*5024 u_puf\.u_core\.g_ro_bank\[21\]\.u_ro\.g_inv\[25\]\.u_inv
*5025 u_puf\.u_core\.g_ro_bank\[21\]\.u_ro\.g_inv\[26\]\.u_inv
*5026 u_puf\.u_core\.g_ro_bank\[21\]\.u_ro\.g_inv\[27\]\.u_inv
*5027 u_puf\.u_core\.g_ro_bank\[21\]\.u_ro\.g_inv\[28\]\.u_inv
*5028 u_puf\.u_core\.g_ro_bank\[21\]\.u_ro\.g_inv\[29\]\.u_inv
*5029 u_puf\.u_core\.g_ro_bank\[21\]\.u_ro\.g_inv\[2\]\.u_inv
*5030 u_puf\.u_core\.g_ro_bank\[21\]\.u_ro\.g_inv\[30\]\.u_inv
*5031 u_puf\.u_core\.g_ro_bank\[21\]\.u_ro\.g_inv\[3\]\.u_inv
*5032 u_puf\.u_core\.g_ro_bank\[21\]\.u_ro\.g_inv\[4\]\.u_inv
*5033 u_puf\.u_core\.g_ro_bank\[21\]\.u_ro\.g_inv\[5\]\.u_inv
*5034 u_puf\.u_core\.g_ro_bank\[21\]\.u_ro\.g_inv\[6\]\.u_inv
*5035 u_puf\.u_core\.g_ro_bank\[21\]\.u_ro\.g_inv\[7\]\.u_inv
*5036 u_puf\.u_core\.g_ro_bank\[21\]\.u_ro\.g_inv\[8\]\.u_inv
*5037 u_puf\.u_core\.g_ro_bank\[21\]\.u_ro\.g_inv\[9\]\.u_inv
*5038 u_puf\.u_core\.g_ro_bank\[21\]\.u_ro\.u_buf
*5039 u_puf\.u_core\.g_ro_bank\[21\]\.u_ro\.u_nand
*5040 u_puf\.u_core\.g_ro_bank\[22\]\.u_ro\.g_inv\[10\]\.u_inv
*5041 u_puf\.u_core\.g_ro_bank\[22\]\.u_ro\.g_inv\[11\]\.u_inv
*5042 u_puf\.u_core\.g_ro_bank\[22\]\.u_ro\.g_inv\[12\]\.u_inv
*5043 u_puf\.u_core\.g_ro_bank\[22\]\.u_ro\.g_inv\[13\]\.u_inv
*5044 u_puf\.u_core\.g_ro_bank\[22\]\.u_ro\.g_inv\[14\]\.u_inv
*5045 u_puf\.u_core\.g_ro_bank\[22\]\.u_ro\.g_inv\[15\]\.u_inv
*5046 u_puf\.u_core\.g_ro_bank\[22\]\.u_ro\.g_inv\[16\]\.u_inv
*5047 u_puf\.u_core\.g_ro_bank\[22\]\.u_ro\.g_inv\[17\]\.u_inv
*5048 u_puf\.u_core\.g_ro_bank\[22\]\.u_ro\.g_inv\[18\]\.u_inv
*5049 u_puf\.u_core\.g_ro_bank\[22\]\.u_ro\.g_inv\[19\]\.u_inv
*5050 u_puf\.u_core\.g_ro_bank\[22\]\.u_ro\.g_inv\[1\]\.u_inv
*5051 u_puf\.u_core\.g_ro_bank\[22\]\.u_ro\.g_inv\[20\]\.u_inv
*5052 u_puf\.u_core\.g_ro_bank\[22\]\.u_ro\.g_inv\[21\]\.u_inv
*5053 u_puf\.u_core\.g_ro_bank\[22\]\.u_ro\.g_inv\[22\]\.u_inv
*5054 u_puf\.u_core\.g_ro_bank\[22\]\.u_ro\.g_inv\[23\]\.u_inv
*5055 u_puf\.u_core\.g_ro_bank\[22\]\.u_ro\.g_inv\[24\]\.u_inv
*5056 u_puf\.u_core\.g_ro_bank\[22\]\.u_ro\.g_inv\[25\]\.u_inv
*5057 u_puf\.u_core\.g_ro_bank\[22\]\.u_ro\.g_inv\[26\]\.u_inv
*5058 u_puf\.u_core\.g_ro_bank\[22\]\.u_ro\.g_inv\[27\]\.u_inv
*5059 u_puf\.u_core\.g_ro_bank\[22\]\.u_ro\.g_inv\[28\]\.u_inv
*5060 u_puf\.u_core\.g_ro_bank\[22\]\.u_ro\.g_inv\[29\]\.u_inv
*5061 u_puf\.u_core\.g_ro_bank\[22\]\.u_ro\.g_inv\[2\]\.u_inv
*5062 u_puf\.u_core\.g_ro_bank\[22\]\.u_ro\.g_inv\[30\]\.u_inv
*5063 u_puf\.u_core\.g_ro_bank\[22\]\.u_ro\.g_inv\[3\]\.u_inv
*5064 u_puf\.u_core\.g_ro_bank\[22\]\.u_ro\.g_inv\[4\]\.u_inv
*5065 u_puf\.u_core\.g_ro_bank\[22\]\.u_ro\.g_inv\[5\]\.u_inv
*5066 u_puf\.u_core\.g_ro_bank\[22\]\.u_ro\.g_inv\[6\]\.u_inv
*5067 u_puf\.u_core\.g_ro_bank\[22\]\.u_ro\.g_inv\[7\]\.u_inv
*5068 u_puf\.u_core\.g_ro_bank\[22\]\.u_ro\.g_inv\[8\]\.u_inv
*5069 u_puf\.u_core\.g_ro_bank\[22\]\.u_ro\.g_inv\[9\]\.u_inv
*5070 u_puf\.u_core\.g_ro_bank\[22\]\.u_ro\.u_buf
*5071 u_puf\.u_core\.g_ro_bank\[22\]\.u_ro\.u_nand
*5072 u_puf\.u_core\.g_ro_bank\[23\]\.u_ro\.g_inv\[10\]\.u_inv
*5073 u_puf\.u_core\.g_ro_bank\[23\]\.u_ro\.g_inv\[11\]\.u_inv
*5074 u_puf\.u_core\.g_ro_bank\[23\]\.u_ro\.g_inv\[12\]\.u_inv
*5075 u_puf\.u_core\.g_ro_bank\[23\]\.u_ro\.g_inv\[13\]\.u_inv
*5076 u_puf\.u_core\.g_ro_bank\[23\]\.u_ro\.g_inv\[14\]\.u_inv
*5077 u_puf\.u_core\.g_ro_bank\[23\]\.u_ro\.g_inv\[15\]\.u_inv
*5078 u_puf\.u_core\.g_ro_bank\[23\]\.u_ro\.g_inv\[16\]\.u_inv
*5079 u_puf\.u_core\.g_ro_bank\[23\]\.u_ro\.g_inv\[17\]\.u_inv
*5080 u_puf\.u_core\.g_ro_bank\[23\]\.u_ro\.g_inv\[18\]\.u_inv
*5081 u_puf\.u_core\.g_ro_bank\[23\]\.u_ro\.g_inv\[19\]\.u_inv
*5082 u_puf\.u_core\.g_ro_bank\[23\]\.u_ro\.g_inv\[1\]\.u_inv
*5083 u_puf\.u_core\.g_ro_bank\[23\]\.u_ro\.g_inv\[20\]\.u_inv
*5084 u_puf\.u_core\.g_ro_bank\[23\]\.u_ro\.g_inv\[21\]\.u_inv
*5085 u_puf\.u_core\.g_ro_bank\[23\]\.u_ro\.g_inv\[22\]\.u_inv
*5086 u_puf\.u_core\.g_ro_bank\[23\]\.u_ro\.g_inv\[23\]\.u_inv
*5087 u_puf\.u_core\.g_ro_bank\[23\]\.u_ro\.g_inv\[24\]\.u_inv
*5088 u_puf\.u_core\.g_ro_bank\[23\]\.u_ro\.g_inv\[25\]\.u_inv
*5089 u_puf\.u_core\.g_ro_bank\[23\]\.u_ro\.g_inv\[26\]\.u_inv
*5090 u_puf\.u_core\.g_ro_bank\[23\]\.u_ro\.g_inv\[27\]\.u_inv
*5091 u_puf\.u_core\.g_ro_bank\[23\]\.u_ro\.g_inv\[28\]\.u_inv
*5092 u_puf\.u_core\.g_ro_bank\[23\]\.u_ro\.g_inv\[29\]\.u_inv
*5093 u_puf\.u_core\.g_ro_bank\[23\]\.u_ro\.g_inv\[2\]\.u_inv
*5094 u_puf\.u_core\.g_ro_bank\[23\]\.u_ro\.g_inv\[30\]\.u_inv
*5095 u_puf\.u_core\.g_ro_bank\[23\]\.u_ro\.g_inv\[3\]\.u_inv
*5096 u_puf\.u_core\.g_ro_bank\[23\]\.u_ro\.g_inv\[4\]\.u_inv
*5097 u_puf\.u_core\.g_ro_bank\[23\]\.u_ro\.g_inv\[5\]\.u_inv
*5098 u_puf\.u_core\.g_ro_bank\[23\]\.u_ro\.g_inv\[6\]\.u_inv
*5099 u_puf\.u_core\.g_ro_bank\[23\]\.u_ro\.g_inv\[7\]\.u_inv
*5100 u_puf\.u_core\.g_ro_bank\[23\]\.u_ro\.g_inv\[8\]\.u_inv
*5101 u_puf\.u_core\.g_ro_bank\[23\]\.u_ro\.g_inv\[9\]\.u_inv
*5102 u_puf\.u_core\.g_ro_bank\[23\]\.u_ro\.u_buf
*5103 u_puf\.u_core\.g_ro_bank\[23\]\.u_ro\.u_nand
*5104 u_puf\.u_core\.g_ro_bank\[24\]\.u_ro\.g_inv\[10\]\.u_inv
*5105 u_puf\.u_core\.g_ro_bank\[24\]\.u_ro\.g_inv\[11\]\.u_inv
*5106 u_puf\.u_core\.g_ro_bank\[24\]\.u_ro\.g_inv\[12\]\.u_inv
*5107 u_puf\.u_core\.g_ro_bank\[24\]\.u_ro\.g_inv\[13\]\.u_inv
*5108 u_puf\.u_core\.g_ro_bank\[24\]\.u_ro\.g_inv\[14\]\.u_inv
*5109 u_puf\.u_core\.g_ro_bank\[24\]\.u_ro\.g_inv\[15\]\.u_inv
*5110 u_puf\.u_core\.g_ro_bank\[24\]\.u_ro\.g_inv\[16\]\.u_inv
*5111 u_puf\.u_core\.g_ro_bank\[24\]\.u_ro\.g_inv\[17\]\.u_inv
*5112 u_puf\.u_core\.g_ro_bank\[24\]\.u_ro\.g_inv\[18\]\.u_inv
*5113 u_puf\.u_core\.g_ro_bank\[24\]\.u_ro\.g_inv\[19\]\.u_inv
*5114 u_puf\.u_core\.g_ro_bank\[24\]\.u_ro\.g_inv\[1\]\.u_inv
*5115 u_puf\.u_core\.g_ro_bank\[24\]\.u_ro\.g_inv\[20\]\.u_inv
*5116 u_puf\.u_core\.g_ro_bank\[24\]\.u_ro\.g_inv\[21\]\.u_inv
*5117 u_puf\.u_core\.g_ro_bank\[24\]\.u_ro\.g_inv\[22\]\.u_inv
*5118 u_puf\.u_core\.g_ro_bank\[24\]\.u_ro\.g_inv\[23\]\.u_inv
*5119 u_puf\.u_core\.g_ro_bank\[24\]\.u_ro\.g_inv\[24\]\.u_inv
*5120 u_puf\.u_core\.g_ro_bank\[24\]\.u_ro\.g_inv\[25\]\.u_inv
*5121 u_puf\.u_core\.g_ro_bank\[24\]\.u_ro\.g_inv\[26\]\.u_inv
*5122 u_puf\.u_core\.g_ro_bank\[24\]\.u_ro\.g_inv\[27\]\.u_inv
*5123 u_puf\.u_core\.g_ro_bank\[24\]\.u_ro\.g_inv\[28\]\.u_inv
*5124 u_puf\.u_core\.g_ro_bank\[24\]\.u_ro\.g_inv\[29\]\.u_inv
*5125 u_puf\.u_core\.g_ro_bank\[24\]\.u_ro\.g_inv\[2\]\.u_inv
*5126 u_puf\.u_core\.g_ro_bank\[24\]\.u_ro\.g_inv\[30\]\.u_inv
*5127 u_puf\.u_core\.g_ro_bank\[24\]\.u_ro\.g_inv\[3\]\.u_inv
*5128 u_puf\.u_core\.g_ro_bank\[24\]\.u_ro\.g_inv\[4\]\.u_inv
*5129 u_puf\.u_core\.g_ro_bank\[24\]\.u_ro\.g_inv\[5\]\.u_inv
*5130 u_puf\.u_core\.g_ro_bank\[24\]\.u_ro\.g_inv\[6\]\.u_inv
*5131 u_puf\.u_core\.g_ro_bank\[24\]\.u_ro\.g_inv\[7\]\.u_inv
*5132 u_puf\.u_core\.g_ro_bank\[24\]\.u_ro\.g_inv\[8\]\.u_inv
*5133 u_puf\.u_core\.g_ro_bank\[24\]\.u_ro\.g_inv\[9\]\.u_inv
*5134 u_puf\.u_core\.g_ro_bank\[24\]\.u_ro\.u_buf
*5135 u_puf\.u_core\.g_ro_bank\[24\]\.u_ro\.u_nand
*5136 u_puf\.u_core\.g_ro_bank\[25\]\.u_ro\.g_inv\[10\]\.u_inv
*5137 u_puf\.u_core\.g_ro_bank\[25\]\.u_ro\.g_inv\[11\]\.u_inv
*5138 u_puf\.u_core\.g_ro_bank\[25\]\.u_ro\.g_inv\[12\]\.u_inv
*5139 u_puf\.u_core\.g_ro_bank\[25\]\.u_ro\.g_inv\[13\]\.u_inv
*5140 u_puf\.u_core\.g_ro_bank\[25\]\.u_ro\.g_inv\[14\]\.u_inv
*5141 u_puf\.u_core\.g_ro_bank\[25\]\.u_ro\.g_inv\[15\]\.u_inv
*5142 u_puf\.u_core\.g_ro_bank\[25\]\.u_ro\.g_inv\[16\]\.u_inv
*5143 u_puf\.u_core\.g_ro_bank\[25\]\.u_ro\.g_inv\[17\]\.u_inv
*5144 u_puf\.u_core\.g_ro_bank\[25\]\.u_ro\.g_inv\[18\]\.u_inv
*5145 u_puf\.u_core\.g_ro_bank\[25\]\.u_ro\.g_inv\[19\]\.u_inv
*5146 u_puf\.u_core\.g_ro_bank\[25\]\.u_ro\.g_inv\[1\]\.u_inv
*5147 u_puf\.u_core\.g_ro_bank\[25\]\.u_ro\.g_inv\[20\]\.u_inv
*5148 u_puf\.u_core\.g_ro_bank\[25\]\.u_ro\.g_inv\[21\]\.u_inv
*5149 u_puf\.u_core\.g_ro_bank\[25\]\.u_ro\.g_inv\[22\]\.u_inv
*5150 u_puf\.u_core\.g_ro_bank\[25\]\.u_ro\.g_inv\[23\]\.u_inv
*5151 u_puf\.u_core\.g_ro_bank\[25\]\.u_ro\.g_inv\[24\]\.u_inv
*5152 u_puf\.u_core\.g_ro_bank\[25\]\.u_ro\.g_inv\[25\]\.u_inv
*5153 u_puf\.u_core\.g_ro_bank\[25\]\.u_ro\.g_inv\[26\]\.u_inv
*5154 u_puf\.u_core\.g_ro_bank\[25\]\.u_ro\.g_inv\[27\]\.u_inv
*5155 u_puf\.u_core\.g_ro_bank\[25\]\.u_ro\.g_inv\[28\]\.u_inv
*5156 u_puf\.u_core\.g_ro_bank\[25\]\.u_ro\.g_inv\[29\]\.u_inv
*5157 u_puf\.u_core\.g_ro_bank\[25\]\.u_ro\.g_inv\[2\]\.u_inv
*5158 u_puf\.u_core\.g_ro_bank\[25\]\.u_ro\.g_inv\[30\]\.u_inv
*5159 u_puf\.u_core\.g_ro_bank\[25\]\.u_ro\.g_inv\[3\]\.u_inv
*5160 u_puf\.u_core\.g_ro_bank\[25\]\.u_ro\.g_inv\[4\]\.u_inv
*5161 u_puf\.u_core\.g_ro_bank\[25\]\.u_ro\.g_inv\[5\]\.u_inv
*5162 u_puf\.u_core\.g_ro_bank\[25\]\.u_ro\.g_inv\[6\]\.u_inv
*5163 u_puf\.u_core\.g_ro_bank\[25\]\.u_ro\.g_inv\[7\]\.u_inv
*5164 u_puf\.u_core\.g_ro_bank\[25\]\.u_ro\.g_inv\[8\]\.u_inv
*5165 u_puf\.u_core\.g_ro_bank\[25\]\.u_ro\.g_inv\[9\]\.u_inv
*5166 u_puf\.u_core\.g_ro_bank\[25\]\.u_ro\.u_buf
*5167 u_puf\.u_core\.g_ro_bank\[25\]\.u_ro\.u_nand
*5168 u_puf\.u_core\.g_ro_bank\[26\]\.u_ro\.g_inv\[10\]\.u_inv
*5169 u_puf\.u_core\.g_ro_bank\[26\]\.u_ro\.g_inv\[11\]\.u_inv
*5170 u_puf\.u_core\.g_ro_bank\[26\]\.u_ro\.g_inv\[12\]\.u_inv
*5171 u_puf\.u_core\.g_ro_bank\[26\]\.u_ro\.g_inv\[13\]\.u_inv
*5172 u_puf\.u_core\.g_ro_bank\[26\]\.u_ro\.g_inv\[14\]\.u_inv
*5173 u_puf\.u_core\.g_ro_bank\[26\]\.u_ro\.g_inv\[15\]\.u_inv
*5174 u_puf\.u_core\.g_ro_bank\[26\]\.u_ro\.g_inv\[16\]\.u_inv
*5175 u_puf\.u_core\.g_ro_bank\[26\]\.u_ro\.g_inv\[17\]\.u_inv
*5176 u_puf\.u_core\.g_ro_bank\[26\]\.u_ro\.g_inv\[18\]\.u_inv
*5177 u_puf\.u_core\.g_ro_bank\[26\]\.u_ro\.g_inv\[19\]\.u_inv
*5178 u_puf\.u_core\.g_ro_bank\[26\]\.u_ro\.g_inv\[1\]\.u_inv
*5179 u_puf\.u_core\.g_ro_bank\[26\]\.u_ro\.g_inv\[20\]\.u_inv
*5180 u_puf\.u_core\.g_ro_bank\[26\]\.u_ro\.g_inv\[21\]\.u_inv
*5181 u_puf\.u_core\.g_ro_bank\[26\]\.u_ro\.g_inv\[22\]\.u_inv
*5182 u_puf\.u_core\.g_ro_bank\[26\]\.u_ro\.g_inv\[23\]\.u_inv
*5183 u_puf\.u_core\.g_ro_bank\[26\]\.u_ro\.g_inv\[24\]\.u_inv
*5184 u_puf\.u_core\.g_ro_bank\[26\]\.u_ro\.g_inv\[25\]\.u_inv
*5185 u_puf\.u_core\.g_ro_bank\[26\]\.u_ro\.g_inv\[26\]\.u_inv
*5186 u_puf\.u_core\.g_ro_bank\[26\]\.u_ro\.g_inv\[27\]\.u_inv
*5187 u_puf\.u_core\.g_ro_bank\[26\]\.u_ro\.g_inv\[28\]\.u_inv
*5188 u_puf\.u_core\.g_ro_bank\[26\]\.u_ro\.g_inv\[29\]\.u_inv
*5189 u_puf\.u_core\.g_ro_bank\[26\]\.u_ro\.g_inv\[2\]\.u_inv
*5190 u_puf\.u_core\.g_ro_bank\[26\]\.u_ro\.g_inv\[30\]\.u_inv
*5191 u_puf\.u_core\.g_ro_bank\[26\]\.u_ro\.g_inv\[3\]\.u_inv
*5192 u_puf\.u_core\.g_ro_bank\[26\]\.u_ro\.g_inv\[4\]\.u_inv
*5193 u_puf\.u_core\.g_ro_bank\[26\]\.u_ro\.g_inv\[5\]\.u_inv
*5194 u_puf\.u_core\.g_ro_bank\[26\]\.u_ro\.g_inv\[6\]\.u_inv
*5195 u_puf\.u_core\.g_ro_bank\[26\]\.u_ro\.g_inv\[7\]\.u_inv
*5196 u_puf\.u_core\.g_ro_bank\[26\]\.u_ro\.g_inv\[8\]\.u_inv
*5197 u_puf\.u_core\.g_ro_bank\[26\]\.u_ro\.g_inv\[9\]\.u_inv
*5198 u_puf\.u_core\.g_ro_bank\[26\]\.u_ro\.u_buf
*5199 u_puf\.u_core\.g_ro_bank\[26\]\.u_ro\.u_nand
*5200 u_puf\.u_core\.g_ro_bank\[27\]\.u_ro\.g_inv\[10\]\.u_inv
*5201 u_puf\.u_core\.g_ro_bank\[27\]\.u_ro\.g_inv\[11\]\.u_inv
*5202 u_puf\.u_core\.g_ro_bank\[27\]\.u_ro\.g_inv\[12\]\.u_inv
*5203 u_puf\.u_core\.g_ro_bank\[27\]\.u_ro\.g_inv\[13\]\.u_inv
*5204 u_puf\.u_core\.g_ro_bank\[27\]\.u_ro\.g_inv\[14\]\.u_inv
*5205 u_puf\.u_core\.g_ro_bank\[27\]\.u_ro\.g_inv\[15\]\.u_inv
*5206 u_puf\.u_core\.g_ro_bank\[27\]\.u_ro\.g_inv\[16\]\.u_inv
*5207 u_puf\.u_core\.g_ro_bank\[27\]\.u_ro\.g_inv\[17\]\.u_inv
*5208 u_puf\.u_core\.g_ro_bank\[27\]\.u_ro\.g_inv\[18\]\.u_inv
*5209 u_puf\.u_core\.g_ro_bank\[27\]\.u_ro\.g_inv\[19\]\.u_inv
*5210 u_puf\.u_core\.g_ro_bank\[27\]\.u_ro\.g_inv\[1\]\.u_inv
*5211 u_puf\.u_core\.g_ro_bank\[27\]\.u_ro\.g_inv\[20\]\.u_inv
*5212 u_puf\.u_core\.g_ro_bank\[27\]\.u_ro\.g_inv\[21\]\.u_inv
*5213 u_puf\.u_core\.g_ro_bank\[27\]\.u_ro\.g_inv\[22\]\.u_inv
*5214 u_puf\.u_core\.g_ro_bank\[27\]\.u_ro\.g_inv\[23\]\.u_inv
*5215 u_puf\.u_core\.g_ro_bank\[27\]\.u_ro\.g_inv\[24\]\.u_inv
*5216 u_puf\.u_core\.g_ro_bank\[27\]\.u_ro\.g_inv\[25\]\.u_inv
*5217 u_puf\.u_core\.g_ro_bank\[27\]\.u_ro\.g_inv\[26\]\.u_inv
*5218 u_puf\.u_core\.g_ro_bank\[27\]\.u_ro\.g_inv\[27\]\.u_inv
*5219 u_puf\.u_core\.g_ro_bank\[27\]\.u_ro\.g_inv\[28\]\.u_inv
*5220 u_puf\.u_core\.g_ro_bank\[27\]\.u_ro\.g_inv\[29\]\.u_inv
*5221 u_puf\.u_core\.g_ro_bank\[27\]\.u_ro\.g_inv\[2\]\.u_inv
*5222 u_puf\.u_core\.g_ro_bank\[27\]\.u_ro\.g_inv\[30\]\.u_inv
*5223 u_puf\.u_core\.g_ro_bank\[27\]\.u_ro\.g_inv\[3\]\.u_inv
*5224 u_puf\.u_core\.g_ro_bank\[27\]\.u_ro\.g_inv\[4\]\.u_inv
*5225 u_puf\.u_core\.g_ro_bank\[27\]\.u_ro\.g_inv\[5\]\.u_inv
*5226 u_puf\.u_core\.g_ro_bank\[27\]\.u_ro\.g_inv\[6\]\.u_inv
*5227 u_puf\.u_core\.g_ro_bank\[27\]\.u_ro\.g_inv\[7\]\.u_inv
*5228 u_puf\.u_core\.g_ro_bank\[27\]\.u_ro\.g_inv\[8\]\.u_inv
*5229 u_puf\.u_core\.g_ro_bank\[27\]\.u_ro\.g_inv\[9\]\.u_inv
*5230 u_puf\.u_core\.g_ro_bank\[27\]\.u_ro\.u_buf
*5231 u_puf\.u_core\.g_ro_bank\[27\]\.u_ro\.u_nand
*5232 u_puf\.u_core\.g_ro_bank\[28\]\.u_ro\.g_inv\[10\]\.u_inv
*5233 u_puf\.u_core\.g_ro_bank\[28\]\.u_ro\.g_inv\[11\]\.u_inv
*5234 u_puf\.u_core\.g_ro_bank\[28\]\.u_ro\.g_inv\[12\]\.u_inv
*5235 u_puf\.u_core\.g_ro_bank\[28\]\.u_ro\.g_inv\[13\]\.u_inv
*5236 u_puf\.u_core\.g_ro_bank\[28\]\.u_ro\.g_inv\[14\]\.u_inv
*5237 u_puf\.u_core\.g_ro_bank\[28\]\.u_ro\.g_inv\[15\]\.u_inv
*5238 u_puf\.u_core\.g_ro_bank\[28\]\.u_ro\.g_inv\[16\]\.u_inv
*5239 u_puf\.u_core\.g_ro_bank\[28\]\.u_ro\.g_inv\[17\]\.u_inv
*5240 u_puf\.u_core\.g_ro_bank\[28\]\.u_ro\.g_inv\[18\]\.u_inv
*5241 u_puf\.u_core\.g_ro_bank\[28\]\.u_ro\.g_inv\[19\]\.u_inv
*5242 u_puf\.u_core\.g_ro_bank\[28\]\.u_ro\.g_inv\[1\]\.u_inv
*5243 u_puf\.u_core\.g_ro_bank\[28\]\.u_ro\.g_inv\[20\]\.u_inv
*5244 u_puf\.u_core\.g_ro_bank\[28\]\.u_ro\.g_inv\[21\]\.u_inv
*5245 u_puf\.u_core\.g_ro_bank\[28\]\.u_ro\.g_inv\[22\]\.u_inv
*5246 u_puf\.u_core\.g_ro_bank\[28\]\.u_ro\.g_inv\[23\]\.u_inv
*5247 u_puf\.u_core\.g_ro_bank\[28\]\.u_ro\.g_inv\[24\]\.u_inv
*5248 u_puf\.u_core\.g_ro_bank\[28\]\.u_ro\.g_inv\[25\]\.u_inv
*5249 u_puf\.u_core\.g_ro_bank\[28\]\.u_ro\.g_inv\[26\]\.u_inv
*5250 u_puf\.u_core\.g_ro_bank\[28\]\.u_ro\.g_inv\[27\]\.u_inv
*5251 u_puf\.u_core\.g_ro_bank\[28\]\.u_ro\.g_inv\[28\]\.u_inv
*5252 u_puf\.u_core\.g_ro_bank\[28\]\.u_ro\.g_inv\[29\]\.u_inv
*5253 u_puf\.u_core\.g_ro_bank\[28\]\.u_ro\.g_inv\[2\]\.u_inv
*5254 u_puf\.u_core\.g_ro_bank\[28\]\.u_ro\.g_inv\[30\]\.u_inv
*5255 u_puf\.u_core\.g_ro_bank\[28\]\.u_ro\.g_inv\[3\]\.u_inv
*5256 u_puf\.u_core\.g_ro_bank\[28\]\.u_ro\.g_inv\[4\]\.u_inv
*5257 u_puf\.u_core\.g_ro_bank\[28\]\.u_ro\.g_inv\[5\]\.u_inv
*5258 u_puf\.u_core\.g_ro_bank\[28\]\.u_ro\.g_inv\[6\]\.u_inv
*5259 u_puf\.u_core\.g_ro_bank\[28\]\.u_ro\.g_inv\[7\]\.u_inv
*5260 u_puf\.u_core\.g_ro_bank\[28\]\.u_ro\.g_inv\[8\]\.u_inv
*5261 u_puf\.u_core\.g_ro_bank\[28\]\.u_ro\.g_inv\[9\]\.u_inv
*5262 u_puf\.u_core\.g_ro_bank\[28\]\.u_ro\.u_buf
*5263 u_puf\.u_core\.g_ro_bank\[28\]\.u_ro\.u_nand
*5264 u_puf\.u_core\.g_ro_bank\[29\]\.u_ro\.g_inv\[10\]\.u_inv
*5265 u_puf\.u_core\.g_ro_bank\[29\]\.u_ro\.g_inv\[11\]\.u_inv
*5266 u_puf\.u_core\.g_ro_bank\[29\]\.u_ro\.g_inv\[12\]\.u_inv
*5267 u_puf\.u_core\.g_ro_bank\[29\]\.u_ro\.g_inv\[13\]\.u_inv
*5268 u_puf\.u_core\.g_ro_bank\[29\]\.u_ro\.g_inv\[14\]\.u_inv
*5269 u_puf\.u_core\.g_ro_bank\[29\]\.u_ro\.g_inv\[15\]\.u_inv
*5270 u_puf\.u_core\.g_ro_bank\[29\]\.u_ro\.g_inv\[16\]\.u_inv
*5271 u_puf\.u_core\.g_ro_bank\[29\]\.u_ro\.g_inv\[17\]\.u_inv
*5272 u_puf\.u_core\.g_ro_bank\[29\]\.u_ro\.g_inv\[18\]\.u_inv
*5273 u_puf\.u_core\.g_ro_bank\[29\]\.u_ro\.g_inv\[19\]\.u_inv
*5274 u_puf\.u_core\.g_ro_bank\[29\]\.u_ro\.g_inv\[1\]\.u_inv
*5275 u_puf\.u_core\.g_ro_bank\[29\]\.u_ro\.g_inv\[20\]\.u_inv
*5276 u_puf\.u_core\.g_ro_bank\[29\]\.u_ro\.g_inv\[21\]\.u_inv
*5277 u_puf\.u_core\.g_ro_bank\[29\]\.u_ro\.g_inv\[22\]\.u_inv
*5278 u_puf\.u_core\.g_ro_bank\[29\]\.u_ro\.g_inv\[23\]\.u_inv
*5279 u_puf\.u_core\.g_ro_bank\[29\]\.u_ro\.g_inv\[24\]\.u_inv
*5280 u_puf\.u_core\.g_ro_bank\[29\]\.u_ro\.g_inv\[25\]\.u_inv
*5281 u_puf\.u_core\.g_ro_bank\[29\]\.u_ro\.g_inv\[26\]\.u_inv
*5282 u_puf\.u_core\.g_ro_bank\[29\]\.u_ro\.g_inv\[27\]\.u_inv
*5283 u_puf\.u_core\.g_ro_bank\[29\]\.u_ro\.g_inv\[28\]\.u_inv
*5284 u_puf\.u_core\.g_ro_bank\[29\]\.u_ro\.g_inv\[29\]\.u_inv
*5285 u_puf\.u_core\.g_ro_bank\[29\]\.u_ro\.g_inv\[2\]\.u_inv
*5286 u_puf\.u_core\.g_ro_bank\[29\]\.u_ro\.g_inv\[30\]\.u_inv
*5287 u_puf\.u_core\.g_ro_bank\[29\]\.u_ro\.g_inv\[3\]\.u_inv
*5288 u_puf\.u_core\.g_ro_bank\[29\]\.u_ro\.g_inv\[4\]\.u_inv
*5289 u_puf\.u_core\.g_ro_bank\[29\]\.u_ro\.g_inv\[5\]\.u_inv
*5290 u_puf\.u_core\.g_ro_bank\[29\]\.u_ro\.g_inv\[6\]\.u_inv
*5291 u_puf\.u_core\.g_ro_bank\[29\]\.u_ro\.g_inv\[7\]\.u_inv
*5292 u_puf\.u_core\.g_ro_bank\[29\]\.u_ro\.g_inv\[8\]\.u_inv
*5293 u_puf\.u_core\.g_ro_bank\[29\]\.u_ro\.g_inv\[9\]\.u_inv
*5294 u_puf\.u_core\.g_ro_bank\[29\]\.u_ro\.u_buf
*5295 u_puf\.u_core\.g_ro_bank\[29\]\.u_ro\.u_nand
*5296 u_puf\.u_core\.g_ro_bank\[2\]\.u_ro\.g_inv\[10\]\.u_inv
*5297 u_puf\.u_core\.g_ro_bank\[2\]\.u_ro\.g_inv\[11\]\.u_inv
*5298 u_puf\.u_core\.g_ro_bank\[2\]\.u_ro\.g_inv\[12\]\.u_inv
*5299 u_puf\.u_core\.g_ro_bank\[2\]\.u_ro\.g_inv\[13\]\.u_inv
*5300 u_puf\.u_core\.g_ro_bank\[2\]\.u_ro\.g_inv\[14\]\.u_inv
*5301 u_puf\.u_core\.g_ro_bank\[2\]\.u_ro\.g_inv\[15\]\.u_inv
*5302 u_puf\.u_core\.g_ro_bank\[2\]\.u_ro\.g_inv\[16\]\.u_inv
*5303 u_puf\.u_core\.g_ro_bank\[2\]\.u_ro\.g_inv\[17\]\.u_inv
*5304 u_puf\.u_core\.g_ro_bank\[2\]\.u_ro\.g_inv\[18\]\.u_inv
*5305 u_puf\.u_core\.g_ro_bank\[2\]\.u_ro\.g_inv\[19\]\.u_inv
*5306 u_puf\.u_core\.g_ro_bank\[2\]\.u_ro\.g_inv\[1\]\.u_inv
*5307 u_puf\.u_core\.g_ro_bank\[2\]\.u_ro\.g_inv\[20\]\.u_inv
*5308 u_puf\.u_core\.g_ro_bank\[2\]\.u_ro\.g_inv\[21\]\.u_inv
*5309 u_puf\.u_core\.g_ro_bank\[2\]\.u_ro\.g_inv\[22\]\.u_inv
*5310 u_puf\.u_core\.g_ro_bank\[2\]\.u_ro\.g_inv\[23\]\.u_inv
*5311 u_puf\.u_core\.g_ro_bank\[2\]\.u_ro\.g_inv\[24\]\.u_inv
*5312 u_puf\.u_core\.g_ro_bank\[2\]\.u_ro\.g_inv\[25\]\.u_inv
*5313 u_puf\.u_core\.g_ro_bank\[2\]\.u_ro\.g_inv\[26\]\.u_inv
*5314 u_puf\.u_core\.g_ro_bank\[2\]\.u_ro\.g_inv\[27\]\.u_inv
*5315 u_puf\.u_core\.g_ro_bank\[2\]\.u_ro\.g_inv\[28\]\.u_inv
*5316 u_puf\.u_core\.g_ro_bank\[2\]\.u_ro\.g_inv\[29\]\.u_inv
*5317 u_puf\.u_core\.g_ro_bank\[2\]\.u_ro\.g_inv\[2\]\.u_inv
*5318 u_puf\.u_core\.g_ro_bank\[2\]\.u_ro\.g_inv\[30\]\.u_inv
*5319 u_puf\.u_core\.g_ro_bank\[2\]\.u_ro\.g_inv\[3\]\.u_inv
*5320 u_puf\.u_core\.g_ro_bank\[2\]\.u_ro\.g_inv\[4\]\.u_inv
*5321 u_puf\.u_core\.g_ro_bank\[2\]\.u_ro\.g_inv\[5\]\.u_inv
*5322 u_puf\.u_core\.g_ro_bank\[2\]\.u_ro\.g_inv\[6\]\.u_inv
*5323 u_puf\.u_core\.g_ro_bank\[2\]\.u_ro\.g_inv\[7\]\.u_inv
*5324 u_puf\.u_core\.g_ro_bank\[2\]\.u_ro\.g_inv\[8\]\.u_inv
*5325 u_puf\.u_core\.g_ro_bank\[2\]\.u_ro\.g_inv\[9\]\.u_inv
*5326 u_puf\.u_core\.g_ro_bank\[2\]\.u_ro\.u_buf
*5327 u_puf\.u_core\.g_ro_bank\[2\]\.u_ro\.u_nand
*5328 u_puf\.u_core\.g_ro_bank\[30\]\.u_ro\.g_inv\[10\]\.u_inv
*5329 u_puf\.u_core\.g_ro_bank\[30\]\.u_ro\.g_inv\[11\]\.u_inv
*5330 u_puf\.u_core\.g_ro_bank\[30\]\.u_ro\.g_inv\[12\]\.u_inv
*5331 u_puf\.u_core\.g_ro_bank\[30\]\.u_ro\.g_inv\[13\]\.u_inv
*5332 u_puf\.u_core\.g_ro_bank\[30\]\.u_ro\.g_inv\[14\]\.u_inv
*5333 u_puf\.u_core\.g_ro_bank\[30\]\.u_ro\.g_inv\[15\]\.u_inv
*5334 u_puf\.u_core\.g_ro_bank\[30\]\.u_ro\.g_inv\[16\]\.u_inv
*5335 u_puf\.u_core\.g_ro_bank\[30\]\.u_ro\.g_inv\[17\]\.u_inv
*5336 u_puf\.u_core\.g_ro_bank\[30\]\.u_ro\.g_inv\[18\]\.u_inv
*5337 u_puf\.u_core\.g_ro_bank\[30\]\.u_ro\.g_inv\[19\]\.u_inv
*5338 u_puf\.u_core\.g_ro_bank\[30\]\.u_ro\.g_inv\[1\]\.u_inv
*5339 u_puf\.u_core\.g_ro_bank\[30\]\.u_ro\.g_inv\[20\]\.u_inv
*5340 u_puf\.u_core\.g_ro_bank\[30\]\.u_ro\.g_inv\[21\]\.u_inv
*5341 u_puf\.u_core\.g_ro_bank\[30\]\.u_ro\.g_inv\[22\]\.u_inv
*5342 u_puf\.u_core\.g_ro_bank\[30\]\.u_ro\.g_inv\[23\]\.u_inv
*5343 u_puf\.u_core\.g_ro_bank\[30\]\.u_ro\.g_inv\[24\]\.u_inv
*5344 u_puf\.u_core\.g_ro_bank\[30\]\.u_ro\.g_inv\[25\]\.u_inv
*5345 u_puf\.u_core\.g_ro_bank\[30\]\.u_ro\.g_inv\[26\]\.u_inv
*5346 u_puf\.u_core\.g_ro_bank\[30\]\.u_ro\.g_inv\[27\]\.u_inv
*5347 u_puf\.u_core\.g_ro_bank\[30\]\.u_ro\.g_inv\[28\]\.u_inv
*5348 u_puf\.u_core\.g_ro_bank\[30\]\.u_ro\.g_inv\[29\]\.u_inv
*5349 u_puf\.u_core\.g_ro_bank\[30\]\.u_ro\.g_inv\[2\]\.u_inv
*5350 u_puf\.u_core\.g_ro_bank\[30\]\.u_ro\.g_inv\[30\]\.u_inv
*5351 u_puf\.u_core\.g_ro_bank\[30\]\.u_ro\.g_inv\[3\]\.u_inv
*5352 u_puf\.u_core\.g_ro_bank\[30\]\.u_ro\.g_inv\[4\]\.u_inv
*5353 u_puf\.u_core\.g_ro_bank\[30\]\.u_ro\.g_inv\[5\]\.u_inv
*5354 u_puf\.u_core\.g_ro_bank\[30\]\.u_ro\.g_inv\[6\]\.u_inv
*5355 u_puf\.u_core\.g_ro_bank\[30\]\.u_ro\.g_inv\[7\]\.u_inv
*5356 u_puf\.u_core\.g_ro_bank\[30\]\.u_ro\.g_inv\[8\]\.u_inv
*5357 u_puf\.u_core\.g_ro_bank\[30\]\.u_ro\.g_inv\[9\]\.u_inv
*5358 u_puf\.u_core\.g_ro_bank\[30\]\.u_ro\.u_buf
*5359 u_puf\.u_core\.g_ro_bank\[30\]\.u_ro\.u_nand
*5360 u_puf\.u_core\.g_ro_bank\[31\]\.u_ro\.g_inv\[10\]\.u_inv
*5361 u_puf\.u_core\.g_ro_bank\[31\]\.u_ro\.g_inv\[11\]\.u_inv
*5362 u_puf\.u_core\.g_ro_bank\[31\]\.u_ro\.g_inv\[12\]\.u_inv
*5363 u_puf\.u_core\.g_ro_bank\[31\]\.u_ro\.g_inv\[13\]\.u_inv
*5364 u_puf\.u_core\.g_ro_bank\[31\]\.u_ro\.g_inv\[14\]\.u_inv
*5365 u_puf\.u_core\.g_ro_bank\[31\]\.u_ro\.g_inv\[15\]\.u_inv
*5366 u_puf\.u_core\.g_ro_bank\[31\]\.u_ro\.g_inv\[16\]\.u_inv
*5367 u_puf\.u_core\.g_ro_bank\[31\]\.u_ro\.g_inv\[17\]\.u_inv
*5368 u_puf\.u_core\.g_ro_bank\[31\]\.u_ro\.g_inv\[18\]\.u_inv
*5369 u_puf\.u_core\.g_ro_bank\[31\]\.u_ro\.g_inv\[19\]\.u_inv
*5370 u_puf\.u_core\.g_ro_bank\[31\]\.u_ro\.g_inv\[1\]\.u_inv
*5371 u_puf\.u_core\.g_ro_bank\[31\]\.u_ro\.g_inv\[20\]\.u_inv
*5372 u_puf\.u_core\.g_ro_bank\[31\]\.u_ro\.g_inv\[21\]\.u_inv
*5373 u_puf\.u_core\.g_ro_bank\[31\]\.u_ro\.g_inv\[22\]\.u_inv
*5374 u_puf\.u_core\.g_ro_bank\[31\]\.u_ro\.g_inv\[23\]\.u_inv
*5375 u_puf\.u_core\.g_ro_bank\[31\]\.u_ro\.g_inv\[24\]\.u_inv
*5376 u_puf\.u_core\.g_ro_bank\[31\]\.u_ro\.g_inv\[25\]\.u_inv
*5377 u_puf\.u_core\.g_ro_bank\[31\]\.u_ro\.g_inv\[26\]\.u_inv
*5378 u_puf\.u_core\.g_ro_bank\[31\]\.u_ro\.g_inv\[27\]\.u_inv
*5379 u_puf\.u_core\.g_ro_bank\[31\]\.u_ro\.g_inv\[28\]\.u_inv
*5380 u_puf\.u_core\.g_ro_bank\[31\]\.u_ro\.g_inv\[29\]\.u_inv
*5381 u_puf\.u_core\.g_ro_bank\[31\]\.u_ro\.g_inv\[2\]\.u_inv
*5382 u_puf\.u_core\.g_ro_bank\[31\]\.u_ro\.g_inv\[30\]\.u_inv
*5383 u_puf\.u_core\.g_ro_bank\[31\]\.u_ro\.g_inv\[3\]\.u_inv
*5384 u_puf\.u_core\.g_ro_bank\[31\]\.u_ro\.g_inv\[4\]\.u_inv
*5385 u_puf\.u_core\.g_ro_bank\[31\]\.u_ro\.g_inv\[5\]\.u_inv
*5386 u_puf\.u_core\.g_ro_bank\[31\]\.u_ro\.g_inv\[6\]\.u_inv
*5387 u_puf\.u_core\.g_ro_bank\[31\]\.u_ro\.g_inv\[7\]\.u_inv
*5388 u_puf\.u_core\.g_ro_bank\[31\]\.u_ro\.g_inv\[8\]\.u_inv
*5389 u_puf\.u_core\.g_ro_bank\[31\]\.u_ro\.g_inv\[9\]\.u_inv
*5390 u_puf\.u_core\.g_ro_bank\[31\]\.u_ro\.u_buf
*5391 u_puf\.u_core\.g_ro_bank\[31\]\.u_ro\.u_nand
*5392 u_puf\.u_core\.g_ro_bank\[3\]\.u_ro\.g_inv\[10\]\.u_inv
*5393 u_puf\.u_core\.g_ro_bank\[3\]\.u_ro\.g_inv\[11\]\.u_inv
*5394 u_puf\.u_core\.g_ro_bank\[3\]\.u_ro\.g_inv\[12\]\.u_inv
*5395 u_puf\.u_core\.g_ro_bank\[3\]\.u_ro\.g_inv\[13\]\.u_inv
*5396 u_puf\.u_core\.g_ro_bank\[3\]\.u_ro\.g_inv\[14\]\.u_inv
*5397 u_puf\.u_core\.g_ro_bank\[3\]\.u_ro\.g_inv\[15\]\.u_inv
*5398 u_puf\.u_core\.g_ro_bank\[3\]\.u_ro\.g_inv\[16\]\.u_inv
*5399 u_puf\.u_core\.g_ro_bank\[3\]\.u_ro\.g_inv\[17\]\.u_inv
*5400 u_puf\.u_core\.g_ro_bank\[3\]\.u_ro\.g_inv\[18\]\.u_inv
*5401 u_puf\.u_core\.g_ro_bank\[3\]\.u_ro\.g_inv\[19\]\.u_inv
*5402 u_puf\.u_core\.g_ro_bank\[3\]\.u_ro\.g_inv\[1\]\.u_inv
*5403 u_puf\.u_core\.g_ro_bank\[3\]\.u_ro\.g_inv\[20\]\.u_inv
*5404 u_puf\.u_core\.g_ro_bank\[3\]\.u_ro\.g_inv\[21\]\.u_inv
*5405 u_puf\.u_core\.g_ro_bank\[3\]\.u_ro\.g_inv\[22\]\.u_inv
*5406 u_puf\.u_core\.g_ro_bank\[3\]\.u_ro\.g_inv\[23\]\.u_inv
*5407 u_puf\.u_core\.g_ro_bank\[3\]\.u_ro\.g_inv\[24\]\.u_inv
*5408 u_puf\.u_core\.g_ro_bank\[3\]\.u_ro\.g_inv\[25\]\.u_inv
*5409 u_puf\.u_core\.g_ro_bank\[3\]\.u_ro\.g_inv\[26\]\.u_inv
*5410 u_puf\.u_core\.g_ro_bank\[3\]\.u_ro\.g_inv\[27\]\.u_inv
*5411 u_puf\.u_core\.g_ro_bank\[3\]\.u_ro\.g_inv\[28\]\.u_inv
*5412 u_puf\.u_core\.g_ro_bank\[3\]\.u_ro\.g_inv\[29\]\.u_inv
*5413 u_puf\.u_core\.g_ro_bank\[3\]\.u_ro\.g_inv\[2\]\.u_inv
*5414 u_puf\.u_core\.g_ro_bank\[3\]\.u_ro\.g_inv\[30\]\.u_inv
*5415 u_puf\.u_core\.g_ro_bank\[3\]\.u_ro\.g_inv\[3\]\.u_inv
*5416 u_puf\.u_core\.g_ro_bank\[3\]\.u_ro\.g_inv\[4\]\.u_inv
*5417 u_puf\.u_core\.g_ro_bank\[3\]\.u_ro\.g_inv\[5\]\.u_inv
*5418 u_puf\.u_core\.g_ro_bank\[3\]\.u_ro\.g_inv\[6\]\.u_inv
*5419 u_puf\.u_core\.g_ro_bank\[3\]\.u_ro\.g_inv\[7\]\.u_inv
*5420 u_puf\.u_core\.g_ro_bank\[3\]\.u_ro\.g_inv\[8\]\.u_inv
*5421 u_puf\.u_core\.g_ro_bank\[3\]\.u_ro\.g_inv\[9\]\.u_inv
*5422 u_puf\.u_core\.g_ro_bank\[3\]\.u_ro\.u_buf
*5423 u_puf\.u_core\.g_ro_bank\[3\]\.u_ro\.u_nand
*5424 u_puf\.u_core\.g_ro_bank\[4\]\.u_ro\.g_inv\[10\]\.u_inv
*5425 u_puf\.u_core\.g_ro_bank\[4\]\.u_ro\.g_inv\[11\]\.u_inv
*5426 u_puf\.u_core\.g_ro_bank\[4\]\.u_ro\.g_inv\[12\]\.u_inv
*5427 u_puf\.u_core\.g_ro_bank\[4\]\.u_ro\.g_inv\[13\]\.u_inv
*5428 u_puf\.u_core\.g_ro_bank\[4\]\.u_ro\.g_inv\[14\]\.u_inv
*5429 u_puf\.u_core\.g_ro_bank\[4\]\.u_ro\.g_inv\[15\]\.u_inv
*5430 u_puf\.u_core\.g_ro_bank\[4\]\.u_ro\.g_inv\[16\]\.u_inv
*5431 u_puf\.u_core\.g_ro_bank\[4\]\.u_ro\.g_inv\[17\]\.u_inv
*5432 u_puf\.u_core\.g_ro_bank\[4\]\.u_ro\.g_inv\[18\]\.u_inv
*5433 u_puf\.u_core\.g_ro_bank\[4\]\.u_ro\.g_inv\[19\]\.u_inv
*5434 u_puf\.u_core\.g_ro_bank\[4\]\.u_ro\.g_inv\[1\]\.u_inv
*5435 u_puf\.u_core\.g_ro_bank\[4\]\.u_ro\.g_inv\[20\]\.u_inv
*5436 u_puf\.u_core\.g_ro_bank\[4\]\.u_ro\.g_inv\[21\]\.u_inv
*5437 u_puf\.u_core\.g_ro_bank\[4\]\.u_ro\.g_inv\[22\]\.u_inv
*5438 u_puf\.u_core\.g_ro_bank\[4\]\.u_ro\.g_inv\[23\]\.u_inv
*5439 u_puf\.u_core\.g_ro_bank\[4\]\.u_ro\.g_inv\[24\]\.u_inv
*5440 u_puf\.u_core\.g_ro_bank\[4\]\.u_ro\.g_inv\[25\]\.u_inv
*5441 u_puf\.u_core\.g_ro_bank\[4\]\.u_ro\.g_inv\[26\]\.u_inv
*5442 u_puf\.u_core\.g_ro_bank\[4\]\.u_ro\.g_inv\[27\]\.u_inv
*5443 u_puf\.u_core\.g_ro_bank\[4\]\.u_ro\.g_inv\[28\]\.u_inv
*5444 u_puf\.u_core\.g_ro_bank\[4\]\.u_ro\.g_inv\[29\]\.u_inv
*5445 u_puf\.u_core\.g_ro_bank\[4\]\.u_ro\.g_inv\[2\]\.u_inv
*5446 u_puf\.u_core\.g_ro_bank\[4\]\.u_ro\.g_inv\[30\]\.u_inv
*5447 u_puf\.u_core\.g_ro_bank\[4\]\.u_ro\.g_inv\[3\]\.u_inv
*5448 u_puf\.u_core\.g_ro_bank\[4\]\.u_ro\.g_inv\[4\]\.u_inv
*5449 u_puf\.u_core\.g_ro_bank\[4\]\.u_ro\.g_inv\[5\]\.u_inv
*5450 u_puf\.u_core\.g_ro_bank\[4\]\.u_ro\.g_inv\[6\]\.u_inv
*5451 u_puf\.u_core\.g_ro_bank\[4\]\.u_ro\.g_inv\[7\]\.u_inv
*5452 u_puf\.u_core\.g_ro_bank\[4\]\.u_ro\.g_inv\[8\]\.u_inv
*5453 u_puf\.u_core\.g_ro_bank\[4\]\.u_ro\.g_inv\[9\]\.u_inv
*5454 u_puf\.u_core\.g_ro_bank\[4\]\.u_ro\.u_buf
*5455 u_puf\.u_core\.g_ro_bank\[4\]\.u_ro\.u_nand
*5456 u_puf\.u_core\.g_ro_bank\[5\]\.u_ro\.g_inv\[10\]\.u_inv
*5457 u_puf\.u_core\.g_ro_bank\[5\]\.u_ro\.g_inv\[11\]\.u_inv
*5458 u_puf\.u_core\.g_ro_bank\[5\]\.u_ro\.g_inv\[12\]\.u_inv
*5459 u_puf\.u_core\.g_ro_bank\[5\]\.u_ro\.g_inv\[13\]\.u_inv
*5460 u_puf\.u_core\.g_ro_bank\[5\]\.u_ro\.g_inv\[14\]\.u_inv
*5461 u_puf\.u_core\.g_ro_bank\[5\]\.u_ro\.g_inv\[15\]\.u_inv
*5462 u_puf\.u_core\.g_ro_bank\[5\]\.u_ro\.g_inv\[16\]\.u_inv
*5463 u_puf\.u_core\.g_ro_bank\[5\]\.u_ro\.g_inv\[17\]\.u_inv
*5464 u_puf\.u_core\.g_ro_bank\[5\]\.u_ro\.g_inv\[18\]\.u_inv
*5465 u_puf\.u_core\.g_ro_bank\[5\]\.u_ro\.g_inv\[19\]\.u_inv
*5466 u_puf\.u_core\.g_ro_bank\[5\]\.u_ro\.g_inv\[1\]\.u_inv
*5467 u_puf\.u_core\.g_ro_bank\[5\]\.u_ro\.g_inv\[20\]\.u_inv
*5468 u_puf\.u_core\.g_ro_bank\[5\]\.u_ro\.g_inv\[21\]\.u_inv
*5469 u_puf\.u_core\.g_ro_bank\[5\]\.u_ro\.g_inv\[22\]\.u_inv
*5470 u_puf\.u_core\.g_ro_bank\[5\]\.u_ro\.g_inv\[23\]\.u_inv
*5471 u_puf\.u_core\.g_ro_bank\[5\]\.u_ro\.g_inv\[24\]\.u_inv
*5472 u_puf\.u_core\.g_ro_bank\[5\]\.u_ro\.g_inv\[25\]\.u_inv
*5473 u_puf\.u_core\.g_ro_bank\[5\]\.u_ro\.g_inv\[26\]\.u_inv
*5474 u_puf\.u_core\.g_ro_bank\[5\]\.u_ro\.g_inv\[27\]\.u_inv
*5475 u_puf\.u_core\.g_ro_bank\[5\]\.u_ro\.g_inv\[28\]\.u_inv
*5476 u_puf\.u_core\.g_ro_bank\[5\]\.u_ro\.g_inv\[29\]\.u_inv
*5477 u_puf\.u_core\.g_ro_bank\[5\]\.u_ro\.g_inv\[2\]\.u_inv
*5478 u_puf\.u_core\.g_ro_bank\[5\]\.u_ro\.g_inv\[30\]\.u_inv
*5479 u_puf\.u_core\.g_ro_bank\[5\]\.u_ro\.g_inv\[3\]\.u_inv
*5480 u_puf\.u_core\.g_ro_bank\[5\]\.u_ro\.g_inv\[4\]\.u_inv
*5481 u_puf\.u_core\.g_ro_bank\[5\]\.u_ro\.g_inv\[5\]\.u_inv
*5482 u_puf\.u_core\.g_ro_bank\[5\]\.u_ro\.g_inv\[6\]\.u_inv
*5483 u_puf\.u_core\.g_ro_bank\[5\]\.u_ro\.g_inv\[7\]\.u_inv
*5484 u_puf\.u_core\.g_ro_bank\[5\]\.u_ro\.g_inv\[8\]\.u_inv
*5485 u_puf\.u_core\.g_ro_bank\[5\]\.u_ro\.g_inv\[9\]\.u_inv
*5486 u_puf\.u_core\.g_ro_bank\[5\]\.u_ro\.u_buf
*5487 u_puf\.u_core\.g_ro_bank\[5\]\.u_ro\.u_nand
*5488 u_puf\.u_core\.g_ro_bank\[6\]\.u_ro\.g_inv\[10\]\.u_inv
*5489 u_puf\.u_core\.g_ro_bank\[6\]\.u_ro\.g_inv\[11\]\.u_inv
*5490 u_puf\.u_core\.g_ro_bank\[6\]\.u_ro\.g_inv\[12\]\.u_inv
*5491 u_puf\.u_core\.g_ro_bank\[6\]\.u_ro\.g_inv\[13\]\.u_inv
*5492 u_puf\.u_core\.g_ro_bank\[6\]\.u_ro\.g_inv\[14\]\.u_inv
*5493 u_puf\.u_core\.g_ro_bank\[6\]\.u_ro\.g_inv\[15\]\.u_inv
*5494 u_puf\.u_core\.g_ro_bank\[6\]\.u_ro\.g_inv\[16\]\.u_inv
*5495 u_puf\.u_core\.g_ro_bank\[6\]\.u_ro\.g_inv\[17\]\.u_inv
*5496 u_puf\.u_core\.g_ro_bank\[6\]\.u_ro\.g_inv\[18\]\.u_inv
*5497 u_puf\.u_core\.g_ro_bank\[6\]\.u_ro\.g_inv\[19\]\.u_inv
*5498 u_puf\.u_core\.g_ro_bank\[6\]\.u_ro\.g_inv\[1\]\.u_inv
*5499 u_puf\.u_core\.g_ro_bank\[6\]\.u_ro\.g_inv\[20\]\.u_inv
*5500 u_puf\.u_core\.g_ro_bank\[6\]\.u_ro\.g_inv\[21\]\.u_inv
*5501 u_puf\.u_core\.g_ro_bank\[6\]\.u_ro\.g_inv\[22\]\.u_inv
*5502 u_puf\.u_core\.g_ro_bank\[6\]\.u_ro\.g_inv\[23\]\.u_inv
*5503 u_puf\.u_core\.g_ro_bank\[6\]\.u_ro\.g_inv\[24\]\.u_inv
*5504 u_puf\.u_core\.g_ro_bank\[6\]\.u_ro\.g_inv\[25\]\.u_inv
*5505 u_puf\.u_core\.g_ro_bank\[6\]\.u_ro\.g_inv\[26\]\.u_inv
*5506 u_puf\.u_core\.g_ro_bank\[6\]\.u_ro\.g_inv\[27\]\.u_inv
*5507 u_puf\.u_core\.g_ro_bank\[6\]\.u_ro\.g_inv\[28\]\.u_inv
*5508 u_puf\.u_core\.g_ro_bank\[6\]\.u_ro\.g_inv\[29\]\.u_inv
*5509 u_puf\.u_core\.g_ro_bank\[6\]\.u_ro\.g_inv\[2\]\.u_inv
*5510 u_puf\.u_core\.g_ro_bank\[6\]\.u_ro\.g_inv\[30\]\.u_inv
*5511 u_puf\.u_core\.g_ro_bank\[6\]\.u_ro\.g_inv\[3\]\.u_inv
*5512 u_puf\.u_core\.g_ro_bank\[6\]\.u_ro\.g_inv\[4\]\.u_inv
*5513 u_puf\.u_core\.g_ro_bank\[6\]\.u_ro\.g_inv\[5\]\.u_inv
*5514 u_puf\.u_core\.g_ro_bank\[6\]\.u_ro\.g_inv\[6\]\.u_inv
*5515 u_puf\.u_core\.g_ro_bank\[6\]\.u_ro\.g_inv\[7\]\.u_inv
*5516 u_puf\.u_core\.g_ro_bank\[6\]\.u_ro\.g_inv\[8\]\.u_inv
*5517 u_puf\.u_core\.g_ro_bank\[6\]\.u_ro\.g_inv\[9\]\.u_inv
*5518 u_puf\.u_core\.g_ro_bank\[6\]\.u_ro\.u_buf
*5519 u_puf\.u_core\.g_ro_bank\[6\]\.u_ro\.u_nand
*5520 u_puf\.u_core\.g_ro_bank\[7\]\.u_ro\.g_inv\[10\]\.u_inv
*5521 u_puf\.u_core\.g_ro_bank\[7\]\.u_ro\.g_inv\[11\]\.u_inv
*5522 u_puf\.u_core\.g_ro_bank\[7\]\.u_ro\.g_inv\[12\]\.u_inv
*5523 u_puf\.u_core\.g_ro_bank\[7\]\.u_ro\.g_inv\[13\]\.u_inv
*5524 u_puf\.u_core\.g_ro_bank\[7\]\.u_ro\.g_inv\[14\]\.u_inv
*5525 u_puf\.u_core\.g_ro_bank\[7\]\.u_ro\.g_inv\[15\]\.u_inv
*5526 u_puf\.u_core\.g_ro_bank\[7\]\.u_ro\.g_inv\[16\]\.u_inv
*5527 u_puf\.u_core\.g_ro_bank\[7\]\.u_ro\.g_inv\[17\]\.u_inv
*5528 u_puf\.u_core\.g_ro_bank\[7\]\.u_ro\.g_inv\[18\]\.u_inv
*5529 u_puf\.u_core\.g_ro_bank\[7\]\.u_ro\.g_inv\[19\]\.u_inv
*5530 u_puf\.u_core\.g_ro_bank\[7\]\.u_ro\.g_inv\[1\]\.u_inv
*5531 u_puf\.u_core\.g_ro_bank\[7\]\.u_ro\.g_inv\[20\]\.u_inv
*5532 u_puf\.u_core\.g_ro_bank\[7\]\.u_ro\.g_inv\[21\]\.u_inv
*5533 u_puf\.u_core\.g_ro_bank\[7\]\.u_ro\.g_inv\[22\]\.u_inv
*5534 u_puf\.u_core\.g_ro_bank\[7\]\.u_ro\.g_inv\[23\]\.u_inv
*5535 u_puf\.u_core\.g_ro_bank\[7\]\.u_ro\.g_inv\[24\]\.u_inv
*5536 u_puf\.u_core\.g_ro_bank\[7\]\.u_ro\.g_inv\[25\]\.u_inv
*5537 u_puf\.u_core\.g_ro_bank\[7\]\.u_ro\.g_inv\[26\]\.u_inv
*5538 u_puf\.u_core\.g_ro_bank\[7\]\.u_ro\.g_inv\[27\]\.u_inv
*5539 u_puf\.u_core\.g_ro_bank\[7\]\.u_ro\.g_inv\[28\]\.u_inv
*5540 u_puf\.u_core\.g_ro_bank\[7\]\.u_ro\.g_inv\[29\]\.u_inv
*5541 u_puf\.u_core\.g_ro_bank\[7\]\.u_ro\.g_inv\[2\]\.u_inv
*5542 u_puf\.u_core\.g_ro_bank\[7\]\.u_ro\.g_inv\[30\]\.u_inv
*5543 u_puf\.u_core\.g_ro_bank\[7\]\.u_ro\.g_inv\[3\]\.u_inv
*5544 u_puf\.u_core\.g_ro_bank\[7\]\.u_ro\.g_inv\[4\]\.u_inv
*5545 u_puf\.u_core\.g_ro_bank\[7\]\.u_ro\.g_inv\[5\]\.u_inv
*5546 u_puf\.u_core\.g_ro_bank\[7\]\.u_ro\.g_inv\[6\]\.u_inv
*5547 u_puf\.u_core\.g_ro_bank\[7\]\.u_ro\.g_inv\[7\]\.u_inv
*5548 u_puf\.u_core\.g_ro_bank\[7\]\.u_ro\.g_inv\[8\]\.u_inv
*5549 u_puf\.u_core\.g_ro_bank\[7\]\.u_ro\.g_inv\[9\]\.u_inv
*5550 u_puf\.u_core\.g_ro_bank\[7\]\.u_ro\.u_buf
*5551 u_puf\.u_core\.g_ro_bank\[7\]\.u_ro\.u_nand
*5552 u_puf\.u_core\.g_ro_bank\[8\]\.u_ro\.g_inv\[10\]\.u_inv
*5553 u_puf\.u_core\.g_ro_bank\[8\]\.u_ro\.g_inv\[11\]\.u_inv
*5554 u_puf\.u_core\.g_ro_bank\[8\]\.u_ro\.g_inv\[12\]\.u_inv
*5555 u_puf\.u_core\.g_ro_bank\[8\]\.u_ro\.g_inv\[13\]\.u_inv
*5556 u_puf\.u_core\.g_ro_bank\[8\]\.u_ro\.g_inv\[14\]\.u_inv
*5557 u_puf\.u_core\.g_ro_bank\[8\]\.u_ro\.g_inv\[15\]\.u_inv
*5558 u_puf\.u_core\.g_ro_bank\[8\]\.u_ro\.g_inv\[16\]\.u_inv
*5559 u_puf\.u_core\.g_ro_bank\[8\]\.u_ro\.g_inv\[17\]\.u_inv
*5560 u_puf\.u_core\.g_ro_bank\[8\]\.u_ro\.g_inv\[18\]\.u_inv
*5561 u_puf\.u_core\.g_ro_bank\[8\]\.u_ro\.g_inv\[19\]\.u_inv
*5562 u_puf\.u_core\.g_ro_bank\[8\]\.u_ro\.g_inv\[1\]\.u_inv
*5563 u_puf\.u_core\.g_ro_bank\[8\]\.u_ro\.g_inv\[20\]\.u_inv
*5564 u_puf\.u_core\.g_ro_bank\[8\]\.u_ro\.g_inv\[21\]\.u_inv
*5565 u_puf\.u_core\.g_ro_bank\[8\]\.u_ro\.g_inv\[22\]\.u_inv
*5566 u_puf\.u_core\.g_ro_bank\[8\]\.u_ro\.g_inv\[23\]\.u_inv
*5567 u_puf\.u_core\.g_ro_bank\[8\]\.u_ro\.g_inv\[24\]\.u_inv
*5568 u_puf\.u_core\.g_ro_bank\[8\]\.u_ro\.g_inv\[25\]\.u_inv
*5569 u_puf\.u_core\.g_ro_bank\[8\]\.u_ro\.g_inv\[26\]\.u_inv
*5570 u_puf\.u_core\.g_ro_bank\[8\]\.u_ro\.g_inv\[27\]\.u_inv
*5571 u_puf\.u_core\.g_ro_bank\[8\]\.u_ro\.g_inv\[28\]\.u_inv
*5572 u_puf\.u_core\.g_ro_bank\[8\]\.u_ro\.g_inv\[29\]\.u_inv
*5573 u_puf\.u_core\.g_ro_bank\[8\]\.u_ro\.g_inv\[2\]\.u_inv
*5574 u_puf\.u_core\.g_ro_bank\[8\]\.u_ro\.g_inv\[30\]\.u_inv
*5575 u_puf\.u_core\.g_ro_bank\[8\]\.u_ro\.g_inv\[3\]\.u_inv
*5576 u_puf\.u_core\.g_ro_bank\[8\]\.u_ro\.g_inv\[4\]\.u_inv
*5577 u_puf\.u_core\.g_ro_bank\[8\]\.u_ro\.g_inv\[5\]\.u_inv
*5578 u_puf\.u_core\.g_ro_bank\[8\]\.u_ro\.g_inv\[6\]\.u_inv
*5579 u_puf\.u_core\.g_ro_bank\[8\]\.u_ro\.g_inv\[7\]\.u_inv
*5580 u_puf\.u_core\.g_ro_bank\[8\]\.u_ro\.g_inv\[8\]\.u_inv
*5581 u_puf\.u_core\.g_ro_bank\[8\]\.u_ro\.g_inv\[9\]\.u_inv
*5582 u_puf\.u_core\.g_ro_bank\[8\]\.u_ro\.u_buf
*5583 u_puf\.u_core\.g_ro_bank\[8\]\.u_ro\.u_nand
*5584 u_puf\.u_core\.g_ro_bank\[9\]\.u_ro\.g_inv\[10\]\.u_inv
*5585 u_puf\.u_core\.g_ro_bank\[9\]\.u_ro\.g_inv\[11\]\.u_inv
*5586 u_puf\.u_core\.g_ro_bank\[9\]\.u_ro\.g_inv\[12\]\.u_inv
*5587 u_puf\.u_core\.g_ro_bank\[9\]\.u_ro\.g_inv\[13\]\.u_inv
*5588 u_puf\.u_core\.g_ro_bank\[9\]\.u_ro\.g_inv\[14\]\.u_inv
*5589 u_puf\.u_core\.g_ro_bank\[9\]\.u_ro\.g_inv\[15\]\.u_inv
*5590 u_puf\.u_core\.g_ro_bank\[9\]\.u_ro\.g_inv\[16\]\.u_inv
*5591 u_puf\.u_core\.g_ro_bank\[9\]\.u_ro\.g_inv\[17\]\.u_inv
*5592 u_puf\.u_core\.g_ro_bank\[9\]\.u_ro\.g_inv\[18\]\.u_inv
*5593 u_puf\.u_core\.g_ro_bank\[9\]\.u_ro\.g_inv\[19\]\.u_inv
*5594 u_puf\.u_core\.g_ro_bank\[9\]\.u_ro\.g_inv\[1\]\.u_inv
*5595 u_puf\.u_core\.g_ro_bank\[9\]\.u_ro\.g_inv\[20\]\.u_inv
*5596 u_puf\.u_core\.g_ro_bank\[9\]\.u_ro\.g_inv\[21\]\.u_inv
*5597 u_puf\.u_core\.g_ro_bank\[9\]\.u_ro\.g_inv\[22\]\.u_inv
*5598 u_puf\.u_core\.g_ro_bank\[9\]\.u_ro\.g_inv\[23\]\.u_inv
*5599 u_puf\.u_core\.g_ro_bank\[9\]\.u_ro\.g_inv\[24\]\.u_inv
*5600 u_puf\.u_core\.g_ro_bank\[9\]\.u_ro\.g_inv\[25\]\.u_inv
*5601 u_puf\.u_core\.g_ro_bank\[9\]\.u_ro\.g_inv\[26\]\.u_inv
*5602 u_puf\.u_core\.g_ro_bank\[9\]\.u_ro\.g_inv\[27\]\.u_inv
*5603 u_puf\.u_core\.g_ro_bank\[9\]\.u_ro\.g_inv\[28\]\.u_inv
*5604 u_puf\.u_core\.g_ro_bank\[9\]\.u_ro\.g_inv\[29\]\.u_inv
*5605 u_puf\.u_core\.g_ro_bank\[9\]\.u_ro\.g_inv\[2\]\.u_inv
*5606 u_puf\.u_core\.g_ro_bank\[9\]\.u_ro\.g_inv\[30\]\.u_inv
*5607 u_puf\.u_core\.g_ro_bank\[9\]\.u_ro\.g_inv\[3\]\.u_inv
*5608 u_puf\.u_core\.g_ro_bank\[9\]\.u_ro\.g_inv\[4\]\.u_inv
*5609 u_puf\.u_core\.g_ro_bank\[9\]\.u_ro\.g_inv\[5\]\.u_inv
*5610 u_puf\.u_core\.g_ro_bank\[9\]\.u_ro\.g_inv\[6\]\.u_inv
*5611 u_puf\.u_core\.g_ro_bank\[9\]\.u_ro\.g_inv\[7\]\.u_inv
*5612 u_puf\.u_core\.g_ro_bank\[9\]\.u_ro\.g_inv\[8\]\.u_inv
*5613 u_puf\.u_core\.g_ro_bank\[9\]\.u_ro\.g_inv\[9\]\.u_inv
*5614 u_puf\.u_core\.g_ro_bank\[9\]\.u_ro\.u_buf
*5615 u_puf\.u_core\.g_ro_bank\[9\]\.u_ro\.u_nand

*PORTS
clk I
ena I
rst_n I
ui_in[0] I
ui_in[1] I
ui_in[2] I
ui_in[3] I
ui_in[4] I
ui_in[5] I
ui_in[6] I
ui_in[7] I
uio_in[0] I
uio_in[1] I
uio_in[2] I
uio_in[3] I
uio_in[4] I
uio_in[5] I
uio_in[6] I
uio_in[7] I
uio_oe[0] O
uio_oe[1] O
uio_oe[2] O
uio_oe[3] O
uio_oe[4] O
uio_oe[5] O
uio_oe[6] O
uio_oe[7] O
uio_out[0] O
uio_out[1] O
uio_out[2] O
uio_out[3] O
uio_out[4] O
uio_out[5] O
uio_out[6] O
uio_out[7] O
uo_out[0] O
uo_out[1] O
uo_out[2] O
uo_out[3] O
uo_out[4] O
uo_out[5] O
uo_out[6] O
uo_out[7] O

*D_NET *3 0.00535443
*CONN
*P clk I
*I *4544:A I *D sky130_fd_sc_hd__clkbuf_16
*CAP
1 clk 0.00210053
2 *4544:A 7.25185e-05
3 *3:14 0.00217305
4 *4544:A *4477:D 3.18676e-05
5 *4544:A *1276:36 5.33433e-05
6 *3:14 *4467:B 0
7 *3:14 *4489:B 8.47842e-05
8 *3:14 *4569:A 0.000233361
9 *3:14 *104:114 0.000107879
10 *3:14 *105:35 0.000101444
11 *3:14 *109:14 1.43396e-05
12 *3:14 *110:12 1.13837e-05
13 *3:14 *112:132 0.000140069
14 *3:14 *148:18 8.56372e-05
15 *3:14 *195:22 1.0446e-05
16 *3:14 *199:10 0.000133769
*RES
1 clk *3:14 11.5712 
2 *3:14 *4544:A 15.1571 
*END

*D_NET *5 0.00221118
*CONN
*P rst_n I
*I *4569:A I *D sky130_fd_sc_hd__clkdlybuf4s25_1
*CAP
1 rst_n 0.000690733
2 *4569:A 0.000690733
3 *4569:A *4382:C 8.09857e-05
4 *4569:A *4382:D 5.33005e-05
5 *4569:A *4488:B1 5.59013e-05
6 *4569:A *4492:A2 0.000239769
7 *4569:A *4540:RESET_B 2.06112e-05
8 *4569:A *4570:A 1.63602e-05
9 *4569:A *4571:A 0
10 *4569:A *4572:A 0
11 *4569:A *164:23 2.21972e-05
12 *4569:A *199:10 0
13 *4569:A *1280:27 0.000107223
14 *3:14 *4569:A 0.000233361
*RES
1 rst_n *4569:A 26.087 
*END

*D_NET *6 0.00192929
*CONN
*P ui_in[0] I
*I *4570:A I *D sky130_fd_sc_hd__clkdlybuf4s25_1
*CAP
1 ui_in[0] 0.000850105
2 *4570:A 0.000850105
3 *4570:A *4490:B 0
4 *4570:A *4571:A 0.000212723
5 *4570:A *170:39 0
6 *4570:A *199:10 0
7 *4569:A *4570:A 1.63602e-05
*RES
1 ui_in[0] *4570:A 27.5274 
*END

*D_NET *7 0.00147868
*CONN
*P ui_in[1] I
*I *4571:A I *D sky130_fd_sc_hd__clkdlybuf4s25_1
*CAP
1 ui_in[1] 0.000535789
2 *4571:A 0.000535789
3 *4571:A *4539:D 0
4 *4571:A *4542:RESET_B 0.00011891
5 *4571:A *4572:A 4.20402e-05
6 *4571:A *172:10 3.34295e-05
7 *4569:A *4571:A 0
8 *4570:A *4571:A 0.000212723
*RES
1 ui_in[1] *4571:A 26.0899 
*END

*D_NET *8 0.00173313
*CONN
*P ui_in[2] I
*I *4572:A I *D sky130_fd_sc_hd__clkdlybuf4s25_1
*CAP
1 ui_in[2] 0.00071157
2 *4572:A 0.00071157
3 *4572:A *4573:A 9.89123e-05
4 *4572:A *4574:A 0
5 *4572:A *194:26 0.000145422
6 *4572:A *195:22 0
7 *4572:A *1278:23 7.69776e-06
8 *4572:A *1278:25 1.59145e-05
9 *4572:A *1279:10 0
10 *4569:A *4572:A 0
11 *4571:A *4572:A 4.20402e-05
*RES
1 ui_in[2] *4572:A 22.883 
*END

*D_NET *9 0.00118563
*CONN
*P ui_in[3] I
*I *4573:A I *D sky130_fd_sc_hd__clkdlybuf4s25_1
*CAP
1 ui_in[3] 0.000387523
2 *4573:A 0.000387523
3 *4573:A *4486:A_N 0.000209808
4 *4573:A *4557:A 0
5 *4573:A *4564:A 0
6 *4573:A *4574:A 0.000101867
7 *4572:A *4573:A 9.89123e-05
*RES
1 ui_in[3] *4573:A 24.2278 
*END

*D_NET *10 0.00185736
*CONN
*P ui_in[4] I
*I *4574:A I *D sky130_fd_sc_hd__clkdlybuf4s25_1
*CAP
1 ui_in[4] 0.000711565
2 *4574:A 0.000711565
3 *4574:A *4486:A_N 0
4 *4574:A *4575:A 0.000239753
5 *4574:A *183:16 9.26125e-05
6 *4572:A *4574:A 0
7 *4573:A *4574:A 0.000101867
*RES
1 ui_in[4] *4574:A 23.6718 
*END

*D_NET *11 0.00161775
*CONN
*P ui_in[5] I
*I *4575:A I *D sky130_fd_sc_hd__clkdlybuf4s25_1
*CAP
1 ui_in[5] 0.000567032
2 *4575:A 0.000567032
3 *4575:A *4482:B1 9.26125e-05
4 *4575:A *4483:A1 9.26125e-05
5 *4575:A *4576:A 5.87118e-05
6 *4574:A *4575:A 0.000239753
*RES
1 ui_in[5] *4575:A 23.4556 
*END

*D_NET *12 0.000549661
*CONN
*P ui_in[6] I
*I *4576:A I *D sky130_fd_sc_hd__clkdlybuf4s25_1
*CAP
1 ui_in[6] 0.000245474
2 *4576:A 0.000245474
3 *4575:A *4576:A 5.87118e-05
*RES
1 ui_in[6] *4576:A 22.8157 
*END

*D_NET *22 0.000487661
*CONN
*P uio_oe[0] O
*I *4591:HI O *D sky130_fd_sc_hd__conb_1
*CAP
1 uio_oe[0] 0.000163303
2 *4591:HI 0.000163303
3 uio_oe[0] uio_oe[1] 7.88136e-05
4 uio_oe[0] uio_out[7] 8.22407e-05
*RES
1 *4591:HI uio_oe[0] 21.5109 
*END

*D_NET *23 0.00041663
*CONN
*P uio_oe[1] O
*I *4577:LO O *D sky130_fd_sc_hd__conb_1
*CAP
1 uio_oe[1] 0.000129501
2 *4577:LO 0.000129501
3 uio_oe[1] uio_oe[2] 7.88136e-05
4 uio_oe[0] uio_oe[1] 7.88136e-05
*RES
1 *4577:LO uio_oe[1] 21.4044 
*END

*D_NET *24 0.00041663
*CONN
*P uio_oe[2] O
*I *4578:LO O *D sky130_fd_sc_hd__conb_1
*CAP
1 uio_oe[2] 0.000129501
2 *4578:LO 0.000129501
3 uio_oe[2] uio_oe[3] 7.88136e-05
4 uio_oe[1] uio_oe[2] 7.88136e-05
*RES
1 *4578:LO uio_oe[2] 21.4044 
*END

*D_NET *25 0.00041663
*CONN
*P uio_oe[3] O
*I *4579:LO O *D sky130_fd_sc_hd__conb_1
*CAP
1 uio_oe[3] 0.000129501
2 *4579:LO 0.000129501
3 uio_oe[3] uio_oe[4] 7.88136e-05
4 uio_oe[2] uio_oe[3] 7.88136e-05
*RES
1 *4579:LO uio_oe[3] 21.4044 
*END

*D_NET *26 0.00041663
*CONN
*P uio_oe[4] O
*I *4580:LO O *D sky130_fd_sc_hd__conb_1
*CAP
1 uio_oe[4] 0.000129501
2 *4580:LO 0.000129501
3 uio_oe[4] uio_oe[5] 7.88136e-05
4 uio_oe[3] uio_oe[4] 7.88136e-05
*RES
1 *4580:LO uio_oe[4] 21.4044 
*END

*D_NET *27 0.00041663
*CONN
*P uio_oe[5] O
*I *4581:LO O *D sky130_fd_sc_hd__conb_1
*CAP
1 uio_oe[5] 0.000129501
2 *4581:LO 0.000129501
3 uio_oe[5] uio_oe[6] 7.88136e-05
4 uio_oe[4] uio_oe[5] 7.88136e-05
*RES
1 *4581:LO uio_oe[5] 21.4044 
*END

*D_NET *28 0.00041663
*CONN
*P uio_oe[6] O
*I *4582:LO O *D sky130_fd_sc_hd__conb_1
*CAP
1 uio_oe[6] 0.000129501
2 *4582:LO 0.000129501
3 uio_oe[6] uio_oe[7] 7.88136e-05
4 uio_oe[5] uio_oe[6] 7.88136e-05
*RES
1 *4582:LO uio_oe[6] 21.4044 
*END

*D_NET *29 0.000394042
*CONN
*P uio_oe[7] O
*I *4583:LO O *D sky130_fd_sc_hd__conb_1
*CAP
1 uio_oe[7] 0.000157614
2 *4583:LO 0.000157614
3 uio_oe[6] uio_oe[7] 7.88136e-05
*RES
1 *4583:LO uio_oe[7] 21.4044 
*END

*D_NET *30 0.00509426
*CONN
*P uio_out[0] O
*I *4543:X O *D sky130_fd_sc_hd__buf_2
*CAP
1 uio_out[0] 0.00247755
2 *4543:X 0.00247755
3 uio_out[0] uio_out[1] 2.08644e-05
4 uio_out[0] uo_out[3] 7.76075e-06
5 uio_out[0] uo_out[4] 9.13246e-05
6 uio_out[0] uo_out[7] 1.92064e-05
*RES
1 *4543:X uio_out[0] 30.1529 
*END

*D_NET *31 0.000408318
*CONN
*P uio_out[1] O
*I *4584:LO O *D sky130_fd_sc_hd__conb_1
*CAP
1 uio_out[1] 0.00015432
2 *4584:LO 0.00015432
3 uio_out[1] uio_out[2] 7.88136e-05
4 uio_out[1] uo_out[7] 0
5 uio_out[0] uio_out[1] 2.08644e-05
*RES
1 *4584:LO uio_out[1] 21.4044 
*END

*D_NET *32 0.00041663
*CONN
*P uio_out[2] O
*I *4585:LO O *D sky130_fd_sc_hd__conb_1
*CAP
1 uio_out[2] 0.000129501
2 *4585:LO 0.000129501
3 uio_out[2] uio_out[3] 7.88136e-05
4 uio_out[1] uio_out[2] 7.88136e-05
*RES
1 *4585:LO uio_out[2] 21.4044 
*END

*D_NET *33 0.000416758
*CONN
*P uio_out[3] O
*I *4586:LO O *D sky130_fd_sc_hd__conb_1
*CAP
1 uio_out[3] 0.000150204
2 *4586:LO 0.000150204
3 uio_out[3] uio_out[4] 3.7536e-05
4 uio_out[3] uio_out[6] 0
5 uio_out[2] uio_out[3] 7.88136e-05
*RES
1 *4586:LO uio_out[3] 21.4044 
*END

*D_NET *34 0.000437677
*CONN
*P uio_out[4] O
*I *4587:LO O *D sky130_fd_sc_hd__conb_1
*CAP
1 uio_out[4] 0.000181303
2 *4587:LO 0.000181303
3 uio_out[4] uio_out[5] 3.7536e-05
4 uio_out[3] uio_out[4] 3.7536e-05
*RES
1 *4587:LO uio_out[4] 22.4056 
*END

*D_NET *35 0.000591347
*CONN
*P uio_out[5] O
*I *4588:LO O *D sky130_fd_sc_hd__conb_1
*CAP
1 uio_out[5] 0.000255885
2 *4588:LO 0.000255885
3 uio_out[5] uio_out[6] 4.20402e-05
4 uio_out[4] uio_out[5] 3.7536e-05
*RES
1 *4588:LO uio_out[5] 23.0134 
*END

*D_NET *36 0.000421374
*CONN
*P uio_out[6] O
*I *4589:LO O *D sky130_fd_sc_hd__conb_1
*CAP
1 uio_out[6] 0.00015026
2 *4589:LO 0.00015026
3 uio_out[6] uio_out[7] 7.88136e-05
4 uio_out[3] uio_out[6] 0
5 uio_out[5] uio_out[6] 4.20402e-05
*RES
1 *4589:LO uio_out[6] 21.4044 
*END

*D_NET *37 0.000406554
*CONN
*P uio_out[7] O
*I *4590:LO O *D sky130_fd_sc_hd__conb_1
*CAP
1 uio_out[7] 0.00012275
2 *4590:LO 0.00012275
3 uio_oe[0] uio_out[7] 8.22407e-05
4 uio_out[6] uio_out[7] 7.88136e-05
*RES
1 *4590:LO uio_out[7] 21.4044 
*END

*D_NET *38 0.00214538
*CONN
*P uo_out[0] O
*I *4433:X O *D sky130_fd_sc_hd__mux2_1
*CAP
1 uo_out[0] 0.000842511
2 *4433:X 0.000842511
3 uo_out[0] uo_out[1] 0.000218656
4 uo_out[0] *4353:A 0.0001234
5 uo_out[0] *4433:S 0
6 uo_out[0] *4434:A0 5.66157e-05
7 uo_out[0] *4435:A0 0
8 uo_out[0] *4515:CLK 0
9 uo_out[0] *4515:D 6.1684e-05
10 uo_out[0] *197:32 0
11 uo_out[0] *209:27 0
*RES
1 *4433:X uo_out[0] 30.1871 
*END

*D_NET *39 0.00164405
*CONN
*P uo_out[1] O
*I *4434:X O *D sky130_fd_sc_hd__mux2_1
*CAP
1 uo_out[1] 0.000588164
2 *4434:X 0.000588164
3 uo_out[1] uo_out[2] 0.00023688
4 uo_out[1] *197:32 1.21859e-05
5 uo_out[0] uo_out[1] 0.000218656
*RES
1 *4434:X uo_out[1] 22.8269 
*END

*D_NET *40 0.00122097
*CONN
*P uo_out[2] O
*I *4435:X O *D sky130_fd_sc_hd__mux2_1
*CAP
1 uo_out[2] 0.000443164
2 *4435:X 0.000443164
3 uo_out[2] uo_out[3] 7.71556e-05
4 uo_out[2] uo_out[5] 0
5 uo_out[2] *197:24 2.06112e-05
6 uo_out[1] uo_out[2] 0.00023688
*RES
1 *4435:X uo_out[2] 22.2567 
*END

*D_NET *41 0.000452519
*CONN
*P uo_out[3] O
*I *4436:X O *D sky130_fd_sc_hd__mux2_1
*CAP
1 uo_out[3] 0.000145223
2 *4436:X 0.000145223
3 uo_out[3] uo_out[4] 7.71556e-05
4 uio_out[0] uo_out[3] 7.76075e-06
5 uo_out[2] uo_out[3] 7.71556e-05
*RES
1 *4436:X uo_out[3] 21.4044 
*END

*D_NET *42 0.000918072
*CONN
*P uo_out[4] O
*I *4437:X O *D sky130_fd_sc_hd__mux2_1
*CAP
1 uo_out[4] 0.000336218
2 *4437:X 0.000336218
3 uo_out[4] uo_out[5] 7.71556e-05
4 uio_out[0] uo_out[4] 9.13246e-05
5 uo_out[3] uo_out[4] 7.71556e-05
*RES
1 *4437:X uo_out[4] 21.9089 
*END

*D_NET *43 0.00102891
*CONN
*P uo_out[5] O
*I *4438:X O *D sky130_fd_sc_hd__mux2_1
*CAP
1 uo_out[5] 0.000354885
2 *4438:X 0.000354885
3 uo_out[5] uo_out[6] 0.000241983
4 uo_out[2] uo_out[5] 0
5 uo_out[4] uo_out[5] 7.71556e-05
*RES
1 *4438:X uo_out[5] 22.2567 
*END

*D_NET *44 0.00158644
*CONN
*P uo_out[6] O
*I *4439:X O *D sky130_fd_sc_hd__mux2_1
*CAP
1 uo_out[6] 0.000553775
2 *4439:X 0.000553775
3 uo_out[6] uo_out[7] 0.000231119
4 uo_out[6] *198:89 5.7836e-06
5 uo_out[5] uo_out[6] 0.000241983
*RES
1 *4439:X uo_out[6] 22.899 
*END

*D_NET *45 0.00200431
*CONN
*P uo_out[7] O
*I *4440:X O *D sky130_fd_sc_hd__mux2_1
*CAP
1 uo_out[7] 0.000795812
2 *4440:X 0.000795812
3 uo_out[7] *4506:A 0
4 uo_out[7] *4513:RESET_B 0.000162358
5 uo_out[7] *4520:RESET_B 0
6 uo_out[7] *4522:CLK 0
7 uo_out[7] *4523:D 0
8 uo_out[7] *198:89 0
9 uo_out[7] *213:12 0
10 uio_out[0] uo_out[7] 1.92064e-05
11 uio_out[1] uo_out[7] 0
12 uo_out[6] uo_out[7] 0.000231119
*RES
1 *4440:X uo_out[7] 30.043 
*END

*D_NET *46 0.000225182
*CONN
*I *4519:D I *D sky130_fd_sc_hd__dfrtp_2
*I *4386:Y O *D sky130_fd_sc_hd__inv_2
*CAP
1 *4519:D 4.39317e-05
2 *4386:Y 4.39317e-05
3 *4519:D *4386:A 6.91157e-05
4 *4519:D *113:23 3.34295e-05
5 *4519:D *167:10 3.47737e-05
*RES
1 *4386:Y *4519:D 28.9393 
*END

*D_NET *47 0.00028096
*CONN
*I *4521:D I *D sky130_fd_sc_hd__dfrtp_2
*I *4348:Y O *D sky130_fd_sc_hd__inv_2
*CAP
1 *4521:D 0.00010044
2 *4348:Y 0.00010044
3 *4521:D *202:10 8.00806e-05
*RES
1 *4348:Y *4521:D 29.475 
*END

*D_NET *48 0.000544494
*CONN
*I *4515:D I *D sky130_fd_sc_hd__dfrtp_2
*I *4353:Y O *D sky130_fd_sc_hd__inv_2
*CAP
1 *4515:D 0.000186253
2 *4353:Y 0.000186253
3 *4515:D *4434:A0 1.02504e-05
4 *4515:D *4515:CLK 4.79842e-05
5 *4515:D *4517:RESET_B 5.20692e-05
6 uo_out[0] *4515:D 6.1684e-05
*RES
1 *4353:Y *4515:D 31.0107 
*END

*D_NET *49 0.000481985
*CONN
*I *4514:D I *D sky130_fd_sc_hd__dfrtp_2
*I *4355:Y O *D sky130_fd_sc_hd__inv_2
*CAP
1 *4514:D 0.000167818
2 *4355:Y 0.000167818
3 *4514:D *4512:D 4.57538e-05
4 *4514:D *210:20 0.000100594
*RES
1 *4355:Y *4514:D 31.0107 
*END

*D_NET *50 0.000612536
*CONN
*I *4513:D I *D sky130_fd_sc_hd__dfrtp_2
*I *4357:Y O *D sky130_fd_sc_hd__inv_2
*CAP
1 *4513:D 9.76711e-05
2 *4357:Y 9.76711e-05
3 *4513:D *4513:CLK 5.62995e-05
4 *4513:D *205:8 0.000360894
*RES
1 *4357:Y *4513:D 22.0107 
*END

*D_NET *51 0.000705641
*CONN
*I *4511:D I *D sky130_fd_sc_hd__dfrtp_2
*I *4359:Y O *D sky130_fd_sc_hd__inv_2
*CAP
1 *4511:D 0.000231743
2 *4359:Y 0.000231743
3 *4511:D *4359:A 9.53171e-05
4 *4511:D *4495:A 0.000104198
5 *4511:D *4511:CLK 3.18676e-05
6 *4511:D *206:10 1.07719e-05
*RES
1 *4359:Y *4511:D 31.7429 
*END

*D_NET *52 0.000613151
*CONN
*I *4510:D I *D sky130_fd_sc_hd__dfrtp_2
*I *4361:Y O *D sky130_fd_sc_hd__inv_2
*CAP
1 *4510:D 0.000257477
2 *4361:Y 0.000257477
3 *4510:D *4361:A 7.70035e-05
4 *4510:D *4494:A 7.84935e-06
5 *4510:D *4510:CLK 8.86129e-06
6 *4510:D *207:6 4.48347e-06
*RES
1 *4361:Y *4510:D 30.8723 
*END

*D_NET *53 0.000430604
*CONN
*I *4509:D I *D sky130_fd_sc_hd__dfrtp_2
*I *4363:Y O *D sky130_fd_sc_hd__inv_2
*CAP
1 *4509:D 0.000215302
2 *4363:Y 0.000215302
3 *4509:D *4363:A 0
*RES
1 *4363:Y *4509:D 30.6 
*END

*D_NET *54 0.000463078
*CONN
*I *4516:D I *D sky130_fd_sc_hd__dfrtp_2
*I *4350:Y O *D sky130_fd_sc_hd__inv_2
*CAP
1 *4516:D 0.000125759
2 *4350:Y 0.000125759
3 *4516:D *4433:A0 0.000103267
4 *4516:D *4518:RESET_B 9.90431e-05
5 *4516:D *202:19 9.25014e-06
*RES
1 *4350:Y *4516:D 29.8857 
*END

*D_NET *55 0.000790645
*CONN
*I *4512:D I *D sky130_fd_sc_hd__dfrtp_2
*I *4352:Y O *D sky130_fd_sc_hd__inv_2
*CAP
1 *4512:D 0.000353167
2 *4352:Y 0.000353167
3 *4512:D *4512:CLK 3.85567e-05
4 *4512:D *4515:RESET_B 0
5 *4512:D *210:20 0
6 *4514:D *4512:D 4.57538e-05
*RES
1 *4352:Y *4512:D 34.1 
*END

*D_NET *56 0.000641307
*CONN
*I *4508:D I *D sky130_fd_sc_hd__dfrtp_2
*I *4354:Y O *D sky130_fd_sc_hd__inv_2
*CAP
1 *4508:D 8.347e-05
2 *4354:Y 8.347e-05
3 *4508:D *4435:A0 9.77074e-05
4 *4508:D *4508:CLK 0.000100831
5 *4508:D *197:24 1.00375e-05
6 *4508:D *210:22 6.05161e-06
7 *4508:D *211:12 0.00025974
*RES
1 *4354:Y *4508:D 30.7071 
*END

*D_NET *57 0.000403722
*CONN
*I *4524:D I *D sky130_fd_sc_hd__dfrtp_2
*I *4356:Y O *D sky130_fd_sc_hd__inv_2
*CAP
1 *4524:D 0.000125614
2 *4356:Y 0.000125614
3 *4524:D *212:8 0.000152493
*RES
1 *4356:Y *4524:D 21.1893 
*END

*D_NET *58 0.000198003
*CONN
*I *4523:D I *D sky130_fd_sc_hd__dfrtp_2
*I *4358:Y O *D sky130_fd_sc_hd__inv_2
*CAP
1 *4523:D 5.8961e-05
2 *4358:Y 5.8961e-05
3 *4523:D *4513:RESET_B 0
4 *4523:D *213:12 8.00806e-05
5 uo_out[7] *4523:D 0
*RES
1 *4358:Y *4523:D 28.9393 
*END

*D_NET *59 0.000420891
*CONN
*I *4522:D I *D sky130_fd_sc_hd__dfrtp_2
*I *4360:Y O *D sky130_fd_sc_hd__inv_2
*CAP
1 *4522:D 4.40641e-05
2 *4360:Y 4.40641e-05
3 *4522:D *4439:A1 0.000229456
4 *4522:D *198:112 0.000103307
*RES
1 *4360:Y *4522:D 20.7786 
*END

*D_NET *60 0.000553137
*CONN
*I *4520:D I *D sky130_fd_sc_hd__dfrtp_2
*I *4362:Y O *D sky130_fd_sc_hd__inv_2
*CAP
1 *4520:D 0.000255694
2 *4362:Y 0.000255694
3 *4520:D *4504:A 6.05161e-06
4 *4520:D *4520:CLK 3.56976e-05
*RES
1 *4362:Y *4520:D 31.1179 
*END

*D_NET *61 0.000334347
*CONN
*I *4518:D I *D sky130_fd_sc_hd__dfrtp_2
*I *4349:Y O *D sky130_fd_sc_hd__inv_2
*CAP
1 *4518:D 0.00014932
2 *4349:Y 0.00014932
3 *4518:D *4349:A 3.5707e-05
4 *4518:D *215:12 0
*RES
1 *4349:Y *4518:D 29.8857 
*END

*D_NET *62 0.00050151
*CONN
*I *4517:D I *D sky130_fd_sc_hd__dfrtp_2
*I *4351:Y O *D sky130_fd_sc_hd__inv_2
*CAP
1 *4517:D 0.000192725
2 *4351:Y 0.000192725
3 *4517:D *4349:A 5.30637e-06
4 *4517:D *4434:A1 0
5 *4517:D *4517:CLK 3.5707e-05
6 *4517:D *216:16 7.50473e-05
7 *4517:D *217:12 0
*RES
1 *4351:Y *4517:D 30.7071 
*END

*D_NET *63 0.000504961
*CONN
*I *4508:CLK I *D sky130_fd_sc_hd__dfrtp_2
*I *4493:Y O *D sky130_fd_sc_hd__inv_2
*CAP
1 *4508:CLK 0.00013306
2 *4493:Y 0.00013306
3 *4508:CLK *4493:A 3.93893e-05
4 *4508:CLK *197:24 0
5 *4508:CLK *204:27 9.8621e-05
6 *4508:D *4508:CLK 0.000100831
*RES
1 *4493:Y *4508:CLK 30.1893 
*END

*D_NET *64 0.000146912
*CONN
*I *4509:CLK I *D sky130_fd_sc_hd__dfrtp_2
*I *4494:Y O *D sky130_fd_sc_hd__inv_2
*CAP
1 *4509:CLK 4.51581e-05
2 *4494:Y 4.51581e-05
3 *4509:CLK *4494:A 5.65955e-05
*RES
1 *4494:Y *4509:CLK 19.5464 
*END

*D_NET *65 0.000559417
*CONN
*I *4510:CLK I *D sky130_fd_sc_hd__dfrtp_2
*I *4495:Y O *D sky130_fd_sc_hd__inv_2
*CAP
1 *4510:CLK 0.000272853
2 *4495:Y 0.000272853
3 *4510:CLK *4361:A 0
4 *4510:CLK *4495:A 4.85049e-06
5 *4510:D *4510:CLK 8.86129e-06
*RES
1 *4495:Y *4510:CLK 31.5464 
*END

*D_NET *66 0.000488918
*CONN
*I *4511:CLK I *D sky130_fd_sc_hd__dfrtp_2
*I *4496:Y O *D sky130_fd_sc_hd__inv_2
*CAP
1 *4511:CLK 0.000164445
2 *4496:Y 0.000164445
3 *4511:CLK *4359:A 6.98302e-05
4 *4511:CLK *4495:A 5.83304e-05
5 *4511:D *4511:CLK 3.18676e-05
*RES
1 *4496:Y *4511:CLK 31.0107 
*END

*D_NET *67 0.000390414
*CONN
*I *4512:CLK I *D sky130_fd_sc_hd__dfrtp_2
*I *4497:Y O *D sky130_fd_sc_hd__inv_2
*CAP
1 *4512:CLK 0.000135818
2 *4497:Y 0.000135818
3 *4512:CLK *4497:A 2.84109e-05
4 *4512:CLK *4515:RESET_B 1.13883e-05
5 *4512:CLK *173:38 4.04221e-05
6 *4512:D *4512:CLK 3.85567e-05
*RES
1 *4497:Y *4512:CLK 30.1893 
*END

*D_NET *68 0.000131943
*CONN
*I *4513:CLK I *D sky130_fd_sc_hd__dfrtp_2
*I *4498:Y O *D sky130_fd_sc_hd__inv_2
*CAP
1 *4513:CLK 3.78215e-05
2 *4498:Y 3.78215e-05
3 *4513:D *4513:CLK 5.62995e-05
*RES
1 *4498:Y *4513:CLK 19.5464 
*END

*D_NET *69 0.000749394
*CONN
*I *4514:CLK I *D sky130_fd_sc_hd__dfrtp_2
*I *4499:Y O *D sky130_fd_sc_hd__inv_2
*CAP
1 *4514:CLK 0.000219348
2 *4499:Y 0.000219348
3 *4514:CLK *4499:A 0.000310699
*RES
1 *4499:Y *4514:CLK 32.2071 
*END

*D_NET *70 0.000656193
*CONN
*I *4515:CLK I *D sky130_fd_sc_hd__dfrtp_2
*I *4500:Y O *D sky130_fd_sc_hd__inv_2
*CAP
1 *4515:CLK 0.000288832
2 *4500:Y 0.000288832
3 *4515:CLK *4433:A1 3.05446e-05
4 *4515:CLK *4434:A1 0
5 *4515:CLK *217:12 0
6 uo_out[0] *4515:CLK 0
7 *4515:D *4515:CLK 4.79842e-05
*RES
1 *4500:Y *4515:CLK 32.6179 
*END

*D_NET *71 0.000123565
*CONN
*I *4516:CLK I *D sky130_fd_sc_hd__dfrtp_2
*I *4501:Y O *D sky130_fd_sc_hd__inv_2
*CAP
1 *4516:CLK 4.58485e-05
2 *4501:Y 4.58485e-05
3 *4516:CLK *4501:A 3.18676e-05
*RES
1 *4501:Y *4516:CLK 19.5464 
*END

*D_NET *72 0.000372723
*CONN
*I *4517:CLK I *D sky130_fd_sc_hd__dfrtp_2
*I *4502:Y O *D sky130_fd_sc_hd__inv_2
*CAP
1 *4517:CLK 0.000166663
2 *4502:Y 0.000166663
3 *4517:CLK *4349:A 3.69047e-06
4 *4517:CLK *4434:A1 0
5 *4517:CLK *4439:A0 0
6 *4517:CLK *214:14 0
7 *4517:D *4517:CLK 3.5707e-05
*RES
1 *4502:Y *4517:CLK 30.1893 
*END

*D_NET *73 0.000112637
*CONN
*I *4518:CLK I *D sky130_fd_sc_hd__dfrtp_2
*I *4503:Y O *D sky130_fd_sc_hd__inv_2
*CAP
1 *4518:CLK 5.63185e-05
2 *4503:Y 5.63185e-05
*RES
1 *4503:Y *4518:CLK 19.5464 
*END

*D_NET *74 0.000394053
*CONN
*I *4520:CLK I *D sky130_fd_sc_hd__dfrtp_2
*I *4504:Y O *D sky130_fd_sc_hd__inv_2
*CAP
1 *4520:CLK 0.000152506
2 *4504:Y 0.000152506
3 *4520:CLK *4504:A 5.33433e-05
4 *4520:D *4520:CLK 3.56976e-05
*RES
1 *4504:Y *4520:CLK 30.1893 
*END

*D_NET *75 0.000309651
*CONN
*I *4522:CLK I *D sky130_fd_sc_hd__dfrtp_2
*I *4505:Y O *D sky130_fd_sc_hd__inv_2
*CAP
1 *4522:CLK 0.000154825
2 *4505:Y 0.000154825
3 *4522:CLK *198:112 0
4 uo_out[7] *4522:CLK 0
*RES
1 *4505:Y *4522:CLK 29.7786 
*END

*D_NET *76 0.000170269
*CONN
*I *4523:CLK I *D sky130_fd_sc_hd__dfrtp_2
*I *4506:Y O *D sky130_fd_sc_hd__inv_2
*CAP
1 *4523:CLK 3.61259e-05
2 *4506:Y 3.61259e-05
3 *4523:CLK *4438:A1 9.80173e-05
*RES
1 *4506:Y *4523:CLK 19.5464 
*END

*D_NET *77 0.000539026
*CONN
*I *4524:CLK I *D sky130_fd_sc_hd__dfrtp_2
*I *4507:Y O *D sky130_fd_sc_hd__inv_2
*CAP
1 *4524:CLK 0.000198085
2 *4507:Y 0.000198085
3 *4524:CLK *4437:A0 0
4 *4524:CLK *4498:A 0.000142856
5 *4524:CLK *4523:RESET_B 0
*RES
1 *4507:Y *4524:CLK 30.6 
*END

*D_NET *78 0.00120898
*CONN
*I *4525:D I *D sky130_fd_sc_hd__dfrtp_2
*I *4442:X O *D sky130_fd_sc_hd__o21a_2
*CAP
1 *4525:D 0.000477829
2 *4442:X 0.000477829
3 *4525:D *4405:A 0.000123603
4 *4525:D *4476:B 0
5 *4525:D *4525:CLK 6.05161e-06
6 *4525:D *4535:CLK 0
7 *4525:D *4536:D 0
8 *4525:D *168:8 0
9 *4525:D *168:38 0
10 *4525:D *168:53 0.000123673
*RES
1 *4442:X *4525:D 37.1893 
*END

*D_NET *79 0.000997952
*CONN
*I *4526:D I *D sky130_fd_sc_hd__dfrtp_2
*I *4444:X O *D sky130_fd_sc_hd__mux2_1
*CAP
1 *4526:D 0.000463204
2 *4444:X 0.000463204
3 *4526:D *4526:CLK 6.05161e-06
4 *4526:D *4534:CLK 4.57538e-05
5 *4526:D *167:28 1.97381e-05
6 *4526:D *180:121 0
*RES
1 *4444:X *4526:D 34.2071 
*END

*D_NET *80 0.000340055
*CONN
*I *4527:D I *D sky130_fd_sc_hd__dfrtp_2
*I *4446:X O *D sky130_fd_sc_hd__a32o_2
*CAP
1 *4527:D 0.000111489
2 *4446:X 0.000111489
3 *4527:D *4445:B 5.52302e-05
4 *4527:D *4527:RESET_B 0
5 *4527:D *167:14 4.78056e-05
6 *4527:D *180:121 0
7 *4527:D *1275:24 2.51343e-06
8 *4527:D *1275:43 1.15281e-05
*RES
1 *4446:X *4527:D 29.7786 
*END

*D_NET *81 0.000427839
*CONN
*I *4528:D I *D sky130_fd_sc_hd__dfrtp_2
*I *4450:X O *D sky130_fd_sc_hd__a22o_2
*CAP
1 *4528:D 0.000110463
2 *4450:X 0.000110463
3 *4528:D *4449:A 3.18676e-05
4 *4528:D *97:12 0.000103285
5 *4528:D *114:10 7.17603e-05
*RES
1 *4450:X *4528:D 30.6893 
*END

*D_NET *82 0.0014871
*CONN
*I *4529:D I *D sky130_fd_sc_hd__dfrtp_2
*I *4454:Y O *D sky130_fd_sc_hd__nor3_2
*CAP
1 *4529:D 0.00041328
2 *4454:Y 0.00041328
3 *4529:D *4454:C 5.49489e-05
4 *4529:D *4456:A1 4.57445e-05
5 *4529:D *4456:A2 0.000139907
6 *4529:D *4456:B1 3.34295e-05
7 *4529:D *4459:B1 4.58976e-05
8 *4529:D *104:22 0.000116033
9 *4529:D *138:19 0
10 *4529:D *140:18 0.000224577
11 *4529:D *169:40 0
12 *4529:D *1286:10 0
13 *4529:D *1286:19 0
14 *4529:D *1286:38 0
*RES
1 *4454:Y *4529:D 36.4036 
*END

*D_NET *83 0.00117175
*CONN
*I *4530:D I *D sky130_fd_sc_hd__dfrtp_2
*I *4457:Y O *D sky130_fd_sc_hd__nor2_2
*CAP
1 *4530:D 0.000314452
2 *4457:Y 0.000314452
3 *4530:D *4457:B 0.000542846
*RES
1 *4457:Y *4530:D 34.9393 
*END

*D_NET *84 0.000401011
*CONN
*I *4531:D I *D sky130_fd_sc_hd__dfrtp_2
*I *4460:X O *D sky130_fd_sc_hd__o21a_2
*CAP
1 *4531:D 0.000144793
2 *4460:X 0.000144793
3 *4531:D *4456:A1 1.05947e-05
4 *4531:D *169:40 0.000100831
*RES
1 *4460:X *4531:D 29.8857 
*END

*D_NET *85 0.000276131
*CONN
*I *4532:D I *D sky130_fd_sc_hd__dfrtp_2
*I *4463:Y O *D sky130_fd_sc_hd__nor3_2
*CAP
1 *4532:D 3.07576e-05
2 *4463:Y 3.07576e-05
3 *4532:D *4457:A 5.23057e-05
4 *4532:D *4532:CLK 5.71472e-05
5 *4532:D *1287:6 0.000105163
*RES
1 *4463:Y *4532:D 20.3679 
*END

*D_NET *86 0.000303996
*CONN
*I *4533:D I *D sky130_fd_sc_hd__dfrtp_2
*I *4468:X O *D sky130_fd_sc_hd__o21a_2
*CAP
1 *4533:D 0.000112072
2 *4468:X 0.000112072
3 *4533:D *4468:A1 3.18676e-05
4 *4533:D *4533:CLK 4.79842e-05
*RES
1 *4468:X *4533:D 29.7786 
*END

*D_NET *87 0.000378798
*CONN
*I *4534:D I *D sky130_fd_sc_hd__dfrtp_2
*I *4470:Y O *D sky130_fd_sc_hd__a21oi_2
*CAP
1 *4534:D 0.000162727
2 *4470:Y 0.000162727
3 *4534:D *4470:A1 5.33433e-05
4 *4534:D *1289:10 0
*RES
1 *4470:Y *4534:D 30.4929 
*END

*D_NET *88 0.00133886
*CONN
*I *4535:D I *D sky130_fd_sc_hd__dfrtp_2
*I *4473:X O *D sky130_fd_sc_hd__and3_2
*CAP
1 *4535:D 0.000296282
2 *4473:X 0.000296282
3 *4535:D *4472:C 6.09688e-05
4 *4535:D *4473:B 0.0002302
5 *4535:D *4473:C 0.000232124
6 *4535:D *4535:CLK 5.41609e-05
7 *4535:D *1290:8 0.000168843
*RES
1 *4473:X *4535:D 26.2607 
*END

*D_NET *89 0.000575995
*CONN
*I *4536:D I *D sky130_fd_sc_hd__dfrtp_2
*I *4476:X O *D sky130_fd_sc_hd__and3_2
*CAP
1 *4536:D 0.000285094
2 *4476:X 0.000285094
3 *4536:D *4476:B 5.80706e-06
4 *4536:D *4535:RESET_B 0
5 *4536:D *1276:10 0
6 *4525:D *4536:D 0
*RES
1 *4476:X *4536:D 32.2429 
*END

*D_NET *90 0.00136462
*CONN
*I *4537:D I *D sky130_fd_sc_hd__dfrtp_2
*I *4481:Y O *D sky130_fd_sc_hd__a211oi_2
*CAP
1 *4537:D 0.000318675
2 *4481:Y 0.000318675
3 *4537:D *4347:A 7.02611e-05
4 *4537:D *4528:RESET_B 0.000316887
5 *4537:D *105:45 0.00012673
6 *4537:D *112:124 5.5671e-05
7 *4537:D *156:45 0.00010965
8 *4537:D *180:10 4.80729e-05
*RES
1 *4481:Y *4537:D 35.2786 
*END

*D_NET *91 0.000967214
*CONN
*I *4538:D I *D sky130_fd_sc_hd__dfrtp_2
*I *4483:X O *D sky130_fd_sc_hd__o21a_2
*CAP
1 *4538:D 0.000216233
2 *4483:X 0.000216233
3 *4538:D *4480:A 0.000157147
4 *4538:D *4525:RESET_B 0
5 *4538:D *4537:CLK 0.000297522
6 *4538:D *196:10 8.00806e-05
*RES
1 *4483:X *4538:D 33.6357 
*END

*D_NET *92 0.00376013
*CONN
*I *4539:D I *D sky130_fd_sc_hd__dfrtp_2
*I *4487:X O *D sky130_fd_sc_hd__and3_2
*CAP
1 *4539:D 0.00136398
2 *4487:X 0.00136398
3 *4539:D *4382:A 2.89114e-05
4 *4539:D *4486:B 7.847e-05
5 *4539:D *4487:C 0.000686919
6 *4539:D *4489:B 7.6644e-05
7 *4539:D *4489:C 1.68761e-05
8 *4539:D *4539:RESET_B 7.6612e-06
9 *4539:D *110:12 2.13481e-06
10 *4539:D *1279:10 0.000115745
11 *4539:D *1279:12 1.87991e-05
12 *4571:A *4539:D 0
*RES
1 *4487:X *4539:D 47.9029 
*END

*D_NET *93 0.000450844
*CONN
*I *4540:D I *D sky130_fd_sc_hd__dfrtp_2
*I *4490:Y O *D sky130_fd_sc_hd__nor3_2
*CAP
1 *4540:D 0.000182393
2 *4490:Y 0.000182393
3 *4540:D *4490:B 0
4 *4540:D *4540:CLK 2.89114e-05
5 *4540:D *170:26 0
6 *4540:D *170:39 0
7 *4540:D *1280:10 5.71472e-05
*RES
1 *4490:Y *4540:D 30.9929 
*END

*D_NET *94 0.0019568
*CONN
*I *4541:D I *D sky130_fd_sc_hd__dfrtp_2
*I *4492:X O *D sky130_fd_sc_hd__o21a_2
*CAP
1 *4541:D 0.000740527
2 *4492:X 0.000740527
3 *4541:D *4377:A_N 9.88452e-05
4 *4541:D *4377:B 9.66977e-05
5 *4541:D *4479:A 6.63899e-05
6 *4541:D *4492:A1 3.3533e-05
7 *4541:D *4492:B1 0.000180281
*RES
1 *4492:X *4541:D 27.7786 
*END

*D_NET *95 0.00064985
*CONN
*I *4387:B I *D sky130_fd_sc_hd__nor2_2
*I *4441:A I *D sky130_fd_sc_hd__nor2_2
*I *4346:Y O *D sky130_fd_sc_hd__inv_2
*CAP
1 *4387:B 0
2 *4441:A 0.000113607
3 *4346:Y 8.13771e-05
4 *95:8 0.000194984
5 *4441:A *4443:B 3.07555e-05
6 *4441:A *4475:D 2.06178e-05
7 *4441:A *166:19 5.92338e-05
8 *4441:A *166:46 0
9 *4441:A *196:10 2.72101e-05
10 *4441:A *201:25 5.80706e-06
11 *95:8 *4384:B1 5.91094e-05
12 *95:8 *166:27 5.71472e-05
*RES
1 *4346:Y *95:8 11.0857 
2 *95:8 *4441:A 20.55 
3 *95:8 *4387:B 9.3 
*END

*D_NET *96 0.00159892
*CONN
*I *4481:A1 I *D sky130_fd_sc_hd__a211oi_2
*I *4347:Y O *D sky130_fd_sc_hd__inv_2
*CAP
1 *4481:A1 0.000343365
2 *4347:Y 0.000343365
3 *4481:A1 *4347:A 0.000224577
4 *4481:A1 *4441:B 5.52238e-05
5 *4481:A1 *4443:A 0.000267458
6 *4481:A1 *112:103 0.000336431
7 *4481:A1 *112:124 9.25014e-06
8 *4481:A1 *156:45 3.4323e-06
9 *4481:A1 *1289:90 1.58163e-05
*RES
1 *4347:Y *4481:A1 35.1 
*END

*D_NET *97 0.00962126
*CONN
*I *4553:A I *D sky130_fd_sc_hd__clkdlybuf4s25_1
*I *4554:A I *D sky130_fd_sc_hd__clkdlybuf4s25_1
*I *4364:X O *D sky130_fd_sc_hd__and2_2
*CAP
1 *4553:A 0.000529522
2 *4554:A 0.00227534
3 *4364:X 0.000325376
4 *97:12 0.00313023
5 *4553:A *4368:B 2.39876e-05
6 *4553:A *4407:A 0.000152333
7 *4553:A *4623:A 9.60939e-05
8 *4553:A *4950:A 1.59782e-05
9 *4553:A *4955:A 6.97972e-05
10 *4553:A *100:10 0.00022957
11 *4553:A *101:42 9.80173e-05
12 *4553:A *114:10 0
13 *4553:A *115:42 0.000249343
14 *4553:A *174:14 0.000245349
15 *4553:A *179:12 0.000196262
16 *4553:A *191:10 0
17 *4553:A *195:24 1.07593e-05
18 *4553:A *195:50 1.08601e-05
19 *4554:A *4449:A 0.000141975
20 *4554:A *4527:RESET_B 0.000521555
21 *4554:A *4528:CLK 7.43787e-05
22 *4554:A *5297:A 2.01431e-05
23 *4554:A *5298:A 3.33238e-05
24 *4554:A *5306:A 6.42892e-05
25 *4554:A *5317:A 2.03263e-05
26 *4554:A *5319:A 9.49691e-06
27 *4554:A *5323:A 1.09136e-05
28 *4554:A *5324:A 3.48196e-05
29 *4554:A *5325:A 0.00031479
30 *4554:A *167:28 0.000240115
31 *97:12 *4385:B 8.32242e-05
32 *97:12 *4449:A 9.97744e-05
33 *97:12 *112:14 9.94991e-05
34 *97:12 *114:10 9.05269e-05
35 *97:12 *191:10 0
36 *4528:D *97:12 0.000103285
*RES
1 *4364:X *97:12 22.4339 
2 *97:12 *4554:A 46.7375 
3 *97:12 *4553:A 29.0411 
*END

*D_NET *98 0.0208207
*CONN
*I *4421:A I *D sky130_fd_sc_hd__and3_2
*I *4409:A I *D sky130_fd_sc_hd__and3_2
*I *4375:B I *D sky130_fd_sc_hd__and3_2
*I *4425:B I *D sky130_fd_sc_hd__and3_2
*I *4417:A I *D sky130_fd_sc_hd__and3_2
*I *4413:A I *D sky130_fd_sc_hd__and3_2
*I *4367:B I *D sky130_fd_sc_hd__and3_2
*I *4429:B I *D sky130_fd_sc_hd__and3_2
*I *4365:X O *D sky130_fd_sc_hd__and2_2
*CAP
1 *4421:A 0.000126126
2 *4409:A 0
3 *4375:B 0
4 *4425:B 0.00045465
5 *4417:A 0
6 *4413:A 0.000350214
7 *4367:B 0
8 *4429:B 0.000524433
9 *4365:X 0.00244911
10 *98:83 0.000663021
11 *98:77 0.00130616
12 *98:65 0.00250336
13 *98:26 0.000792355
14 *98:20 0.000700226
15 *98:16 0.00125176
16 *4413:A *4413:C 1.02504e-05
17 *4413:A *4416:A 5.43366e-05
18 *4413:A *4671:A 6.5185e-05
19 *4413:A *99:86 5.08481e-05
20 *4413:A *103:30 0
21 *4413:A *103:34 0
22 *4413:A *174:77 0.000245368
23 *4413:A *174:94 0.000164482
24 *4421:A *130:12 0.000437227
25 *4421:A *175:54 0.000431831
26 *4425:B *4375:A 0.000199793
27 *4425:B *5380:A 7.79781e-06
28 *4425:B *100:56 0.000130583
29 *4425:B *176:22 0.000181803
30 *4425:B *177:59 0.000108538
31 *4425:B *194:63 0.000292789
32 *4429:B *4428:C 9.31893e-05
33 *4429:B *5210:A 2.59093e-05
34 *4429:B *5215:A 0
35 *4429:B *5231:B 0.000197984
36 *4429:B *99:75 0
37 *4429:B *120:48 1.33343e-05
38 *4429:B *176:66 0.000674019
39 *98:16 *4666:A 0.000116576
40 *98:16 *4677:A 0.000134772
41 *98:16 *5599:A 2.3541e-05
42 *98:16 *5601:A 2.80853e-05
43 *98:16 *5602:A 9.57215e-05
44 *98:16 *5603:A 9.57215e-05
45 *98:16 *5604:A 9.57215e-05
46 *98:16 *5606:A 1.96517e-05
47 *98:16 *102:53 0.000140088
48 *98:16 *102:55 9.69119e-06
49 *98:16 *102:81 3.34672e-05
50 *98:16 *174:71 0.00139639
51 *98:20 *4666:A 0.000142063
52 *98:20 *4687:A 5.52238e-05
53 *98:20 *174:71 0.00010096
54 *98:20 *174:77 0.000142856
55 *98:26 *4432:A 1.72894e-05
56 *98:26 *5231:B 0
57 *98:26 *99:69 6.05161e-06
58 *98:26 *99:75 4.14106e-05
59 *98:26 *99:86 0.000123912
60 *98:26 *174:77 1.76039e-05
61 *98:26 *176:66 1.40306e-05
62 *98:65 *4756:A 2.80853e-05
63 *98:65 *4757:A 9.57215e-05
64 *98:65 *4767:A 3.00023e-05
65 *98:65 *4768:A 9.57215e-05
66 *98:65 *4769:A 9.57215e-05
67 *98:65 *4770:A 9.57215e-05
68 *98:65 *4771:A 9.57215e-05
69 *98:65 *4772:A 1.66856e-05
70 *98:65 *4782:A 0.000216096
71 *98:65 *101:54 0.000223102
72 *98:65 *390:6 0.000150011
73 *98:77 *4694:A 9.77274e-05
74 *98:77 *4697:A 7.64755e-05
75 *98:77 *5414:A 0.000146937
76 *98:77 *101:54 4.17014e-05
77 *98:77 *174:22 0.00179678
78 *98:77 *194:63 1.00375e-05
79 *98:83 *4409:C 3.92757e-05
80 *98:83 *100:56 7.75024e-05
81 *98:83 *194:63 3.41692e-05
*RES
1 *4365:X *98:16 46.8 
2 *98:16 *98:20 7.5 
3 *98:20 *98:26 9.625 
4 *98:26 *4429:B 29.9071 
5 *98:26 *4367:B 9.3 
6 *98:20 *4413:A 23.6393 
7 *98:16 *4417:A 9.3 
8 *4365:X *98:65 34.4786 
9 *98:65 *98:77 27.9821 
10 *98:77 *98:83 4.42857 
11 *98:83 *4425:B 24.4964 
12 *98:83 *4375:B 13.8 
13 *98:77 *4409:A 13.8 
14 *98:65 *4421:A 23.8893 
*END

*D_NET *99 0.0200788
*CONN
*I *4414:A I *D sky130_fd_sc_hd__and3_2
*I *4415:A I *D sky130_fd_sc_hd__and3_2
*I *4431:B I *D sky130_fd_sc_hd__and3_2
*I *4367:C I *D sky130_fd_sc_hd__and3_2
*I *4416:A I *D sky130_fd_sc_hd__and3_2
*I *4417:B I *D sky130_fd_sc_hd__and3_2
*I *4432:B I *D sky130_fd_sc_hd__and3_2
*I *4430:B I *D sky130_fd_sc_hd__and3_2
*I *4402:A1 I *D sky130_fd_sc_hd__a22o_2
*I *4395:A1 I *D sky130_fd_sc_hd__a22o_2
*I *4366:X O *D sky130_fd_sc_hd__and2b_2
*CAP
1 *4414:A 6.374e-05
2 *4415:A 0
3 *4431:B 0.000144987
4 *4367:C 0
5 *4416:A 0.000171838
6 *4417:B 0.00023126
7 *4432:B 0.000187262
8 *4430:B 0.00121888
9 *4402:A1 0.000127604
10 *4395:A1 0.00034977
11 *4366:X 0
12 *99:86 0.000539008
13 *99:75 0.000577145
14 *99:69 0.00150427
15 *99:41 0.00156914
16 *99:39 0.00156636
17 *99:37 0.000570046
18 *99:31 0.00134975
19 *99:8 0.00239315
20 *99:4 0.00108903
21 *4395:A1 *4395:A2 1.46576e-05
22 *4395:A1 *4395:B1 3.57366e-05
23 *4395:A1 *4395:B2 3.32731e-05
24 *4395:A1 *4396:B 0.000189736
25 *4395:A1 *5465:A 2.3541e-05
26 *4395:A1 *120:118 7.14056e-05
27 *4402:A1 *4427:B 0
28 *4402:A1 *5139:A 8.32242e-05
29 *4402:A1 *176:48 0.000108239
30 *4402:A1 *178:83 3.47737e-05
31 *4414:A *101:78 5.56943e-05
32 *4416:A *4671:A 9.57017e-05
33 *4416:A *103:34 0.000121735
34 *4417:B *4666:A 0.000122101
35 *4417:B *4687:B 1.92905e-05
36 *4430:B *5104:A 3.80922e-05
37 *4430:B *5105:A 3.80922e-05
38 *4430:B *5106:A 5.22516e-05
39 *4430:B *5125:A 5.23057e-05
40 *4430:B *5127:A 7.71303e-05
41 *4430:B *5132:A 6.98553e-06
42 *4430:B *5133:A 0.000144324
43 *4430:B *176:36 0.000216786
44 *4430:B *176:48 6.64653e-05
45 *4431:B *5167:B 9.91033e-05
46 *4432:B *4432:A 2.72859e-05
47 *4432:B *4432:C 1.40306e-05
48 *99:8 *4396:B 0.000960241
49 *99:8 *5456:A 2.8066e-05
50 *99:8 *5457:A 0.000133862
51 *99:8 *5458:A 3.51764e-05
52 *99:8 *5557:A 2.80853e-05
53 *99:8 *5558:A 7.18982e-05
54 *99:8 *5559:A 9.57215e-05
55 *99:8 *5560:A 9.57215e-05
56 *99:8 *5561:A 9.57215e-05
57 *99:8 *5563:A 9.57215e-05
58 *99:8 *5564:A 9.26762e-05
59 *99:8 *5565:A 9.52792e-05
60 *99:8 *5566:A 9.57215e-05
61 *99:8 *5567:A 7.61109e-05
62 *99:8 *1215:6 3.33174e-05
63 *99:31 *4365:B 0.000173836
64 *99:31 *4411:A 0
65 *99:31 *5456:A 0
66 *99:31 *5458:A 1.02504e-05
67 *99:31 *5465:A 0
68 *99:31 *5466:A 0
69 *99:31 *5467:A 0
70 *99:31 *5470:A 0.000121842
71 *99:31 *5473:A 0
72 *99:31 *5475:A 0
73 *99:31 *5479:A 0
74 *99:31 *5482:A 0
75 *99:31 *5484:A 0
76 *99:31 *5487:B 0
77 *99:31 *120:28 0
78 *99:31 *174:61 0
79 *99:31 *178:73 0
80 *99:31 *179:91 3.23712e-05
81 *99:37 *4365:B 5.49544e-05
82 *99:37 *4411:A 0.000101545
83 *99:37 *4427:B 0
84 *99:37 *5167:B 0
85 *99:37 *102:55 0
86 *99:37 *102:81 0
87 *99:37 *174:71 8.6642e-05
88 *99:37 *178:83 0
89 *99:39 *5167:B 0
90 *99:39 *178:83 0
91 *99:41 *4427:B 0
92 *99:41 *5139:A 6.81083e-05
93 *99:41 *5140:A 2.78729e-05
94 *99:41 *5167:B 0
95 *99:41 *178:83 0
96 *99:69 *5145:A 6.71295e-05
97 *99:69 *5147:A 2.25871e-05
98 *99:69 *5148:A 2.80789e-05
99 *99:69 *5149:A 0.000132054
100 *99:69 *5150:A 1.89695e-05
101 *99:69 *5151:A 2.3541e-05
102 *99:69 *5152:A 6.78233e-05
103 *99:69 *5200:A 0.000134772
104 *99:69 *5201:A 4.15034e-05
105 *99:69 *5202:A 0.000134772
106 *99:69 *5221:A 2.3541e-05
107 *99:69 *5223:A 5.53587e-05
108 *99:69 *5224:A 4.40835e-05
109 *99:69 *5225:A 2.3541e-05
110 *99:69 *5226:A 6.32951e-05
111 *99:69 *5227:A 2.80853e-05
112 *99:69 *5228:A 9.57215e-05
113 *99:69 *5229:A 0.00010436
114 *99:69 *5231:A 2.89114e-05
115 *99:75 *4428:B 0
116 *99:75 *4432:A 0.000319082
117 *99:75 *176:66 4.18895e-05
118 *99:86 *4432:A 9.71532e-05
119 *99:86 *103:34 0
120 *4413:A *4416:A 5.43366e-05
121 *4413:A *99:86 5.08481e-05
122 *4429:B *99:75 0
123 *98:26 *99:69 6.05161e-06
124 *98:26 *99:75 4.14106e-05
125 *98:26 *99:86 0.000123912
*RES
1 *4366:X *99:4 9.3 
2 *99:4 *99:8 22.3214 
3 *99:8 *4395:A1 16.8714 
4 *99:8 *99:31 26.1964 
5 *99:31 *99:37 11.2321 
6 *99:37 *99:39 1.64286 
7 *99:39 *99:41 4.375 
8 *99:41 *4402:A1 17.3179 
9 *99:41 *4430:B 30.3536 
10 *99:39 *99:69 29.4821 
11 *99:69 *99:75 9.23214 
12 *99:75 *4432:B 15.9786 
13 *99:75 *99:86 4.07143 
14 *99:86 *4417:B 16.8 
15 *99:86 *4416:A 18.8893 
16 *99:69 *4367:C 9.3 
17 *99:37 *4431:B 15.6929 
18 *99:31 *4415:A 9.3 
19 *99:4 *4414:A 19.6393 
*END

*D_NET *100 0.0189269
*CONN
*I *4372:B I *D sky130_fd_sc_hd__and3_2
*I *4399:A1 I *D sky130_fd_sc_hd__a22o_2
*I *4418:A I *D sky130_fd_sc_hd__and3_2
*I *4419:A I *D sky130_fd_sc_hd__and3_2
*I *4420:A I *D sky130_fd_sc_hd__and3_2
*I *4374:B I *D sky130_fd_sc_hd__and3_2
*I *4391:B2 I *D sky130_fd_sc_hd__a22o_2
*I *4421:B I *D sky130_fd_sc_hd__and3_2
*I *4375:C I *D sky130_fd_sc_hd__and3_2
*I *4370:B I *D sky130_fd_sc_hd__and3_2
*I *4368:X O *D sky130_fd_sc_hd__and2_2
*CAP
1 *4372:B 0
2 *4399:A1 0
3 *4418:A 0
4 *4419:A 0
5 *4420:A 0
6 *4374:B 0.000542211
7 *4391:B2 0.000552105
8 *4421:B 0
9 *4375:C 4.18948e-05
10 *4370:B 7.68516e-05
11 *4368:X 0.000497901
12 *100:88 0.000800813
13 *100:80 0.000908671
14 *100:78 0.000470778
15 *100:56 0.000959614
16 *100:35 0.00119711
17 *100:27 0.00111987
18 *100:12 0.000940245
19 *100:10 0.000790044
20 *4370:B *4398:S0 5.21933e-05
21 *4370:B *4423:B 0.000103256
22 *4370:B *176:16 9.91086e-05
23 *4374:B *4420:C 9.60939e-05
24 *4374:B *4426:B 0
25 *4374:B *4725:A 0.000136958
26 *4374:B *4726:A 5.35516e-05
27 *4374:B *101:56 0
28 *4374:B *103:78 0.000871476
29 *4374:B *177:16 6.62961e-05
30 *4375:C *5382:A 5.33005e-05
31 *4391:B2 *4391:A2 9.98088e-05
32 *4391:B2 *4391:B1 0.000101846
33 *4391:B2 *4396:A 8.49318e-05
34 *4391:B2 *4408:C 1.17968e-05
35 *4391:B2 *5316:A 1.13574e-05
36 *4391:B2 *5318:A 0
37 *4391:B2 *115:20 0.000102315
38 *4391:B2 *130:12 0.00021788
39 *4391:B2 *179:66 1.30365e-05
40 *100:10 *4371:B 0
41 *100:10 *4397:S0 0
42 *100:10 *4556:A 9.71197e-05
43 *100:10 *4950:A 7.83587e-05
44 *100:10 *4955:A 0.000126439
45 *100:10 *174:14 0.000153964
46 *100:10 *176:10 6.81083e-05
47 *100:10 *179:32 0.000701342
48 *100:12 *4371:B 0
49 *100:12 *4423:B 0.000292725
50 *100:12 *5367:A 0.000153047
51 *100:12 *102:29 4.31104e-05
52 *100:12 *176:10 0.000108118
53 *100:12 *176:16 0.000782686
54 *100:27 *4399:A2 0.00079748
55 *100:35 *4399:B1 1.02504e-05
56 *100:35 *5382:A 0.000149201
57 *100:35 *5391:A 4.9084e-05
58 *100:35 *5391:B 4.40835e-05
59 *100:35 *115:75 0.000168226
60 *100:35 *194:63 0
61 *100:56 *4409:C 3.69047e-06
62 *100:56 *4703:A 2.89016e-05
63 *100:56 *4707:A 0.000198574
64 *100:56 *4708:A 0.000205626
65 *100:56 *4710:A 0.000245678
66 *100:56 *4719:B 6.06291e-06
67 *100:56 *102:49 6.8646e-06
68 *100:56 *194:63 0.000248486
69 *100:78 *4697:A 0.000116768
70 *100:78 *4699:A 9.47974e-05
71 *100:78 *4700:A 9.47974e-05
72 *100:78 *4701:A 7.62083e-05
73 *100:78 *4708:A 0.000110942
74 *100:78 *4710:A 7.71303e-05
75 *100:78 *4751:A 5.52302e-05
76 *100:78 *102:49 1.5424e-05
77 *100:78 *102:53 5.7659e-05
78 *100:78 *175:35 0.000189091
79 *100:78 *175:39 6.97692e-05
80 *100:80 *4420:C 8.57023e-05
81 *100:80 *4724:A 2.79827e-05
82 *100:80 *4725:A 7.56557e-05
83 *100:80 *102:53 0.000171786
84 *100:80 *175:39 0.000481746
85 *100:88 *175:54 0.000552708
86 *100:88 *177:12 0.000295265
87 *4425:B *100:56 0.000130583
88 *4553:A *100:10 0.00022957
89 *98:83 *100:56 7.75024e-05
*RES
1 *4368:X *100:10 27.925 
2 *100:10 *100:12 11.3571 
3 *100:12 *4370:B 16.3536 
4 *100:12 *100:27 12.8571 
5 *100:27 *100:35 17.9107 
6 *100:35 *4375:C 9.83571 
7 *100:35 *100:56 32.1607 
8 *100:56 *100:78 10.3214 
9 *100:78 *100:80 5.41071 
10 *100:80 *100:88 16.6429 
11 *100:88 *4421:B 9.3 
12 *100:88 *4391:B2 29.2821 
13 *100:80 *4374:B 32.2286 
14 *100:80 *4420:A 9.3 
15 *100:78 *4419:A 9.3 
16 *100:56 *4418:A 9.3 
17 *100:27 *4399:A1 9.3 
18 *100:10 *4372:B 13.8 
*END

*D_NET *101 0.0211937
*CONN
*I *4406:A I *D sky130_fd_sc_hd__and3_2
*I *4418:B I *D sky130_fd_sc_hd__and3_2
*I *4414:B I *D sky130_fd_sc_hd__and3_2
*I *4410:A I *D sky130_fd_sc_hd__and3_2
*I *4430:C I *D sky130_fd_sc_hd__and3_2
*I *4426:B I *D sky130_fd_sc_hd__and3_2
*I *4370:C I *D sky130_fd_sc_hd__and3_2
*I *4422:B I *D sky130_fd_sc_hd__and3_2
*I *4369:Y O *D sky130_fd_sc_hd__nor2_2
*CAP
1 *4406:A 0
2 *4418:B 0.000184375
3 *4414:B 6.80945e-05
4 *4410:A 0.000401815
5 *4430:C 0.000560518
6 *4426:B 0.000488587
7 *4370:C 9.87877e-05
8 *4422:B 0.000220019
9 *4369:Y 0.000122507
10 *101:78 0.00116127
11 *101:56 0.00174708
12 *101:54 0.00228897
13 *101:48 0.00218984
14 *101:42 0.00127962
15 *101:12 0.000817157
16 *101:10 0.000794643
17 *4370:C *5263:A 2.14757e-05
18 *4370:C *5358:A 0.000180777
19 *4370:C *5390:A 0.000140933
20 *4410:A *4414:C 6.05161e-06
21 *4410:A *5568:A 4.42158e-05
22 *4410:A *5569:A 9.27788e-05
23 *4410:A *5570:A 9.57215e-05
24 *4410:A *5571:A 9.57215e-05
25 *4410:A *5572:A 9.57215e-05
26 *4410:A *5574:A 9.57215e-05
27 *4410:A *5583:B 0.000164756
28 *4410:A *120:14 0.000230475
29 *4410:A *174:43 9.37951e-05
30 *4414:B *5562:A 0
31 *4418:B *4698:A 0
32 *4418:B *4711:A 9.25014e-06
33 *4422:B *4422:C 5.30637e-06
34 *4422:B *4423:B 0
35 *4422:B *5390:A 9.69119e-06
36 *4426:B *4426:A 7.78042e-05
37 *4426:B *5007:A 5.41494e-05
38 *4426:B *177:16 0
39 *4430:C *129:14 0.000881782
40 *101:10 *4397:S0 6.91157e-05
41 *101:10 *4623:A 9.90431e-05
42 *101:12 *4371:B 5.4115e-05
43 *101:12 *4397:A3 0
44 *101:12 *4397:S0 0.000465017
45 *101:12 *4397:S1 0
46 *101:12 *4423:B 0
47 *101:12 *5358:A 6.42338e-05
48 *101:12 *5363:A 0.000346632
49 *101:12 *5364:A 0.000315887
50 *101:12 *5390:A 4.038e-06
51 *101:12 *1017:10 4.75428e-05
52 *101:42 *4369:A 8.17274e-05
53 *101:42 *4369:B 0.000520054
54 *101:42 *4552:A 1.24368e-05
55 *101:42 *4623:A 3.68898e-05
56 *101:42 *115:56 4.72917e-05
57 *101:42 *179:32 0.00014285
58 *101:48 *4552:A 0.000167251
59 *101:48 *4698:A 8.706e-05
60 *101:48 *4709:A 1.06439e-05
61 *101:48 *5411:A 0.000230475
62 *101:48 *5415:A 1.37743e-05
63 *101:48 *5416:A 6.665e-05
64 *101:48 *5417:A 0.000134772
65 *101:48 *5418:A 0.000122866
66 *101:48 *115:56 9.71197e-05
67 *101:48 *174:22 0.000266919
68 *101:54 *4694:A 0.000244207
69 *101:54 *4695:A 9.57215e-05
70 *101:54 *4696:A 9.57078e-05
71 *101:54 *4709:A 0.000110942
72 *101:54 *4711:A 3.52408e-05
73 *101:54 *174:22 0.00039819
74 *101:56 *4726:A 0.000246057
75 *101:56 *4728:A 0
76 *101:56 *4731:A 0
77 *101:56 *4733:A 0
78 *101:56 *4735:A 5.35423e-05
79 *101:56 *4750:A 0.000141375
80 *101:56 *4762:A 0
81 *101:56 *103:74 0
82 *101:78 *4366:A_N 9.11365e-06
83 *101:78 *4366:B 0.000150625
84 *101:78 *4390:A1 3.79467e-05
85 *101:78 *4390:S1 0.0004445
86 *101:78 *4404:B2 0
87 *101:78 *4414:C 0
88 *101:78 *4805:A 0
89 *101:78 *103:74 0
90 *101:78 *177:12 0
91 *101:78 *178:63 0.000388153
92 *4374:B *4426:B 0
93 *4374:B *101:56 0
94 *4414:A *101:78 5.56943e-05
95 *4553:A *101:42 9.80173e-05
96 *98:65 *101:54 0.000223102
97 *98:77 *101:54 4.17014e-05
*RES
1 *4369:Y *101:10 15.7821 
2 *101:10 *101:12 14.0893 
3 *101:12 *4422:B 16.9964 
4 *101:12 *4370:C 16.3893 
5 *101:10 *101:42 10.9464 
6 *101:42 *101:48 17.5179 
7 *101:48 *101:54 22.3036 
8 *101:54 *101:56 13.4821 
9 *101:56 *4426:B 21.0857 
10 *101:56 *4430:C 22.1393 
11 *101:54 *101:78 16.5179 
12 *101:78 *4410:A 23.925 
13 *101:78 *4414:B 14.8357 
14 *101:48 *4418:B 20.8536 
15 *101:42 *4406:A 9.3 
*END

*D_NET *102 0.0190951
*CONN
*I *4372:C I *D sky130_fd_sc_hd__and3_2
*I *4407:A I *D sky130_fd_sc_hd__and3_2
*I *4419:B I *D sky130_fd_sc_hd__and3_2
*I *4415:B I *D sky130_fd_sc_hd__and3_2
*I *4411:A I *D sky130_fd_sc_hd__and3_2
*I *4431:C I *D sky130_fd_sc_hd__and3_2
*I *4427:B I *D sky130_fd_sc_hd__and3_2
*I *4423:B I *D sky130_fd_sc_hd__and3_2
*I *4371:X O *D sky130_fd_sc_hd__and2b_2
*CAP
1 *4372:C 0
2 *4407:A 0.000218606
3 *4419:B 2.23854e-05
4 *4415:B 0
5 *4411:A 0.000156796
6 *4431:C 4.70307e-05
7 *4427:B 0.000654252
8 *4423:B 0.000527158
9 *4371:X 0.000112586
10 *102:81 0.000441311
11 *102:55 0.000842559
12 *102:53 0.00221265
13 *102:49 0.00362912
14 *102:31 0.00218611
15 *102:29 0.000284675
16 *102:8 0.000776788
17 *4407:A *4552:A 2.05938e-05
18 *4407:A *115:42 3.34366e-05
19 *4407:A *115:46 7.6644e-05
20 *4407:A *115:56 0
21 *4407:A *174:14 3.34783e-05
22 *4407:A *176:10 5.88505e-05
23 *4407:A *176:16 1.19402e-05
24 *4411:A *4411:C 0.000228937
25 *4411:A *174:61 0.000185976
26 *4411:A *174:71 0.00010326
27 *4423:B *4371:B 5.7616e-05
28 *4423:B *4398:S0 0
29 *4423:B *4422:A 9.92409e-05
30 *4423:B *5364:A 6.39262e-05
31 *4423:B *5367:A 0.000151333
32 *4423:B *5388:A 0.000154762
33 *4423:B *5390:A 0.000172375
34 *4423:B *1017:10 0.00013966
35 *4427:B *4426:C 5.21077e-05
36 *4427:B *4431:A 0.000428846
37 *4427:B *5107:A 0
38 *4427:B *5111:A 0
39 *4427:B *5167:A 0.000150618
40 *4427:B *5167:B 0.000177941
41 *4427:B *120:72 3.466e-06
42 *4427:B *176:48 0
43 *4431:C *4431:A 9.87617e-05
44 *102:8 *4371:B 5.11663e-06
45 *102:8 *5387:A 5.79417e-05
46 *102:29 *4371:B 3.4984e-05
47 *102:31 *4372:A 5.52238e-05
48 *102:49 *4418:C 0.00018372
49 *102:49 *4708:A 5.41794e-05
50 *102:49 *4710:A 4.46186e-06
51 *102:49 *5402:A 0.000110106
52 *102:49 *5413:A 0.000123336
53 *102:49 *5414:A 0.000180055
54 *102:49 *5423:A 2.63424e-05
55 *102:49 *5423:B 4.40835e-05
56 *102:49 *175:16 0.000430562
57 *102:49 *175:35 0.00087965
58 *102:53 *4724:A 1.36161e-05
59 *102:53 *4725:A 0.000139614
60 *102:53 *4753:A 1.37644e-05
61 *102:53 *4754:A 5.33783e-05
62 *102:53 *4755:A 9.95863e-05
63 *102:53 *4756:A 3.52408e-05
64 *102:53 *4772:A 1.14548e-05
65 *102:53 *4774:A 3.66133e-05
66 *102:53 *4783:A 0.000357945
67 *102:53 *4783:B 4.40835e-05
68 *102:53 *357:8 7.41811e-05
69 *102:81 *4365:A 0.000268191
70 *102:81 *4365:B 1.39726e-05
71 *4370:B *4423:B 0.000103256
72 *4402:A1 *4427:B 0
73 *4422:B *4423:B 0
74 *4553:A *4407:A 0.000152333
75 *98:16 *102:53 0.000140088
76 *98:16 *102:55 9.69119e-06
77 *98:16 *102:81 3.34672e-05
78 *99:31 *4411:A 0
79 *99:37 *4411:A 0.000101545
80 *99:37 *4427:B 0
81 *99:37 *102:55 0
82 *99:37 *102:81 0
83 *99:41 *4427:B 0
84 *100:12 *4423:B 0.000292725
85 *100:12 *102:29 4.31104e-05
86 *100:56 *102:49 6.8646e-06
87 *100:78 *102:49 1.5424e-05
88 *100:78 *102:53 5.7659e-05
89 *100:80 *102:53 0.000171786
90 *101:12 *4423:B 0
*RES
1 *4371:X *102:8 15.1571 
2 *102:8 *4423:B 27.8357 
3 *102:8 *102:29 6.73214 
4 *102:29 *102:31 1.76786 
5 *102:31 *102:49 37.9821 
6 *102:49 *102:53 35.8393 
7 *102:53 *102:55 2.55357 
8 *102:55 *4427:B 27.5321 
9 *102:55 *4431:C 14.7464 
10 *102:53 *102:81 8.83929 
11 *102:81 *4411:A 23.3357 
12 *102:81 *4415:B 9.3 
13 *102:49 *4419:B 9.72857 
14 *102:31 *4407:A 23.5857 
15 *102:29 *4372:C 9.3 
*END

*D_NET *103 0.0201682
*CONN
*I *4408:A I *D sky130_fd_sc_hd__and3_2
*I *4420:B I *D sky130_fd_sc_hd__and3_2
*I *4424:B I *D sky130_fd_sc_hd__and3_2
*I *4374:C I *D sky130_fd_sc_hd__and3_2
*I *4412:A I *D sky130_fd_sc_hd__and3_2
*I *4416:B I *D sky130_fd_sc_hd__and3_2
*I *4432:C I *D sky130_fd_sc_hd__and3_2
*I *4428:B I *D sky130_fd_sc_hd__and3_2
*I *4373:X O *D sky130_fd_sc_hd__and2b_2
*CAP
1 *4408:A 0.000195679
2 *4420:B 0
3 *4424:B 0.000432729
4 *4374:C 4.59739e-05
5 *4412:A 0.000271252
6 *4416:B 0
7 *4432:C 3.35578e-05
8 *4428:B 0.000677924
9 *4373:X 0
10 *103:78 0.000770867
11 *103:74 0.000786693
12 *103:70 0.00141301
13 *103:34 0.00111065
14 *103:30 0.000903967
15 *103:24 0.00191519
16 *103:18 0.00210271
17 *103:4 0.00168638
18 *4374:C *176:22 1.40415e-05
19 *4408:A *196:48 0.000181762
20 *4412:A *4413:C 0
21 *4412:A *5537:A 0
22 *4412:A *5540:A 3.34687e-05
23 *4424:B *4424:A 4.37999e-05
24 *4424:B *4424:C 4.0342e-06
25 *4424:B *5359:A 9.90367e-05
26 *4424:B *5359:B 0.000150625
27 *4424:B *176:22 1.74903e-05
28 *4424:B *177:16 1.78353e-05
29 *4428:B *4432:A 0.000102797
30 *4428:B *5193:A 0
31 *4428:B *5218:A 0
32 *4428:B *5220:A 0
33 *4428:B *176:66 0
34 *103:18 *4795:A 0.000154762
35 *103:18 *4796:A 4.8035e-05
36 *103:18 *4797:A 2.80853e-05
37 *103:18 *4798:A 1.06618e-05
38 *103:18 *5470:A 2.3541e-05
39 *103:18 *5471:A 9.57125e-05
40 *103:18 *5472:A 0.000134381
41 *103:18 *5482:A 4.29818e-05
42 *103:18 *5483:A 0.000133471
43 *103:18 *5484:A 7.82904e-05
44 *103:18 *5614:A 3.57366e-05
45 *103:18 *174:55 0
46 *103:18 *179:91 0.000662296
47 *103:24 *4661:A 2.80853e-05
48 *103:24 *4662:A 0.000109147
49 *103:24 *4663:A 3.39243e-05
50 *103:24 *4686:A 0.000166679
51 *103:24 *5530:A 5.65123e-05
52 *103:24 *5541:A 9.57215e-05
53 *103:24 *5542:A 7.18982e-05
54 *103:24 *5543:A 9.57215e-05
55 *103:24 *5544:A 0.000134772
56 *103:24 *5545:A 3.52408e-05
57 *103:24 *5551:B 3.96585e-05
58 *103:24 *5588:A 2.80789e-05
59 *103:24 *5589:A 9.27788e-05
60 *103:24 *5590:A 0.000109421
61 *103:24 *5614:A 0.000118994
62 *103:24 *179:91 1.21289e-05
63 *103:30 *4413:C 0
64 *103:30 *4416:C 4.18749e-05
65 *103:30 *4625:A 0
66 *103:30 *5540:A 3.17163e-05
67 *103:34 *4432:A 2.8266e-06
68 *103:70 *4366:B 5.62995e-05
69 *103:70 *4393:B 1.39841e-05
70 *103:70 *4784:A 0.000134772
71 *103:70 *4785:A 0.000164756
72 *103:70 *4811:A 7.18918e-05
73 *103:70 *4812:A 0.000139534
74 *103:70 *4813:A 9.57215e-05
75 *103:70 *178:63 6.4443e-05
76 *103:70 *179:79 0.000386072
77 *103:70 *196:48 4.58976e-05
78 *103:74 *4390:A1 5.56943e-05
79 *103:74 *4750:A 0
80 *103:74 *4805:A 0.000148903
81 *103:74 *177:12 0.00105777
82 *103:78 *177:12 0.000882261
83 *103:78 *177:16 7.83659e-05
84 *4374:B *103:78 0.000871476
85 *4413:A *103:30 0
86 *4413:A *103:34 0
87 *4416:A *103:34 0.000121735
88 *4432:B *4432:C 1.40306e-05
89 *99:75 *4428:B 0
90 *99:86 *103:34 0
91 *101:56 *103:74 0
92 *101:78 *103:74 0
*RES
1 *4373:X *103:4 9.3 
2 *103:4 *103:18 29.3036 
3 *103:18 *103:24 26.4107 
4 *103:24 *103:30 12.8571 
5 *103:30 *103:34 12.2143 
6 *103:34 *4428:B 25.7643 
7 *103:34 *4432:C 14.3357 
8 *103:30 *4416:B 9.3 
9 *103:24 *4412:A 18.4786 
10 *103:4 *103:70 15.3393 
11 *103:70 *103:74 17.9821 
12 *103:74 *103:78 16.7679 
13 *103:78 *4374:C 9.83571 
14 *103:78 *4424:B 24.8 
15 *103:74 *4420:B 13.8 
16 *103:70 *4408:A 12.7107 
*END

*D_NET *104 0.0152378
*CONN
*I *4467:A I *D sky130_fd_sc_hd__nor2_2
*I *4490:A I *D sky130_fd_sc_hd__nor3_2
*I *4491:B1 I *D sky130_fd_sc_hd__a21oi_2
*I *4463:A I *D sky130_fd_sc_hd__nor3_2
*I *4459:B1 I *D sky130_fd_sc_hd__a21oi_2
*I *4454:A I *D sky130_fd_sc_hd__nor3_2
*I *4482:B1 I *D sky130_fd_sc_hd__a21oi_2
*I *4481:C1 I *D sky130_fd_sc_hd__a211oi_2
*I *4385:A I *D sky130_fd_sc_hd__nor2_2
*I *4376:X O *D sky130_fd_sc_hd__and2b_2
*CAP
1 *4467:A 0.000268828
2 *4490:A 3.39526e-05
3 *4491:B1 0.00034507
4 *4463:A 6.45113e-05
5 *4459:B1 0.000127629
6 *4454:A 2.0816e-05
7 *4482:B1 0.000609828
8 *4481:C1 0.000140771
9 *4385:A 8.56685e-05
10 *4376:X 0
11 *104:114 0.000728949
12 *104:110 0.000746029
13 *104:97 0.00022362
14 *104:43 0.00104708
15 *104:32 0.000769417
16 *104:22 0.00068033
17 *104:16 0.000815099
18 *104:4 0.000447057
19 *4385:A *4528:RESET_B 0.000189173
20 *4385:A *191:10 0
21 *4385:A *1283:37 4.75428e-05
22 *4454:A *4454:B 3.41517e-06
23 *4459:B1 *4457:B 0.000355973
24 *4459:B1 *4459:A1 5.52238e-05
25 *4459:B1 *4459:A2 3.99614e-06
26 *4459:B1 *4460:A2 7.51327e-05
27 *4459:B1 *4460:B1 5.33005e-05
28 *4459:B1 *140:18 1.02936e-05
29 *4459:B1 *1285:38 1.38323e-05
30 *4463:A *4456:B1 0.000120697
31 *4463:A *166:65 5.68747e-05
32 *4467:A *4467:B 2.67767e-05
33 *4467:A *181:51 0
34 *4467:A *1288:26 0.000354105
35 *4481:C1 *4441:B 5.33005e-05
36 *4481:C1 *4443:A 0
37 *4481:C1 *4481:B1 5.33005e-05
38 *4481:C1 *4528:RESET_B 6.09762e-05
39 *4481:C1 *148:18 0.00011673
40 *4481:C1 *156:45 4.6025e-06
41 *4482:B1 *4384:A2 8.65632e-05
42 *4482:B1 *4481:B1 0.000148911
43 *4482:B1 *4482:A2 7.32272e-05
44 *4482:B1 *4483:A1 0.000132549
45 *4482:B1 *4483:B1 0
46 *4482:B1 *4528:RESET_B 0.000126568
47 *4482:B1 *4536:RESET_B 2.81861e-05
48 *4482:B1 *4538:RESET_B 6.05161e-06
49 *4482:B1 *4557:A 0.000360094
50 *4482:B1 *180:10 9.56872e-05
51 *4482:B1 *191:10 0
52 *4482:B1 *1278:8 9.90431e-05
53 *4490:A *4490:B 5.66157e-05
54 *4490:A *164:23 5.52238e-05
55 *4490:A *199:10 2.82057e-05
56 *4491:B1 *4491:A2 0.000181192
57 *4491:B1 *164:23 4.51611e-05
58 *104:16 *4456:B1 0.000110341
59 *104:16 *4463:B 0.000217155
60 *104:16 *138:19 0
61 *104:16 *140:18 2.05938e-05
62 *104:16 *140:44 1.69115e-05
63 *104:16 *148:12 2.35042e-06
64 *104:16 *166:65 0.000340316
65 *104:16 *1286:48 2.26327e-05
66 *104:16 *1288:26 0.000136958
67 *104:22 *4454:B 7.94648e-05
68 *104:22 *4454:C 0.000141729
69 *104:22 *4456:A2 0.00012747
70 *104:32 *4379:D_N 0.00012219
71 *104:32 *4451:B1 0.000300761
72 *104:32 *4452:A 7.48091e-05
73 *104:32 *4452:B 0.000225193
74 *104:32 *4454:B 1.10868e-05
75 *104:32 *1275:65 0.000227532
76 *104:32 *1282:68 4.33174e-05
77 *104:32 *1283:37 1.0562e-05
78 *104:32 *1283:39 5.03772e-05
79 *104:43 *4384:A2 5.24534e-05
80 *104:43 *4528:RESET_B 0.000509425
81 *104:43 *191:10 0
82 *104:43 *1283:37 1.02969e-05
83 *104:97 *1288:26 5.52238e-05
84 *104:110 *1288:26 0.000178847
85 *104:114 *4376:A_N 0.000175795
86 *104:114 *4456:B1 1.50087e-05
87 *104:114 *4468:A2 5.48376e-05
88 *104:114 *4490:B 0.000669875
89 *104:114 *4533:CLK 0.000246715
90 *104:114 *199:10 0.000291979
91 *4529:D *4459:B1 4.58976e-05
92 *4529:D *104:22 0.000116033
93 *4575:A *4482:B1 9.26125e-05
94 *3:14 *104:114 0.000107879
*RES
1 *4376:X *104:4 9.3 
2 *104:4 *104:16 17.5179 
3 *104:16 *104:22 6.42857 
4 *104:22 *104:32 14.0804 
5 *104:32 *4385:A 16.2018 
6 *104:32 *104:43 6.80357 
7 *104:43 *4481:C1 22.2308 
8 *104:43 *4482:B1 28.7196 
9 *104:22 *4454:A 9.72857 
10 *104:16 *4459:B1 14.5321 
11 *104:4 *104:97 0.535714 
12 *104:97 *4463:A 19.9429 
13 *104:97 *104:110 1.76786 
14 *104:110 *104:114 17.0714 
15 *104:114 *4491:B1 20.1036 
16 *104:114 *4490:A 15.0679 
17 *104:110 *4467:A 22.4429 
*END

*D_NET *105 0.0174855
*CONN
*I *4487:A I *D sky130_fd_sc_hd__and3_2
*I *4443:A I *D sky130_fd_sc_hd__and2_2
*I *4476:A I *D sky130_fd_sc_hd__and3_2
*I *4442:B1 I *D sky130_fd_sc_hd__o21a_2
*I *4405:B I *D sky130_fd_sc_hd__and2_2
*I *4469:B1 I *D sky130_fd_sc_hd__o21ai_2
*I *4473:A I *D sky130_fd_sc_hd__and3_2
*I *4456:B1 I *D sky130_fd_sc_hd__o21ai_2
*I *4377:Y O *D sky130_fd_sc_hd__nand2b_2
*CAP
1 *4487:A 1.69531e-05
2 *4443:A 0.000390959
3 *4476:A 0
4 *4442:B1 2.23854e-05
5 *4405:B 0.000362715
6 *4469:B1 0.00033935
7 *4473:A 0.000396874
8 *4456:B1 0.000612575
9 *4377:Y 3.00281e-05
10 *105:65 0.000856298
11 *105:61 0.000830759
12 *105:59 0.00054291
13 *105:57 0.000560224
14 *105:45 0.00109222
15 *105:35 0.00184704
16 *105:8 0.0021591
17 *4405:B *4508:RESET_B 0
18 *4405:B *4512:RESET_B 5.26184e-05
19 *4405:B *4535:CLK 0
20 *4405:B *4550:A 4.81157e-05
21 *4405:B *4559:A 0.000170532
22 *4405:B *168:8 0
23 *4405:B *168:38 0
24 *4443:A *4387:A 0
25 *4443:A *4528:RESET_B 0
26 *4443:A *112:14 0
27 *4443:A *112:103 8.57317e-05
28 *4443:A *114:10 0.000175519
29 *4443:A *156:45 9.26396e-05
30 *4443:A *196:10 4.21584e-05
31 *4456:B1 *4376:A_N 0.000338351
32 *4456:B1 *4376:B 0.000282842
33 *4456:B1 *4461:B1 0.000128146
34 *4456:B1 *4468:A2 8.0175e-05
35 *4456:B1 *166:65 0.000130685
36 *4456:B1 *169:40 0
37 *4456:B1 *169:54 0
38 *4456:B1 *182:16 7.90803e-05
39 *4456:B1 *199:10 4.73656e-05
40 *4456:B1 *1285:38 5.27506e-05
41 *4469:B1 *4470:A1 0.00012401
42 *4469:B1 *4471:B1 5.33786e-05
43 *4469:B1 *4472:A 4.25523e-05
44 *4469:B1 *4472:C 2.24695e-05
45 *4469:B1 *148:46 1.37292e-05
46 *4469:B1 *180:78 0
47 *4469:B1 *1289:10 5.80706e-06
48 *4469:B1 *1289:19 6.9253e-05
49 *4469:B1 *1289:49 2.39876e-05
50 *4473:A *4472:C 0.000194352
51 *4473:A *4473:C 4.02549e-05
52 *4473:A *4512:RESET_B 6.05161e-06
53 *4473:A *210:20 1.86687e-05
54 *4487:A *4483:A1 5.33005e-05
55 *4487:A *4536:RESET_B 5.33005e-05
56 *105:8 *4377:A_N 5.42899e-05
57 *105:8 *4492:A1 9.58126e-05
58 *105:35 *4347:A 2.26761e-05
59 *105:35 *4482:A2 0.00021362
60 *105:35 *4483:A1 6.60209e-05
61 *105:35 *4485:B 0.000282794
62 *105:35 *4489:C 0.000608138
63 *105:35 *4536:RESET_B 1.52978e-05
64 *105:35 *4540:RESET_B 0.000273443
65 *105:35 *161:17 0
66 *105:35 *166:65 2.47093e-05
67 *105:35 *182:16 0.000114759
68 *105:35 *191:10 8.60655e-05
69 *105:35 *199:10 0.00038571
70 *105:35 *1280:10 5.9182e-05
71 *105:35 *1280:27 0
72 *105:45 *4482:A2 7.6644e-05
73 *105:45 *4536:RESET_B 4.31475e-05
74 *105:45 *156:45 0.0002869
75 *105:45 *180:10 4.29272e-05
76 *105:45 *1276:36 0.000171289
77 *105:57 *4347:A 3.99614e-06
78 *105:57 *4442:A1 0.000139907
79 *105:57 *4476:C 0.000160086
80 *105:57 *166:95 3.92854e-05
81 *105:57 *1276:23 9.90367e-05
82 *105:57 *1276:36 0.000307336
83 *105:59 *4442:A1 0.00026839
84 *105:59 *4442:A2 2.44318e-05
85 *105:59 *4476:C 9.41642e-05
86 *105:61 *210:20 2.72967e-05
87 *105:65 *4512:RESET_B 2.51935e-05
88 *105:65 *210:20 9.60578e-06
89 *4463:A *4456:B1 0.000120697
90 *4481:A1 *4443:A 0.000267458
91 *4481:C1 *4443:A 0
92 *4529:D *4456:B1 3.34295e-05
93 *4537:D *105:45 0.00012673
94 *3:14 *105:35 0.000101444
95 *104:16 *4456:B1 0.000110341
96 *104:114 *4456:B1 1.50087e-05
*RES
1 *4377:Y *105:8 14.7464 
2 *105:8 *4456:B1 27.8536 
3 *105:8 *105:35 35.1786 
4 *105:35 *105:45 11.6071 
5 *105:45 *105:57 15.6429 
6 *105:57 *105:59 3.82143 
7 *105:59 *105:61 5.46429 
8 *105:61 *105:65 1.78571 
9 *105:65 *4473:A 24.1214 
10 *105:65 *4469:B1 24.8 
11 *105:61 *4405:B 26.3179 
12 *105:59 *4442:B1 9.72857 
13 *105:57 *4476:A 9.3 
14 *105:45 *4443:A 27.2821 
15 *105:35 *4487:A 14.3357 
*END

*D_NET *106 0.00112965
*CONN
*I *4446:A1 I *D sky130_fd_sc_hd__a32o_2
*I *4378:X O *D sky130_fd_sc_hd__or2_2
*CAP
1 *4446:A1 0.000249991
2 *4378:X 0.000249991
3 *4446:A1 *4378:B 0
4 *4446:A1 *4386:A 0.00010326
5 *4446:A1 *4444:A0 9.74684e-05
6 *4446:A1 *4445:B 2.8266e-06
7 *4446:A1 *4446:A3 5.7616e-05
8 *4446:A1 *4519:RESET_B 0.000122436
9 *4446:A1 *113:23 0.000246064
10 *4446:A1 *167:14 0
*RES
1 *4378:X *4446:A1 34.2429 
*END

*D_NET *107 0.00143408
*CONN
*I *4383:A I *D sky130_fd_sc_hd__or4_2
*I *4384:A1 I *D sky130_fd_sc_hd__o41a_2
*I *4379:X O *D sky130_fd_sc_hd__or4b_2
*CAP
1 *4383:A 0
2 *4384:A1 3.42735e-05
3 *4379:X 0.000193699
4 *107:12 0.000227972
5 *4384:A1 *4384:A3 0.000183713
6 *4384:A1 *4384:A4 0.000183713
7 *107:12 *4452:A 3.18676e-05
8 *107:12 *183:16 0.000243635
9 *107:12 *191:10 0.000335208
*RES
1 *4379:X *107:12 23.2107 
2 *107:12 *4384:A1 11.0679 
3 *107:12 *4383:A 9.3 
*END

*D_NET *108 0.00115373
*CONN
*I *4383:B I *D sky130_fd_sc_hd__or4_2
*I *4384:A2 I *D sky130_fd_sc_hd__o41a_2
*I *4380:Y O *D sky130_fd_sc_hd__nand4_2
*CAP
1 *4383:B 0.000148896
2 *4384:A2 0.000265622
3 *4380:Y 0.000116727
4 *4383:B *4384:A3 0.000271339
5 *4384:A2 *4384:A3 5.71472e-05
6 *4384:A2 *4384:A4 5.52238e-05
7 *4384:A2 *4441:B 9.97552e-05
8 *4384:A2 *191:10 0
9 *4482:B1 *4384:A2 8.65632e-05
10 *104:43 *4384:A2 5.24534e-05
*RES
1 *4380:Y *4384:A2 30.6893 
2 *4384:A2 *4383:B 21.6179 
*END

*D_NET *109 0.00238491
*CONN
*I *4383:C I *D sky130_fd_sc_hd__or4_2
*I *4384:A3 I *D sky130_fd_sc_hd__o41a_2
*I *4381:X O *D sky130_fd_sc_hd__or4b_2
*CAP
1 *4383:C 0
2 *4384:A3 0.000113447
3 *4381:X 0.000468161
4 *109:14 0.000581608
5 *4384:A3 *4384:A4 8.07148e-05
6 *109:14 *4380:A 9.7659e-05
7 *109:14 *4380:B 0.000103154
8 *109:14 *4381:A 5.87675e-05
9 *109:14 *4384:A4 3.08664e-05
10 *109:14 *4464:C 2.94103e-05
11 *109:14 *4477:D 0.000239627
12 *109:14 *4478:A 0
13 *109:14 *4478:B 5.49544e-05
14 *109:14 *110:12 0
15 *109:14 *1286:71 0
16 *4383:B *4384:A3 0.000271339
17 *4384:A1 *4384:A3 0.000183713
18 *4384:A2 *4384:A3 5.71472e-05
19 *3:14 *109:14 1.43396e-05
*RES
1 *4381:X *109:14 27.7286 
2 *109:14 *4384:A3 13.1214 
3 *109:14 *4383:C 9.3 
*END

*D_NET *110 0.00337626
*CONN
*I *4383:D I *D sky130_fd_sc_hd__or4_2
*I *4384:A4 I *D sky130_fd_sc_hd__o41a_2
*I *4382:X O *D sky130_fd_sc_hd__or4_2
*CAP
1 *4383:D 0
2 *4384:A4 0.000253651
3 *4382:X 0.000716689
4 *110:12 0.00097034
5 *4384:A4 *4384:B1 1.04232e-05
6 *4384:A4 *4441:B 0.00010096
7 *110:12 *4380:A 0.000146312
8 *110:12 *4478:A 0
9 *110:12 *4484:A1 0
10 *110:12 *4486:B 0.00022705
11 *110:12 *4487:B 0.000202934
12 *110:12 *4487:C 4.30382e-05
13 *110:12 *183:16 0.000340824
14 *4384:A1 *4384:A4 0.000183713
15 *4384:A2 *4384:A4 5.52238e-05
16 *4384:A3 *4384:A4 8.07148e-05
17 *4539:D *110:12 2.13481e-06
18 *3:14 *110:12 1.13837e-05
19 *109:14 *4384:A4 3.08664e-05
20 *109:14 *110:12 0
*RES
1 *4382:X *110:12 31.5679 
2 *110:12 *4384:A4 14.3714 
3 *110:12 *4383:D 9.3 
*END

*D_NET *111 0.00204839
*CONN
*I *4441:B I *D sky130_fd_sc_hd__nor2_2
*I *4383:X O *D sky130_fd_sc_hd__or4_2
*CAP
1 *4441:B 0.000337839
2 *4383:X 0.000337839
3 *4441:B *4380:D 9.41642e-05
4 *4441:B *4481:A2 9.7659e-05
5 *4441:B *4481:B1 4.57098e-05
6 *4441:B *191:10 2.86974e-05
7 *4441:B *1289:90 7.04949e-05
8 *4441:B *1290:51 0
9 *4441:B *1290:60 0.000726751
10 *4384:A2 *4441:B 9.97552e-05
11 *4384:A4 *4441:B 0.00010096
12 *4481:A1 *4441:B 5.52238e-05
13 *4481:C1 *4441:B 5.33005e-05
*RES
1 *4383:X *4441:B 37.4214 
*END

*D_NET *112 0.0145755
*CONN
*I *4484:A2 I *D sky130_fd_sc_hd__a31o_2
*I *4489:B I *D sky130_fd_sc_hd__and4_2
*I *4478:A I *D sky130_fd_sc_hd__and4_2
*I *4480:A I *D sky130_fd_sc_hd__nand2_2
*I *4443:B I *D sky130_fd_sc_hd__and2_2
*I *4455:B I *D sky130_fd_sc_hd__and3_2
*I *4466:A I *D sky130_fd_sc_hd__and3_2
*I *4451:A1 I *D sky130_fd_sc_hd__a21oi_2
*I *4453:A I *D sky130_fd_sc_hd__and2_2
*I *4385:B I *D sky130_fd_sc_hd__nor2_2
*I *4384:X O *D sky130_fd_sc_hd__o41a_2
*CAP
1 *4484:A2 0
2 *4489:B 0.00064928
3 *4478:A 7.4013e-05
4 *4480:A 0.000497549
5 *4443:B 0.000228989
6 *4455:B 6.62542e-05
7 *4466:A 0.000135813
8 *4451:A1 0
9 *4453:A 0.000179611
10 *4385:B 1.67556e-05
11 *4384:X 0.000443692
12 *112:132 0.00095316
13 *112:124 0.00109312
14 *112:103 0.00154002
15 *112:84 0.000536761
16 *112:59 0.000686212
17 *112:42 0.000587068
18 *112:29 0.000936108
19 *112:14 0.000985468
20 *4385:B *4449:A 8.32171e-05
21 *4443:B *4364:B 5.52238e-05
22 *4443:B *4384:B1 1.21258e-05
23 *4443:B *4387:A 2.89114e-05
24 *4443:B *166:46 2.59355e-05
25 *4443:B *196:10 0.000268536
26 *4443:B *201:25 0
27 *4453:A *138:8 0.000359383
28 *4453:A *1284:19 3.2006e-05
29 *4455:B *166:46 4.73286e-05
30 *4466:A *4458:C 5.84171e-05
31 *4466:A *4465:D 5.59013e-05
32 *4478:A *4479:C 1.77622e-05
33 *4480:A *4347:A 0.000121122
34 *4480:A *4480:B 0.000118806
35 *4480:A *4482:A2 0
36 *4480:A *4483:A1 0
37 *4480:A *4543:A 0
38 *4480:A *196:10 0.000344678
39 *4480:A *197:6 3.48705e-05
40 *4489:B *4382:B 4.78056e-05
41 *4489:B *4479:B 0
42 *4489:B *4484:A1 0
43 *4489:B *4484:B1 3.49882e-05
44 *4489:B *4485:A 1.4862e-05
45 *4489:B *4489:A 9.91033e-05
46 *4489:B *4492:A2 0
47 *4489:B *191:10 5.33005e-05
48 *4489:B *1279:12 0.000115194
49 *112:14 *4384:B1 2.89016e-05
50 *112:14 *4387:A 0.000150618
51 *112:14 *4449:A 0.000195555
52 *112:14 *4528:RESET_B 1.27784e-05
53 *112:14 *114:10 0
54 *112:14 *134:27 6.44347e-05
55 *112:29 *4450:A1 4.70724e-05
56 *112:29 *4452:C 6.33058e-05
57 *112:29 *138:8 2.84026e-05
58 *112:29 *1283:37 9.76689e-05
59 *112:42 *4451:A2 5.80706e-06
60 *112:42 *4458:A 7.80714e-06
61 *112:42 *1284:19 3.75052e-05
62 *112:59 *4451:A2 5.62564e-05
63 *112:59 *4458:B 4.98968e-05
64 *112:59 *4464:C 1.00332e-05
65 *112:59 *4478:B 0
66 *112:59 *166:46 0.000163615
67 *112:59 *1285:63 0
68 *112:84 *4387:A 9.31893e-05
69 *112:103 *196:10 0.000479171
70 *112:124 *4347:A 7.622e-05
71 *112:124 *4484:A3 2.28499e-05
72 *112:124 *156:45 1.08359e-05
73 *112:124 *157:10 1.24368e-05
74 *112:132 *4484:A1 8.6229e-06
75 *112:132 *195:22 5.3943e-05
76 *4441:A *4443:B 3.07555e-05
77 *4443:A *112:14 0
78 *4443:A *112:103 8.57317e-05
79 *4481:A1 *112:103 0.000336431
80 *4481:A1 *112:124 9.25014e-06
81 *4537:D *112:124 5.5671e-05
82 *4538:D *4480:A 0.000157147
83 *4539:D *4489:B 7.6644e-05
84 *3:14 *4489:B 8.47842e-05
85 *3:14 *112:132 0.000140069
86 *97:12 *4385:B 8.32242e-05
87 *97:12 *112:14 9.94991e-05
88 *109:14 *4478:A 0
89 *110:12 *4478:A 0
*RES
1 *4384:X *112:14 20.8893 
2 *112:14 *4385:B 14.8357 
3 *112:14 *112:29 16.9286 
4 *112:29 *4453:A 18.2464 
5 *112:29 *112:42 1.94643 
6 *112:42 *4451:A1 13.8 
7 *112:42 *112:59 11.7321 
8 *112:59 *4466:A 20.55 
9 *112:59 *4455:B 10.2464 
10 *4384:X *112:84 11.0679 
11 *112:84 *4443:B 23.2464 
12 *112:84 *112:103 10.8482 
13 *112:103 *4480:A 25.6839 
14 *112:103 *112:124 14.7768 
15 *112:124 *112:132 8.66619 
16 *112:132 *4478:A 18.3975 
17 *112:132 *4489:B 25.1839 
18 *112:124 *4484:A2 9.3 
*END

*D_NET *113 0.00330504
*CONN
*I *4450:A2 I *D sky130_fd_sc_hd__a22o_2
*I *4386:A I *D sky130_fd_sc_hd__inv_2
*I *4444:A1 I *D sky130_fd_sc_hd__mux2_1
*I *4446:B1 I *D sky130_fd_sc_hd__a32o_2
*I *4385:Y O *D sky130_fd_sc_hd__nor2_2
*CAP
1 *4450:A2 0
2 *4386:A 5.10835e-05
3 *4444:A1 0.000248758
4 *4446:B1 0
5 *4385:Y 6.53076e-05
6 *113:23 0.00042287
7 *113:12 0.000520743
8 *113:6 0.000463023
9 *4386:A *4519:RESET_B 0
10 *4386:A *167:10 0
11 *4444:A1 *4444:A0 0.000223188
12 *113:6 *4450:A1 0.000145622
13 *113:12 *4446:A3 5.33005e-05
14 *113:12 *4446:B2 7.01082e-05
15 *113:12 *4450:A1 7.9994e-05
16 *113:12 *4450:B1 3.91952e-05
17 *113:12 *4450:B2 0.000137983
18 *113:12 *132:12 0.000161901
19 *113:12 *1275:43 0.000170091
20 *113:23 *167:10 0
21 *113:23 *167:14 0
22 *4446:A1 *4386:A 0.00010326
23 *4446:A1 *113:23 0.000246064
24 *4519:D *4386:A 6.91157e-05
25 *4519:D *113:23 3.34295e-05
*RES
1 *4385:Y *113:6 10.8357 
2 *113:6 *113:12 9.61161 
3 *113:12 *4446:B1 9.3 
4 *113:12 *113:23 7.66071 
5 *113:23 *4444:A1 17.2107 
6 *113:23 *4386:A 15.4429 
7 *113:6 *4450:A2 9.3 
*END

*D_NET *114 0.00642913
*CONN
*I *4551:A I *D sky130_fd_sc_hd__clkdlybuf4s25_1
*I *4552:A I *D sky130_fd_sc_hd__clkdlybuf4s25_1
*I *4387:Y O *D sky130_fd_sc_hd__nor2_2
*CAP
1 *4551:A 0.000215036
2 *4552:A 0.000297053
3 *4387:Y 0.000838174
4 *114:10 0.00135026
5 *4551:A *4407:C 4.00679e-05
6 *4551:A *4975:A 3.93346e-05
7 *4551:A *5420:A 6.71359e-05
8 *4551:A *5421:A 1.66955e-05
9 *4551:A *174:6 9.31209e-05
10 *4552:A *4369:B 0.000487467
11 *4552:A *5415:A 2.80853e-05
12 *4552:A *5416:A 9.57215e-05
13 *4552:A *5417:A 0.000134772
14 *4552:A *5418:A 0
15 *4552:A *115:42 3.67356e-05
16 *4552:A *115:46 3.92854e-05
17 *4552:A *115:56 4.02462e-05
18 *4552:A *174:22 0.000106569
19 *114:10 *4368:B 6.8646e-06
20 *114:10 *4384:B1 0.000180764
21 *114:10 *4388:A 8.03134e-05
22 *114:10 *5392:A 0
23 *114:10 *5393:A 0.000126439
24 *114:10 *5421:A 7.15687e-05
25 *114:10 *115:10 0.000150625
26 *114:10 *115:42 0.000224638
27 *114:10 *179:12 0
28 *114:10 *195:24 2.0203e-05
29 *114:10 *195:50 1.88482e-05
30 *114:10 *196:10 0.000874521
31 *114:10 *196:20 0.00021049
32 *4407:A *4552:A 2.05938e-05
33 *4443:A *114:10 0.000175519
34 *4528:D *114:10 7.17603e-05
35 *4553:A *114:10 0
36 *97:12 *114:10 9.05269e-05
37 *101:42 *4552:A 1.24368e-05
38 *101:48 *4552:A 0.000167251
39 *112:14 *114:10 0
*RES
1 *4387:Y *114:10 36.9429 
2 *114:10 *4552:A 23.3714 
3 *114:10 *4551:A 18.05 
*END

*D_NET *115 0.0191181
*CONN
*I *4407:C I *D sky130_fd_sc_hd__and3_2
*I *4406:C I *D sky130_fd_sc_hd__and3_2
*I *4422:C I *D sky130_fd_sc_hd__and3_2
*I *4423:C I *D sky130_fd_sc_hd__and3_2
*I *4399:B2 I *D sky130_fd_sc_hd__a22o_2
*I *4425:C I *D sky130_fd_sc_hd__and3_2
*I *4424:C I *D sky130_fd_sc_hd__and3_2
*I *4409:C I *D sky130_fd_sc_hd__and3_2
*I *4408:C I *D sky130_fd_sc_hd__and3_2
*I *4391:A1 I *D sky130_fd_sc_hd__a22o_2
*I *4388:Y O *D sky130_fd_sc_hd__nor2_2
*CAP
1 *4407:C 0.000124527
2 *4406:C 0
3 *4422:C 0.000120914
4 *4423:C 7.74191e-05
5 *4399:B2 0
6 *4425:C 0
7 *4424:C 0.00114587
8 *4409:C 0.000463875
9 *4408:C 5.17092e-05
10 *4391:A1 0
11 *4388:Y 8.81041e-05
12 *115:124 0.000702938
13 *115:109 0.000538477
14 *115:85 0.00155575
15 *115:75 0.000755261
16 *115:56 0.00142708
17 *115:46 0.000687832
18 *115:42 0.000421792
19 *115:20 0.00106658
20 *115:10 0.00136411
21 *4408:C *4391:B1 1.02504e-05
22 *4408:C *4396:A 3.38136e-05
23 *4408:C *174:28 6.07328e-05
24 *4409:C *4371:A_N 5.33005e-05
25 *4409:C *5370:A 3.82062e-05
26 *4409:C *5381:A 1.81448e-05
27 *4409:C *194:63 7.83659e-05
28 *4422:C *4422:A 0.000184745
29 *4422:C *4879:A 2.89016e-05
30 *4423:C *4422:A 0
31 *4424:C *4425:A 5.80706e-06
32 *4424:C *4928:A 2.80853e-05
33 *4424:C *4929:A 9.57215e-05
34 *4424:C *4930:A 9.57215e-05
35 *4424:C *4931:A 9.57215e-05
36 *4424:C *4932:A 7.90536e-05
37 *4424:C *4934:A 0.000146474
38 *4424:C *5333:A 0
39 *4424:C *5337:A 2.49963e-05
40 *4424:C *5339:A 5.36186e-05
41 *4424:C *5340:A 9.47974e-05
42 *4424:C *5341:A 3.32595e-05
43 *4424:C *177:59 0.000141356
44 *115:10 *178:12 0
45 *115:20 *4391:B1 0.000195562
46 *115:20 *5307:A 2.80789e-05
47 *115:20 *5308:A 9.57215e-05
48 *115:20 *5309:A 9.57215e-05
49 *115:20 *5310:A 9.57215e-05
50 *115:20 *5311:A 9.48627e-05
51 *115:20 *5312:A 0.000133471
52 *115:20 *5392:A 1.14548e-05
53 *115:20 *5393:A 3.3164e-05
54 *115:20 *5396:A 1.37644e-05
55 *115:20 *5397:A 4.88402e-05
56 *115:20 *5398:A 1.37644e-05
57 *115:20 *5399:A 5.33783e-05
58 *115:20 *5400:A 4.88402e-05
59 *115:20 *5401:A 0.000125082
60 *115:20 *5403:A 1.08059e-05
61 *115:20 *178:48 0.00244626
62 *115:20 *1050:6 6.55592e-05
63 *115:56 *4371:A_N 0.000349483
64 *115:56 *178:14 0
65 *115:75 *4371:A_N 3.17148e-05
66 *115:75 *5370:A 0
67 *115:75 *5381:A 0.000176234
68 *115:75 *5383:A 0.000154762
69 *115:75 *5384:A 0
70 *115:85 *4375:A 1.08359e-05
71 *115:85 *4399:A2 0.000144211
72 *115:85 *4403:A 0.000300676
73 *115:85 *4425:A 5.84171e-05
74 *115:85 *177:53 9.71197e-05
75 *115:85 *177:59 6.42242e-05
76 *115:109 *4399:A2 2.74192e-05
77 *115:124 *4398:S0 0
78 *115:124 *4399:A2 0.000449539
79 *115:124 *4422:A 0.000184745
80 *115:124 *4423:A 9.52453e-05
81 *4391:B2 *4408:C 1.17968e-05
82 *4391:B2 *115:20 0.000102315
83 *4407:A *115:42 3.34366e-05
84 *4407:A *115:46 7.6644e-05
85 *4407:A *115:56 0
86 *4422:B *4422:C 5.30637e-06
87 *4424:B *4424:C 4.0342e-06
88 *4551:A *4407:C 4.00679e-05
89 *4552:A *115:42 3.67356e-05
90 *4552:A *115:46 3.92854e-05
91 *4552:A *115:56 4.02462e-05
92 *4553:A *115:42 0.000249343
93 *98:83 *4409:C 3.92757e-05
94 *100:35 *115:75 0.000168226
95 *100:56 *4409:C 3.69047e-06
96 *101:42 *115:56 4.72917e-05
97 *101:48 *115:56 9.71197e-05
98 *114:10 *115:10 0.000150625
99 *114:10 *115:42 0.000224638
*RES
1 *4388:Y *115:10 20.2464 
2 *115:10 *115:20 35.25 
3 *115:20 *4391:A1 13.8 
4 *115:20 *4408:C 15.4429 
5 *115:10 *115:42 12.0536 
6 *115:42 *115:46 5.53571 
7 *115:46 *115:56 19.1607 
8 *115:56 *4409:C 24.3893 
9 *115:56 *115:75 17.0179 
10 *115:75 *115:85 14.1071 
11 *115:85 *4424:C 34.7643 
12 *115:85 *4425:C 13.8 
13 *115:75 *115:109 0.964286 
14 *115:109 *4399:B2 9.3 
15 *115:109 *115:124 19.9821 
16 *115:124 *4423:C 11.2286 
17 *115:124 *4422:C 12.3179 
18 *115:46 *4406:C 9.3 
19 *115:42 *4407:C 15.1571 
*END

*D_NET *116 0.00536192
*CONN
*I *4391:A2 I *D sky130_fd_sc_hd__a22o_2
*I *4389:X O *D sky130_fd_sc_hd__mux4_2
*CAP
1 *4391:A2 0.000816395
2 *4389:X 0.000816395
3 *4391:A2 *4368:B 0
4 *4391:A2 *4389:A0 0.00010096
5 *4391:A2 *4389:A1 9.77274e-05
6 *4391:A2 *4389:A2 0.000216026
7 *4391:A2 *4389:A3 7.32955e-05
8 *4391:A2 *4389:S0 0.000147465
9 *4391:A2 *4389:S1 0.00014285
10 *4391:A2 *5302:A 7.38151e-05
11 *4391:A2 *5303:A 9.57215e-05
12 *4391:A2 *5304:A 9.57215e-05
13 *4391:A2 *5305:A 0.000178585
14 *4391:A2 *5313:A 2.3541e-05
15 *4391:A2 *5314:A 5.30419e-05
16 *4391:A2 *5315:A 9.47974e-05
17 *4391:A2 *5316:A 4.54448e-05
18 *4391:A2 *5318:A 3.57462e-05
19 *4391:A2 *5422:A 3.11193e-05
20 *4391:A2 *179:66 0.00212347
21 *4391:B2 *4391:A2 9.98088e-05
*RES
1 *4389:X *4391:A2 47.5866 
*END

*D_NET *117 0.00178768
*CONN
*I *4391:B1 I *D sky130_fd_sc_hd__a22o_2
*I *4390:X O *D sky130_fd_sc_hd__mux4_2
*CAP
1 *4391:B1 0.000437444
2 *4390:X 0.000437444
3 *4391:B1 *4390:A0 1.90303e-05
4 *4391:B1 *174:28 0.000531943
5 *4391:B1 *324:6 5.41609e-05
6 *4391:B2 *4391:B1 0.000101846
7 *4408:C *4391:B1 1.02504e-05
8 *115:20 *4391:B1 0.000195562
*RES
1 *4390:X *4391:B1 37.4036 
*END

*D_NET *118 0.00130282
*CONN
*I *4396:A I *D sky130_fd_sc_hd__or2_2
*I *4391:X O *D sky130_fd_sc_hd__a22o_2
*CAP
1 *4396:A 0.000320468
2 *4391:X 0.000320468
3 *4396:A *4404:A2 5.52302e-05
4 *4396:A *130:12 0.000437212
5 *4396:A *174:28 0
6 *4396:A *177:6 1.92905e-05
7 *4396:A *177:12 3.14048e-05
8 *4391:B2 *4396:A 8.49318e-05
9 *4408:C *4396:A 3.38136e-05
*RES
1 *4391:X *4396:A 35.3679 
*END

*D_NET *119 0.000528637
*CONN
*I *4395:A2 I *D sky130_fd_sc_hd__a22o_2
*I *4392:X O *D sky130_fd_sc_hd__mux4_2
*CAP
1 *4395:A2 0.000226669
2 *4392:X 0.000226669
3 *4395:A2 *4394:S1 0
4 *4395:A2 *4395:B2 1.24368e-05
5 *4395:A2 *120:28 0
6 *4395:A2 *178:122 4.82048e-05
7 *4395:A1 *4395:A2 1.46576e-05
*RES
1 *4392:X *4395:A2 30.6402 
*END

*D_NET *120 0.0258241
*CONN
*I *4410:C I *D sky130_fd_sc_hd__and3_2
*I *4395:B1 I *D sky130_fd_sc_hd__a22o_2
*I *4413:C I *D sky130_fd_sc_hd__and3_2
*I *4412:C I *D sky130_fd_sc_hd__and3_2
*I *4411:C I *D sky130_fd_sc_hd__and3_2
*I *4402:B2 I *D sky130_fd_sc_hd__a22o_2
*I *4426:C I *D sky130_fd_sc_hd__and3_2
*I *4427:C I *D sky130_fd_sc_hd__and3_2
*I *4429:C I *D sky130_fd_sc_hd__and3_2
*I *4428:C I *D sky130_fd_sc_hd__and3_2
*I *4393:X O *D sky130_fd_sc_hd__and2b_2
*CAP
1 *4410:C 0
2 *4395:B1 1.21166e-05
3 *4413:C 0.000345947
4 *4412:C 0.00021092
5 *4411:C 0.000382543
6 *4402:B2 9.1898e-05
7 *4426:C 0.00106817
8 *4427:C 0
9 *4429:C 3.12428e-05
10 *4428:C 0.000243656
11 *4393:X 0.000851256
12 *120:124 0.00174078
13 *120:118 0.00141924
14 *120:72 0.00133236
15 *120:48 0.00166576
16 *120:40 0.00172969
17 *120:36 0.000973217
18 *120:30 0.00174116
19 *120:28 0.00230618
20 *120:14 0.0023823
21 *4395:B1 *4395:B2 5.7661e-06
22 *4402:B2 *4402:A2 1.74352e-05
23 *4402:B2 *5134:A 0
24 *4402:B2 *178:83 9.60939e-05
25 *4411:C *174:55 4.0342e-06
26 *4411:C *174:61 9.42598e-06
27 *4412:C *4412:B 2.31235e-05
28 *4412:C *5535:A 0.000151806
29 *4412:C *5536:A 3.52408e-05
30 *4413:C *4412:B 0.000449426
31 *4413:C *5537:A 0.000241198
32 *4413:C *174:94 0.000108118
33 *4426:C *5007:A 0.000144773
34 *4426:C *5039:A 9.87617e-05
35 *4426:C *5111:A 2.73255e-05
36 *4426:C *5112:A 9.56581e-05
37 *4426:C *5113:A 9.57215e-05
38 *4426:C *5115:A 7.71303e-05
39 *4426:C *5116:A 2.3541e-05
40 *4426:C *5117:A 0.000120501
41 *4426:C *5119:A 9.53601e-05
42 *4426:C *5120:A 9.57215e-05
43 *4426:C *5121:A 9.57215e-05
44 *4426:C *5122:A 0.000134772
45 *4426:C *5123:A 9.29472e-05
46 *4428:C *4428:A 0.000164384
47 *4428:C *5071:A 1.3701e-05
48 *4428:C *5094:A 0.000151806
49 *4429:C *176:58 1.97695e-05
50 *120:14 *5567:A 7.6644e-05
51 *120:14 *174:43 8.0786e-06
52 *120:14 *174:55 9.33978e-07
53 *120:14 *178:63 0.00071434
54 *120:28 *5467:A 4.46186e-06
55 *120:28 *174:55 0.000159782
56 *120:30 *5467:A 5.10822e-05
57 *120:30 *5585:A 0
58 *120:30 *5611:A 0
59 *120:30 *178:73 0.000445713
60 *120:36 *4400:A0 5.41794e-05
61 *120:36 *4400:A1 0
62 *120:36 *4401:S1 0
63 *120:36 *5143:A 0
64 *120:36 *5148:A 0
65 *120:36 *5151:A 0
66 *120:36 *5152:A 0
67 *120:36 *5607:A 0
68 *120:36 *178:73 3.13947e-05
69 *120:36 *178:83 0.000441489
70 *120:36 *786:12 0
71 *120:40 *4400:A0 0.000126439
72 *120:40 *4401:S1 0
73 *120:48 *5072:A 3.80922e-05
74 *120:48 *5093:A 6.98553e-06
75 *120:48 *5095:A 7.72272e-05
76 *120:48 *5096:A 3.80922e-05
77 *120:48 *5097:A 3.80922e-05
78 *120:48 *5098:A 3.80922e-05
79 *120:48 *5099:A 5.55274e-05
80 *120:48 *5100:A 3.80922e-05
81 *120:48 *5101:A 3.80922e-05
82 *120:48 *176:58 0.000350578
83 *120:72 *5134:A 0.000139907
84 *120:72 *176:58 9.47613e-05
85 *120:118 *4395:B2 9.22103e-06
86 *120:118 *4396:B 9.90367e-05
87 *120:124 *4395:B2 5.62995e-05
88 *120:124 *5520:A 7.80059e-05
89 *120:124 *5521:A 0.000134772
90 *120:124 *5522:A 4.35881e-05
91 *120:124 *5523:A 0.000122866
92 *120:124 *5533:A 2.80789e-05
93 *120:124 *5534:A 9.57215e-05
94 *120:124 *5535:A 6.46999e-05
95 *120:124 *5549:A 6.71295e-05
96 *4395:A1 *4395:B1 3.57366e-05
97 *4395:A1 *120:118 7.14056e-05
98 *4395:A2 *120:28 0
99 *4410:A *120:14 0.000230475
100 *4411:A *4411:C 0.000228937
101 *4412:A *4413:C 0
102 *4413:A *4413:C 1.02504e-05
103 *4427:B *4426:C 5.21077e-05
104 *4427:B *120:72 3.466e-06
105 *4429:B *4428:C 9.31893e-05
106 *4429:B *120:48 1.33343e-05
107 *99:31 *120:28 0
108 *103:30 *4413:C 0
*RES
1 *4393:X *120:14 31.4607 
2 *120:14 *120:28 17.7305 
3 *120:28 *120:30 12.2679 
4 *120:30 *120:36 17.5893 
5 *120:36 *120:40 6.14286 
6 *120:40 *120:48 20.4107 
7 *120:48 *4428:C 15.4964 
8 *120:48 *4429:C 10.0321 
9 *120:40 *120:72 5.41071 
10 *120:72 *4427:C 9.3 
11 *120:72 *4426:C 31.2643 
12 *120:36 *4402:B2 15.5857 
13 *120:30 *4411:C 18.4429 
14 *120:28 *120:118 7.82143 
15 *120:118 *120:124 21.1071 
16 *120:124 *4412:C 12.8536 
17 *120:124 *4413:C 27.1571 
18 *120:118 *4395:B1 9.72857 
19 *120:14 *4410:C 9.3 
*END

*D_NET *121 0.000815931
*CONN
*I *4395:B2 I *D sky130_fd_sc_hd__a22o_2
*I *4394:X O *D sky130_fd_sc_hd__mux4_2
*CAP
1 *4395:B2 0.000329825
2 *4394:X 0.000329825
3 *4395:B2 *4394:S1 0
4 *4395:B2 *5465:A 0
5 *4395:B2 *5486:A 3.92854e-05
6 *4395:A1 *4395:B2 3.32731e-05
7 *4395:A2 *4395:B2 1.24368e-05
8 *4395:B1 *4395:B2 5.7661e-06
9 *120:118 *4395:B2 9.22103e-06
10 *120:124 *4395:B2 5.62995e-05
*RES
1 *4394:X *4395:B2 33.6893 
*END

*D_NET *122 0.00474019
*CONN
*I *4396:B I *D sky130_fd_sc_hd__or2_2
*I *4395:X O *D sky130_fd_sc_hd__a22o_2
*CAP
1 *4396:B 0.00144796
2 *4395:X 0.00144796
3 *4396:B *4366:B 2.59355e-05
4 *4396:B *5456:A 1.37411e-05
5 *4396:B *5457:A 7.35025e-05
6 *4396:B *5465:A 1.40749e-05
7 *4396:B *5467:A 3.33174e-05
8 *4396:B *5557:A 1.67305e-05
9 *4396:B *5558:A 3.21545e-05
10 *4396:B *5559:A 5.33783e-05
11 *4396:B *5560:A 5.33783e-05
12 *4396:B *5561:A 5.33783e-05
13 *4396:B *5563:A 5.33783e-05
14 *4396:B *5564:A 4.88402e-05
15 *4396:B *5565:A 5.33783e-05
16 *4396:B *5566:A 5.33783e-05
17 *4396:B *1215:6 1.66856e-05
18 *4395:A1 *4396:B 0.000189736
19 *99:8 *4396:B 0.000960241
20 *120:118 *4396:B 9.90367e-05
*RES
1 *4395:X *4396:B 49.1536 
*END

*D_NET *123 0.000733968
*CONN
*I *4404:A2 I *D sky130_fd_sc_hd__a22o_2
*I *4396:X O *D sky130_fd_sc_hd__or2_2
*CAP
1 *4404:A2 0.000129445
2 *4396:X 0.000129445
3 *4404:A2 *4404:A1 5.95283e-05
4 *4404:A2 *4404:B2 0.000153054
5 *4404:A2 *130:12 0.000128161
6 *4404:A2 *174:43 7.91029e-05
7 *4396:A *4404:A2 5.52302e-05
*RES
1 *4396:X *4404:A2 31.4616 
*END

*D_NET *124 0.00370223
*CONN
*I *4399:A2 I *D sky130_fd_sc_hd__a22o_2
*I *4397:X O *D sky130_fd_sc_hd__mux4_2
*CAP
1 *4399:A2 0.000852598
2 *4397:X 0.000852598
3 *4399:A2 *4397:A0 9.99853e-05
4 *4399:A2 *4397:A1 9.59253e-05
5 *4399:A2 *4397:A2 0.000142856
6 *4399:A2 *4397:S1 3.18676e-05
7 *4399:A2 *4398:S0 0.000179764
8 *4399:A2 *5366:A 2.79827e-05
9 *100:27 *4399:A2 0.00079748
10 *115:85 *4399:A2 0.000144211
11 *115:109 *4399:A2 2.74192e-05
12 *115:124 *4399:A2 0.000449539
*RES
1 *4397:X *4399:A2 37.5152 
*END

*D_NET *125 0.00174033
*CONN
*I *4399:B1 I *D sky130_fd_sc_hd__a22o_2
*I *4398:X O *D sky130_fd_sc_hd__mux4_2
*CAP
1 *4399:B1 0.000624807
2 *4398:X 0.000624807
3 *4399:B1 *4398:A0 5.58941e-05
4 *4399:B1 *4863:A 0
5 *4399:B1 *4913:A 5.35423e-05
6 *4399:B1 *4915:A 0
7 *4399:B1 *4936:A 0.000146474
8 *4399:B1 *4939:A 6.97972e-05
9 *4399:B1 *4941:A 0.000154762
10 *4399:B1 *194:63 0
11 *100:35 *4399:B1 1.02504e-05
*RES
1 *4398:X *4399:B1 39.8679 
*END

*D_NET *126 0.00390097
*CONN
*I *4403:A I *D sky130_fd_sc_hd__or2_2
*I *4399:X O *D sky130_fd_sc_hd__a22o_2
*CAP
1 *4403:A 0.00106428
2 *4399:X 0.00106428
3 *4403:A *5328:A 9.56581e-05
4 *4403:A *5329:A 9.57215e-05
5 *4403:A *5330:A 9.57215e-05
6 *4403:A *5331:A 9.57215e-05
7 *4403:A *5332:A 0.000134772
8 *4403:A *5353:A 7.18982e-05
9 *4403:A *5354:A 9.48618e-05
10 *4403:A *5355:A 9.47974e-05
11 *4403:A *5356:A 9.47974e-05
12 *4403:A *5357:A 9.47974e-05
13 *4403:A *130:12 5.71472e-05
14 *4403:A *177:38 0.000401527
15 *4403:A *177:53 4.43256e-05
16 *115:85 *4403:A 0.000300676
*RES
1 *4399:X *4403:A 43.5286 
*END

*D_NET *127 0.00072552
*CONN
*I *4402:A2 I *D sky130_fd_sc_hd__a22o_2
*I *4400:X O *D sky130_fd_sc_hd__mux4_2
*CAP
1 *4402:A2 0.000286117
2 *4400:X 0.000286117
3 *4402:A2 *4400:A0 5.33005e-05
4 *4402:A2 *4402:B1 2.89114e-05
5 *4402:A2 *5134:A 3.07796e-05
6 *4402:A2 *178:83 2.28598e-05
7 *4402:B2 *4402:A2 1.74352e-05
*RES
1 *4400:X *4402:A2 22.4795 
*END

*D_NET *128 0.00134092
*CONN
*I *4402:B1 I *D sky130_fd_sc_hd__a22o_2
*I *4401:X O *D sky130_fd_sc_hd__mux4_2
*CAP
1 *4402:B1 0.000460022
2 *4401:X 0.000460022
3 *4402:B1 *4400:A0 4.97825e-05
4 *4402:B1 *4401:A0 2.09057e-05
5 *4402:B1 *5025:A 2.27452e-05
6 *4402:B1 *5026:A 1.4024e-05
7 *4402:B1 *5028:A 0.000153047
8 *4402:B1 *5039:A 0
9 *4402:B1 *5134:A 0.000106542
10 *4402:B1 *176:48 1.46624e-05
11 *4402:B1 *178:83 1.02504e-05
12 *4402:A2 *4402:B1 2.89114e-05
*RES
1 *4401:X *4402:B1 36.7071 
*END

*D_NET *129 0.00504171
*CONN
*I *4403:B I *D sky130_fd_sc_hd__or2_2
*I *4402:X O *D sky130_fd_sc_hd__a22o_2
*CAP
1 *4403:B 0
2 *4402:X 0.00142121
3 *129:14 0.00142121
4 *129:14 *4733:A 3.00023e-05
5 *129:14 *4734:A 9.57215e-05
6 *129:14 *4735:A 1.06618e-05
7 *129:14 *5107:A 1.67305e-05
8 *129:14 *5108:A 5.33549e-05
9 *129:14 *5109:A 5.17013e-05
10 *129:14 *5111:A 0.000206435
11 *129:14 *5114:A 2.80789e-05
12 *129:14 *5123:A 1.37743e-05
13 *129:14 *5124:A 5.33783e-05
14 *129:14 *5125:A 0.000249445
15 *129:14 *5126:A 5.33783e-05
16 *129:14 *5134:A 0.000113573
17 *129:14 *5135:A 4.71964e-05
18 *129:14 *5135:B 1.66856e-05
19 *129:14 *176:34 0.000108173
20 *129:14 *177:38 9.90431e-05
21 *129:14 *753:6 7.0175e-05
22 *4430:C *129:14 0.000881782
*RES
1 *4402:X *129:14 48.2107 
2 *129:14 *4403:B 9.3 
*END

*D_NET *130 0.00435835
*CONN
*I *4404:B1 I *D sky130_fd_sc_hd__a22o_2
*I *4403:X O *D sky130_fd_sc_hd__or2_2
*CAP
1 *4404:B1 0
2 *4403:X 0.00123267
3 *130:12 0.00123267
4 *130:12 *4404:B2 4.98872e-05
5 *130:12 *4414:C 2.05938e-05
6 *130:12 *4694:A 9.14882e-05
7 *130:12 *4721:A 3.34672e-05
8 *130:12 *4724:A 0.000121573
9 *130:12 *4740:A 0
10 *130:12 *4748:A 0
11 *130:12 *174:28 0
12 *130:12 *175:54 0.000106311
13 *130:12 *175:63 0.000192074
14 *130:12 *177:12 0
15 *4391:B2 *130:12 0.00021788
16 *4396:A *130:12 0.000437212
17 *4403:A *130:12 5.71472e-05
18 *4404:A2 *130:12 0.000128161
19 *4421:A *130:12 0.000437227
*RES
1 *4403:X *130:12 47.1929 
2 *130:12 *4404:B1 9.3 
*END

*D_NET *131 0.00200263
*CONN
*I *4442:A2 I *D sky130_fd_sc_hd__o21a_2
*I *4441:Y O *D sky130_fd_sc_hd__nor2_2
*CAP
1 *4442:A2 0.00030588
2 *4441:Y 0.00030588
3 *4442:A2 *4442:A1 0.000227526
4 *4442:A2 *4474:B1 0.000198691
5 *4442:A2 *4476:B 0.000355951
6 *4442:A2 *4481:A2 9.71197e-05
7 *4442:A2 *148:30 9.60875e-05
8 *4442:A2 *1276:10 0.000157252
9 *4442:A2 *1289:75 0.000180777
10 *4442:A2 *1289:90 4.38128e-05
11 *4442:A2 *1290:60 9.22103e-06
12 *105:59 *4442:A2 2.44318e-05
*RES
1 *4441:Y *4442:A2 37.0464 
*END

*D_NET *132 0.00367967
*CONN
*I *4450:B1 I *D sky130_fd_sc_hd__a22o_2
*I *4444:A0 I *D sky130_fd_sc_hd__mux2_1
*I *4446:A2 I *D sky130_fd_sc_hd__a32o_2
*I *4443:X O *D sky130_fd_sc_hd__and2_2
*CAP
1 *4450:B1 8.89613e-05
2 *4444:A0 0.000451144
3 *4446:A2 4.18948e-05
4 *4443:X 0.000165273
5 *132:12 0.000921498
6 *132:10 0.000682694
7 *4444:A0 *4444:S 2.89016e-05
8 *4444:A0 *4446:A3 5.41794e-05
9 *4444:A0 *1275:43 0
10 *4444:A0 *1282:36 0
11 *4446:A2 *4446:B2 5.33005e-05
12 *4450:B1 *4450:B2 6.05161e-06
13 *132:10 *4449:B 0.000315894
14 *132:10 *196:10 0.000199793
15 *132:10 *201:10 2.28428e-05
16 *132:12 *4446:B2 5.52302e-05
17 *132:12 *4450:B2 7.02611e-05
18 *4444:A1 *4444:A0 0.000223188
19 *4446:A1 *4444:A0 9.74684e-05
20 *113:12 *4450:B1 3.91952e-05
21 *113:12 *132:12 0.000161901
*RES
1 *4443:X *132:10 23.2821 
2 *132:10 *132:12 5.875 
3 *132:12 *4446:A2 9.83571 
4 *132:12 *4444:A0 27.3714 
5 *132:10 *4450:B1 10.675 
*END

*D_NET *133 0.000825017
*CONN
*I *4446:A3 I *D sky130_fd_sc_hd__a32o_2
*I *4445:Y O *D sky130_fd_sc_hd__nand2_2
*CAP
1 *4446:A3 0.00030331
2 *4445:Y 0.00030331
3 *4446:A3 *4445:A 0
4 *4446:A3 *4445:B 0
5 *4446:A3 *4446:B2 5.33005e-05
6 *4446:A3 *1282:23 0
7 *4444:A0 *4446:A3 5.41794e-05
8 *4446:A1 *4446:A3 5.7616e-05
9 *113:12 *4446:A3 5.33005e-05
*RES
1 *4445:Y *4446:A3 32.8143 
*END

*D_NET *134 0.00584272
*CONN
*I *4478:B I *D sky130_fd_sc_hd__and4_2
*I *4451:A2 I *D sky130_fd_sc_hd__a21oi_2
*I *4449:A I *D sky130_fd_sc_hd__nor2_2
*I *4447:X O *D sky130_fd_sc_hd__and3_2
*CAP
1 *4478:B 0.000501381
2 *4451:A2 4.46835e-05
3 *4449:A 0.000357898
4 *4447:X 0
5 *134:27 0.00106749
6 *134:6 0.000879321
7 *4449:A *4528:CLK 2.97021e-05
8 *4449:A *4528:RESET_B 0.000411611
9 *4449:A *191:10 0
10 *4451:A2 *4458:A 0.000128146
11 *4478:B *4380:A 1.10868e-05
12 *4478:B *4380:B 0.000199969
13 *4478:B *4381:A 4.2313e-06
14 *4478:B *4381:D_N 7.53168e-05
15 *4478:B *4458:A 2.41865e-05
16 *4478:B *4458:B 5.89612e-05
17 *4478:B *4464:C 4.84039e-05
18 *4478:B *4478:C 0.000188231
19 *4478:B *183:16 0
20 *4478:B *1285:63 3.22387e-05
21 *4478:B *1286:71 9.97164e-05
22 *4478:B *1287:21 9.91033e-05
23 *4478:B *1288:38 0.000238248
24 *134:27 *4528:RESET_B 7.83587e-05
25 *134:27 *166:46 9.28468e-05
26 *134:27 *183:20 0.000437756
27 *4385:B *4449:A 8.32171e-05
28 *4528:D *4449:A 3.18676e-05
29 *4554:A *4449:A 0.000141975
30 *97:12 *4449:A 9.97744e-05
31 *109:14 *4478:B 5.49544e-05
32 *112:14 *4449:A 0.000195555
33 *112:14 *134:27 6.44347e-05
34 *112:42 *4451:A2 5.80706e-06
35 *112:59 *4451:A2 5.62564e-05
36 *112:59 *4478:B 0
*RES
1 *4447:X *134:6 13.8 
2 *134:6 *4449:A 23.9429 
3 *134:6 *134:27 16.7321 
4 *134:27 *4451:A2 15.4429 
5 *134:27 *4478:B 34.9071 
*END

*D_NET *135 0.00123732
*CONN
*I *4449:B I *D sky130_fd_sc_hd__nor2_2
*I *4448:Y O *D sky130_fd_sc_hd__a21oi_2
*CAP
1 *4449:B 0.000325872
2 *4448:Y 0.000325872
3 *4449:B *4450:B2 7.50601e-05
4 *4449:B *4519:RESET_B 0
5 *4449:B *196:10 3.97356e-05
6 *4449:B *201:10 4.46186e-06
7 *4449:B *1282:23 0
8 *4449:B *1282:36 0
9 *4449:B *1282:44 0.000137983
10 *4449:B *1282:59 1.24368e-05
11 *132:10 *4449:B 0.000315894
*RES
1 *4448:Y *4449:B 34.5464 
*END

*D_NET *136 0.000576126
*CONN
*I *4450:B2 I *D sky130_fd_sc_hd__a22o_2
*I *4449:Y O *D sky130_fd_sc_hd__nor2_2
*CAP
1 *4450:B2 0.000143385
2 *4449:Y 0.000143385
3 *4450:B2 *1282:23 0
4 *4450:B2 *1282:36 0
5 *4449:B *4450:B2 7.50601e-05
6 *4450:B1 *4450:B2 6.05161e-06
7 *113:12 *4450:B2 0.000137983
8 *132:12 *4450:B2 7.02611e-05
*RES
1 *4449:Y *4450:B2 30.9036 
*END

*D_NET *137 0.000377257
*CONN
*I *4454:B I *D sky130_fd_sc_hd__nor3_2
*I *4451:Y O *D sky130_fd_sc_hd__a21oi_2
*CAP
1 *4454:B 0.000126212
2 *4451:Y 0.000126212
3 *4454:B *4451:B1 3.08664e-05
4 *4454:A *4454:B 3.41517e-06
5 *104:22 *4454:B 7.94648e-05
6 *104:32 *4454:B 1.10868e-05
*RES
1 *4451:Y *4454:B 21.2071 
*END

*D_NET *138 0.00458405
*CONN
*I *4479:A I *D sky130_fd_sc_hd__and3_2
*I *4466:B I *D sky130_fd_sc_hd__and3_2
*I *4455:C I *D sky130_fd_sc_hd__and3_2
*I *4453:B I *D sky130_fd_sc_hd__and2_2
*I *4452:X O *D sky130_fd_sc_hd__and4_2
*CAP
1 *4479:A 0.000429592
2 *4466:B 6.51516e-05
3 *4455:C 6.11518e-05
4 *4453:B 0
5 *4452:X 0.000219521
6 *138:30 0.000626061
7 *138:19 0.000533184
8 *138:8 0.000560236
9 *4455:C *140:8 5.52238e-05
10 *4455:C *166:46 6.17565e-05
11 *4466:B *148:12 5.52238e-05
12 *4466:B *1287:17 0.000142152
13 *4466:B *1287:21 1.3701e-05
14 *4479:A *4465:D 0
15 *4479:A *4466:C 0.000195405
16 *4479:A *4479:B 0.000397607
17 *4479:A *4488:A2 0
18 *4479:A *4488:B1 2.05622e-05
19 *4479:A *4492:A1 1.3701e-05
20 *4479:A *4492:A2 6.05161e-06
21 *4479:A *4492:B1 0.000120881
22 *4479:A *148:12 0.000158707
23 *4479:A *165:22 6.21582e-05
24 *4479:A *166:65 0
25 *138:19 *4456:A1 0
26 *138:19 *139:12 0.000170671
27 *138:19 *140:18 4.84319e-05
28 *138:30 *4458:C 0
29 *138:30 *140:18 1.38247e-05
30 *138:30 *140:44 6.72063e-05
31 *138:30 *148:12 3.17148e-05
32 *4453:A *138:8 0.000359383
33 *4529:D *138:19 0
34 *4541:D *4479:A 6.63899e-05
35 *104:16 *138:19 0
36 *112:29 *138:8 2.84026e-05
*RES
1 *4452:X *138:8 14.3714 
2 *138:8 *4453:B 9.3 
3 *138:8 *138:19 10.9464 
4 *138:19 *4455:C 15.1571 
5 *138:19 *138:30 2.55357 
6 *138:30 *4466:B 15.5857 
7 *138:30 *4479:A 25.5143 
*END

*D_NET *139 0.00103055
*CONN
*I *4456:A2 I *D sky130_fd_sc_hd__o21ai_2
*I *4454:C I *D sky130_fd_sc_hd__nor3_2
*I *4453:X O *D sky130_fd_sc_hd__and2_2
*CAP
1 *4456:A2 2.74518e-05
2 *4454:C 4.38524e-05
3 *4453:X 0.00012661
4 *139:12 0.000197914
5 *4529:D *4454:C 5.49489e-05
6 *4529:D *4456:A2 0.000139907
7 *104:22 *4454:C 0.000141729
8 *104:22 *4456:A2 0.00012747
9 *138:19 *139:12 0.000170671
*RES
1 *4453:X *139:12 20.7821 
2 *139:12 *4454:C 10.6571 
3 *139:12 *4456:A2 10.6571 
*END

*D_NET *140 0.0055616
*CONN
*I *4461:A2 I *D sky130_fd_sc_hd__a21oi_2
*I *4457:A I *D sky130_fd_sc_hd__nor2_2
*I *4462:C I *D sky130_fd_sc_hd__and3_2
*I *4460:A2 I *D sky130_fd_sc_hd__o21a_2
*I *4459:A2 I *D sky130_fd_sc_hd__a21oi_2
*I *4455:X O *D sky130_fd_sc_hd__and3_2
*CAP
1 *4461:A2 0
2 *4457:A 0.000951814
3 *4462:C 0
4 *4460:A2 0.00014378
5 *4459:A2 2.06112e-05
6 *4455:X 0.000138386
7 *140:44 0.00109226
8 *140:18 0.000481355
9 *140:10 0.000457408
10 *140:8 0.000138386
11 *4457:A *4457:B 5.10822e-05
12 *4457:A *4463:B 1.65169e-05
13 *4457:A *4463:C 2.28598e-05
14 *4457:A *4532:CLK 5.33433e-05
15 *4457:A *4532:RESET_B 6.05161e-06
16 *4457:A *145:10 0.000222666
17 *4457:A *181:51 0.000101545
18 *4457:A *1287:6 5.77353e-05
19 *4457:A *1287:8 2.13481e-06
20 *4457:A *1288:26 1.97695e-05
21 *4460:A2 *4459:A1 5.52238e-05
22 *4460:A2 *169:40 0.000193118
23 *4460:A2 *1285:38 9.60875e-05
24 *4460:A2 *1286:19 0.000170654
25 *4460:A2 *1286:38 3.17148e-05
26 *140:8 *166:46 2.15245e-05
27 *140:8 *1286:38 1.96263e-05
28 *140:18 *4463:B 2.21235e-05
29 *140:18 *1286:48 9.54798e-06
30 *140:44 *148:12 0.000128161
31 *140:44 *1286:48 0.000247614
32 *4455:C *140:8 5.52238e-05
33 *4459:B1 *4459:A2 3.99614e-06
34 *4459:B1 *4460:A2 7.51327e-05
35 *4459:B1 *140:18 1.02936e-05
36 *4529:D *140:18 0.000224577
37 *4532:D *4457:A 5.23057e-05
38 *104:16 *140:18 2.05938e-05
39 *104:16 *140:44 1.69115e-05
40 *138:19 *140:18 4.84319e-05
41 *138:30 *140:18 1.38247e-05
42 *138:30 *140:44 6.72063e-05
*RES
1 *4455:X *140:8 11.3893 
2 *140:8 *140:10 4.5 
3 *140:10 *140:18 9.16071 
4 *140:18 *4459:A2 9.72857 
5 *140:18 *4460:A2 22.6214 
6 *140:10 *140:44 8.5 
7 *140:44 *4462:C 9.3 
8 *140:44 *4457:A 31.4071 
9 *140:8 *4461:A2 9.3 
*END

*D_NET *141 0.00310473
*CONN
*I *4457:B I *D sky130_fd_sc_hd__nor2_2
*I *4456:Y O *D sky130_fd_sc_hd__o21ai_2
*CAP
1 *4457:B 0.000762004
2 *4456:Y 0.000762004
3 *4457:B *4530:CLK 8.45315e-05
4 *4457:B *4530:RESET_B 4.96155e-05
5 *4457:B *4531:RESET_B 2.94103e-05
6 *4457:B *4567:A 0.000225204
7 *4457:B *181:51 2.41224e-05
8 *4457:B *181:53 0.000193156
9 *4457:B *1285:38 2.47833e-05
10 *4457:A *4457:B 5.10822e-05
11 *4459:B1 *4457:B 0.000355973
12 *4530:D *4457:B 0.000542846
*RES
1 *4456:Y *4457:B 46.9036 
*END

*D_NET *142 0.000464804
*CONN
*I *4464:C I *D sky130_fd_sc_hd__and3_2
*I *4458:X O *D sky130_fd_sc_hd__and3_2
*CAP
1 *4464:C 0.00015431
2 *4458:X 0.00015431
3 *4464:C *4380:B 0
4 *4464:C *4458:B 9.25014e-06
5 *4464:C *1286:71 4.13122e-06
6 *4464:C *1288:38 5.49544e-05
7 *4478:B *4464:C 4.84039e-05
8 *109:14 *4464:C 2.94103e-05
9 *112:59 *4464:C 1.00332e-05
*RES
1 *4458:X *4464:C 30.3857 
*END

*D_NET *143 0.000638807
*CONN
*I *4460:B1 I *D sky130_fd_sc_hd__o21a_2
*I *4459:Y O *D sky130_fd_sc_hd__a21oi_2
*CAP
1 *4460:B1 0.000155879
2 *4459:Y 0.000155879
3 *4460:B1 *4567:A 0
4 *4460:B1 *169:40 0.000220448
5 *4460:B1 *1285:38 5.33005e-05
6 *4459:B1 *4460:B1 5.33005e-05
*RES
1 *4459:Y *4460:B1 30.9929 
*END

*D_NET *144 0.00118713
*CONN
*I *4463:B I *D sky130_fd_sc_hd__nor3_2
*I *4461:Y O *D sky130_fd_sc_hd__a21oi_2
*CAP
1 *4463:B 0.000203822
2 *4461:Y 0.000203822
3 *4463:B *145:10 7.67215e-05
4 *4463:B *1286:48 0.000172026
5 *4463:B *1287:6 9.60939e-05
6 *4463:B *1287:8 0.000178847
7 *4463:B *1287:17 0
8 *4457:A *4463:B 1.65169e-05
9 *104:16 *4463:B 0.000217155
10 *140:18 *4463:B 2.21235e-05
*RES
1 *4461:Y *4463:B 33.7786 
*END

*D_NET *145 0.000974227
*CONN
*I *4463:C I *D sky130_fd_sc_hd__nor3_2
*I *4468:A2 I *D sky130_fd_sc_hd__o21a_2
*I *4462:X O *D sky130_fd_sc_hd__and3_2
*CAP
1 *4463:C 1.19433e-05
2 *4468:A2 0.000110959
3 *4462:X 9.40534e-05
4 *145:10 0.000216956
5 *4463:C *1287:6 2.27416e-05
6 *4468:A2 *4533:CLK 4.66303e-05
7 *4468:A2 *169:54 4.46186e-06
8 *145:10 *4462:A 0
9 *145:10 *1287:6 9.22103e-06
10 *4456:B1 *4468:A2 8.0175e-05
11 *4457:A *4463:C 2.28598e-05
12 *4457:A *145:10 0.000222666
13 *4463:B *145:10 7.67215e-05
14 *104:114 *4468:A2 5.48376e-05
*RES
1 *4462:X *145:10 12.3357 
2 *145:10 *4468:A2 20.55 
3 *145:10 *4463:C 9.83571 
*END

*D_NET *146 0.0012146
*CONN
*I *4478:C I *D sky130_fd_sc_hd__and4_2
*I *4464:X O *D sky130_fd_sc_hd__and3_2
*CAP
1 *4478:C 0.000254261
2 *4464:X 0.000254261
3 *4478:C *4381:D_N 3.53761e-05
4 *4478:C *4465:D 7.83659e-05
5 *4478:C *4466:C 0
6 *4478:C *155:10 0.000149421
7 *4478:C *1285:63 0.000117726
8 *4478:C *1286:71 0.000136958
9 *4478:B *4478:C 0.000188231
*RES
1 *4464:X *4478:C 33.3321 
*END

*D_NET *147 0.00232868
*CONN
*I *4479:B I *D sky130_fd_sc_hd__and3_2
*I *4466:C I *D sky130_fd_sc_hd__and3_2
*I *4465:X O *D sky130_fd_sc_hd__and4_2
*CAP
1 *4479:B 0.000502273
2 *4466:C 0.000179057
3 *4465:X 0.00010574
4 *147:8 0.000787071
5 *4466:C *4465:D 0
6 *4466:C *1286:50 5.5033e-05
7 *4479:B *4381:D_N 0
8 *4479:B *4382:B 5.33005e-05
9 *4479:B *4479:C 0
10 *4479:B *4488:B1 0
11 *4479:B *4492:A2 1.76039e-05
12 *147:8 *1288:26 3.55937e-05
13 *4478:C *4466:C 0
14 *4479:A *4466:C 0.000195405
15 *4479:A *4479:B 0.000397607
16 *4489:B *4479:B 0
*RES
1 *4465:X *147:8 15.1571 
2 *147:8 *4466:C 17.3 
3 *147:8 *4479:B 21.7821 
*END

*D_NET *148 0.0119229
*CONN
*I *4467:B I *D sky130_fd_sc_hd__nor2_2
*I *4475:D I *D sky130_fd_sc_hd__nand4_2
*I *4474:A3 I *D sky130_fd_sc_hd__a31o_2
*I *4471:A2 I *D sky130_fd_sc_hd__a21o_2
*I *4472:C I *D sky130_fd_sc_hd__nand3_2
*I *4469:A2 I *D sky130_fd_sc_hd__o21ai_2
*I *4470:A2 I *D sky130_fd_sc_hd__a21oi_2
*I *4466:X O *D sky130_fd_sc_hd__and3_2
*CAP
1 *4467:B 0.000766665
2 *4475:D 0.000100531
3 *4474:A3 0
4 *4471:A2 0
5 *4472:C 0.00017019
6 *4469:A2 0.000201405
7 *4470:A2 0.000137645
8 *4466:X 0.000172687
9 *148:46 0.000434084
10 *148:42 0.00027683
11 *148:38 0.000462417
12 *148:30 0.000828506
13 *148:18 0.00231275
14 *148:12 0.00277387
15 *4467:B *4533:CLK 0
16 *4467:B *1285:38 0
17 *4469:A2 *4470:A1 8.57023e-05
18 *4469:A2 *4470:B1 4.88637e-05
19 *4470:A2 *4470:A1 0.000144773
20 *4472:C *4471:B1 0.000104974
21 *4472:C *4472:A 7.22594e-05
22 *4472:C *4472:B 0.000214349
23 *4472:C *4473:C 3.18676e-05
24 *4475:D *166:19 7.80966e-05
25 *4475:D *166:95 3.17163e-05
26 *4475:D *196:10 0.000119372
27 *148:12 *1287:17 1.98839e-05
28 *148:18 *195:22 0
29 *148:18 *1285:38 0
30 *148:30 *4474:A2 1.02936e-05
31 *148:30 *4474:B1 3.34295e-05
32 *148:30 *4476:B 9.60939e-05
33 *148:30 *4481:A2 9.25014e-06
34 *148:30 *166:19 1.03245e-05
35 *148:30 *1289:60 3.99614e-06
36 *148:30 *1289:75 1.69961e-05
37 *148:30 *1290:51 6.09963e-05
38 *148:30 *1290:60 5.23057e-05
39 *148:38 *4470:A1 2.28598e-05
40 *148:38 *4471:B1 1.33343e-05
41 *148:38 *4474:A2 1.24368e-05
42 *148:38 *4476:B 3.30237e-05
43 *148:38 *1289:25 0.000170385
44 *148:38 *1289:49 0.000329906
45 *148:38 *1289:60 0.000204676
46 *148:38 *1290:51 1.97695e-05
47 *148:42 *4471:B1 5.52302e-05
48 *148:42 *1289:25 5.52302e-05
49 *148:46 *4470:A1 5.10822e-05
50 *148:46 *4472:B 5.83304e-05
51 *4441:A *4475:D 2.06178e-05
52 *4442:A2 *148:30 9.60875e-05
53 *4466:B *148:12 5.52238e-05
54 *4467:A *4467:B 2.67767e-05
55 *4469:B1 *4472:C 2.24695e-05
56 *4469:B1 *148:46 1.37292e-05
57 *4473:A *4472:C 0.000194352
58 *4479:A *148:12 0.000158707
59 *4481:C1 *148:18 0.00011673
60 *4535:D *4472:C 6.09688e-05
61 *3:14 *4467:B 0
62 *3:14 *148:18 8.56372e-05
63 *104:16 *148:12 2.35042e-06
64 *138:30 *148:12 3.17148e-05
65 *140:44 *148:12 0.000128161
*RES
1 *4466:X *148:12 20.5582 
2 *148:12 *148:18 3.3464 
3 *148:18 *148:30 11.5769 
4 *148:30 *148:38 10.5536 
5 *148:38 *148:42 5.03571 
6 *148:42 *148:46 6.44643 
7 *148:46 *4470:A2 11.9071 
8 *148:46 *4469:A2 12.7286 
9 *148:42 *4472:C 19.5679 
10 *148:38 *4471:A2 9.3 
11 *148:30 *4474:A3 9.3 
12 *148:18 *4475:D 20.2189 
13 *148:12 *4467:B 19.3661 
*END

*D_NET *149 0.000425506
*CONN
*I *4468:B1 I *D sky130_fd_sc_hd__o21a_2
*I *4467:Y O *D sky130_fd_sc_hd__nor2_2
*CAP
1 *4468:B1 2.60844e-05
2 *4467:Y 2.60844e-05
3 *4468:B1 *4468:A1 0.000186669
4 *4468:B1 *1288:26 0.000186669
*RES
1 *4467:Y *4468:B1 20.3679 
*END

*D_NET *150 0.000211728
*CONN
*I *4470:B1 I *D sky130_fd_sc_hd__a21oi_2
*I *4469:Y O *D sky130_fd_sc_hd__o21ai_2
*CAP
1 *4470:B1 5.28585e-05
2 *4469:Y 5.28585e-05
3 *4470:B1 *4470:A1 5.71472e-05
4 *4469:A2 *4470:B1 4.88637e-05
*RES
1 *4469:Y *4470:B1 19.9571 
*END

*D_NET *151 0.000658825
*CONN
*I *4473:B I *D sky130_fd_sc_hd__and3_2
*I *4471:X O *D sky130_fd_sc_hd__a21o_2
*CAP
1 *4473:B 0.000201482
2 *4471:X 0.000201482
3 *4473:B *4472:B 2.56601e-05
4 *4535:D *4473:B 0.0002302
*RES
1 *4471:X *4473:B 30.8143 
*END

*D_NET *152 0.000474896
*CONN
*I *4473:C I *D sky130_fd_sc_hd__and3_2
*I *4472:Y O *D sky130_fd_sc_hd__nand3_2
*CAP
1 *4473:C 8.53251e-05
2 *4472:Y 8.53251e-05
3 *4472:C *4473:C 3.18676e-05
4 *4473:A *4473:C 4.02549e-05
5 *4535:D *4473:C 0.000232124
*RES
1 *4472:Y *4473:C 21.5107 
*END

*D_NET *153 0.00133408
*CONN
*I *4476:B I *D sky130_fd_sc_hd__and3_2
*I *4474:X O *D sky130_fd_sc_hd__a31o_2
*CAP
1 *4476:B 0.000230694
2 *4474:X 0.000230694
3 *4476:B *1276:10 2.72545e-05
4 *4476:B *1289:60 9.90367e-05
5 *4476:B *1289:75 8.17274e-05
6 *4476:B *1290:51 0.000173797
7 *4442:A2 *4476:B 0.000355951
8 *4525:D *4476:B 0
9 *4536:D *4476:B 5.80706e-06
10 *148:30 *4476:B 9.60939e-05
11 *148:38 *4476:B 3.30237e-05
*RES
1 *4474:X *4476:B 34.6536 
*END

*D_NET *154 0.00172577
*CONN
*I *4476:C I *D sky130_fd_sc_hd__and3_2
*I *4481:A2 I *D sky130_fd_sc_hd__a211oi_2
*I *4475:Y O *D sky130_fd_sc_hd__nand4_2
*CAP
1 *4476:C 0.000215625
2 *4481:A2 0.000143646
3 *4475:Y 0
4 *154:6 0.00035927
5 *4476:C *4474:B1 5.41054e-05
6 *4476:C *4475:B 8.32171e-05
7 *4476:C *4535:RESET_B 7.6644e-05
8 *4476:C *166:95 1.18451e-05
9 *4476:C *1276:10 1.08359e-05
10 *4481:A2 *4474:B1 5.64954e-05
11 *4481:A2 *4475:B 7.83659e-05
12 *4481:A2 *166:19 1.73501e-05
13 *4481:A2 *1289:90 0.000113083
14 *4481:A2 *1290:60 4.70078e-05
15 *4441:B *4481:A2 9.7659e-05
16 *4442:A2 *4481:A2 9.71197e-05
17 *105:57 *4476:C 0.000160086
18 *105:59 *4476:C 9.41642e-05
19 *148:30 *4481:A2 9.25014e-06
*RES
1 *4475:Y *154:6 13.8 
2 *154:6 *4481:A2 18.4429 
3 *154:6 *4476:C 18.1214 
*END

*D_NET *155 0.00134671
*CONN
*I *4479:C I *D sky130_fd_sc_hd__and3_2
*I *4478:D I *D sky130_fd_sc_hd__and4_2
*I *4477:X O *D sky130_fd_sc_hd__and4_2
*CAP
1 *4479:C 0.000171229
2 *4478:D 0
3 *4477:X 0.000256178
4 *155:10 0.000427407
5 *4479:C *4381:D_N 3.10819e-05
6 *4479:C *4382:B 9.35114e-06
7 *4479:C *4484:B1 7.20217e-06
8 *155:10 *4381:A 1.46148e-05
9 *155:10 *4381:D_N 0.000262464
10 *4478:A *4479:C 1.77622e-05
11 *4478:C *155:10 0.000149421
12 *4479:B *4479:C 0
*RES
1 *4477:X *155:10 18.3357 
2 *155:10 *4478:D 13.8 
3 *155:10 *4479:C 16.6393 
*END

*D_NET *156 0.00710346
*CONN
*I *4482:A2 I *D sky130_fd_sc_hd__a21oi_2
*I *4483:A2 I *D sky130_fd_sc_hd__o21a_2
*I *4488:A1 I *D sky130_fd_sc_hd__a21oi_2
*I *4481:B1 I *D sky130_fd_sc_hd__a211oi_2
*I *4478:X O *D sky130_fd_sc_hd__and4_2
*CAP
1 *4482:A2 0.000689456
2 *4483:A2 5.41221e-05
3 *4488:A1 0.000207599
4 *4481:B1 0.000877774
5 *4478:X 0
6 *156:45 0.00101809
7 *156:4 0.000810862
8 *4481:B1 *4381:A 2.6269e-05
9 *4481:B1 *4381:B 0.000311793
10 *4481:B1 *4381:C 0
11 *4481:B1 *4381:D_N 0.000180837
12 *4481:B1 *4477:D 0.000170379
13 *4481:B1 *4528:RESET_B 0.000150625
14 *4481:B1 *1276:36 0.000522017
15 *4481:B1 *1289:90 7.32173e-05
16 *4482:A2 *4347:A 0.000159689
17 *4482:A2 *4483:A1 9.87983e-06
18 *4482:A2 *4538:RESET_B 2.02678e-05
19 *4482:A2 *183:16 5.52302e-05
20 *4482:A2 *1278:8 7.06243e-05
21 *4482:A2 *1278:23 9.16218e-05
22 *4483:A2 *4483:B1 9.60875e-05
23 *4488:A1 *4488:A2 2.44318e-05
24 *4488:A1 *4488:B1 5.33005e-05
25 *4488:A1 *165:22 9.60875e-05
26 *156:45 *4347:A 0.000198705
27 *156:45 *4528:RESET_B 1.50225e-05
28 *4441:B *4481:B1 4.57098e-05
29 *4443:A *156:45 9.26396e-05
30 *4480:A *4482:A2 0
31 *4481:A1 *156:45 3.4323e-06
32 *4481:C1 *4481:B1 5.33005e-05
33 *4481:C1 *156:45 4.6025e-06
34 *4482:B1 *4481:B1 0.000148911
35 *4482:B1 *4482:A2 7.32272e-05
36 *4537:D *156:45 0.00010965
37 *105:35 *4482:A2 0.00021362
38 *105:45 *4482:A2 7.6644e-05
39 *105:45 *156:45 0.0002869
40 *112:124 *156:45 1.08359e-05
*RES
1 *4478:X *156:4 9.3 
2 *156:4 *4481:B1 32.9607 
3 *156:4 *4488:A1 13.1393 
4 *4481:B1 *156:45 21.5679 
5 *156:45 *4483:A2 14.7464 
6 *156:45 *4482:A2 25.8714 
*END

*D_NET *157 0.00583576
*CONN
*I *4480:B I *D sky130_fd_sc_hd__nand2_2
*I *4489:C I *D sky130_fd_sc_hd__and4_2
*I *4484:A3 I *D sky130_fd_sc_hd__a31o_2
*I *4479:X O *D sky130_fd_sc_hd__and3_2
*CAP
1 *4480:B 0.000648329
2 *4489:C 0.000193058
3 *4484:A3 2.33303e-05
4 *4479:X 0.000174775
5 *157:21 0.00101157
6 *157:10 0.000368292
7 *4480:B *4486:A_N 0.000364577
8 *4480:B *4539:RESET_B 0
9 *4480:B *4564:A 0.000142856
10 *4480:B *181:101 0.000227708
11 *4480:B *197:6 0.000201357
12 *4480:B *1278:23 0.000145411
13 *4480:B *1279:10 5.33005e-05
14 *4489:C *4485:B 0.000567275
15 *4489:C *172:10 4.50796e-05
16 *4489:C *191:10 1.21258e-05
17 *157:10 *4382:B 2.94004e-05
18 *157:10 *4484:B1 0.000143375
19 *157:21 *4484:A1 5.54204e-05
20 *157:21 *4486:A_N 0.000219253
21 *157:21 *4487:B 5.6331e-05
22 *157:21 *183:16 0
23 *157:21 *1278:23 2.15339e-05
24 *157:21 *1278:25 0.000352294
25 *4480:A *4480:B 0.000118806
26 *4539:D *4489:C 1.68761e-05
27 *105:35 *4489:C 0.000608138
28 *112:124 *4484:A3 2.28499e-05
29 *112:124 *157:10 1.24368e-05
*RES
1 *4479:X *157:10 12.7464 
2 *157:10 *4484:A3 9.83571 
3 *157:10 *157:21 10.0893 
4 *157:21 *4489:C 30.0143 
5 *157:21 *4480:B 28.6929 
*END

*D_NET *158 0.00333284
*CONN
*I *4486:A_N I *D sky130_fd_sc_hd__nand2b_2
*I *4480:Y O *D sky130_fd_sc_hd__nand2_2
*CAP
1 *4486:A_N 0.000802152
2 *4480:Y 0.000802152
3 *4486:A_N *181:101 0.000531032
4 *4486:A_N *183:16 0
5 *4486:A_N *197:6 0.000403862
6 *4480:B *4486:A_N 0.000364577
7 *4573:A *4486:A_N 0.000209808
8 *4574:A *4486:A_N 0
9 *157:21 *4486:A_N 0.000219253
*RES
1 *4480:Y *4486:A_N 45.7071 
*END

*D_NET *159 0.00197042
*CONN
*I *4483:B1 I *D sky130_fd_sc_hd__o21a_2
*I *4482:Y O *D sky130_fd_sc_hd__a21oi_2
*CAP
1 *4483:B1 0.00035462
2 *4482:Y 0.00035462
3 *4483:B1 *4483:A1 0.000219711
4 *4483:B1 *4487:B 0.000357952
5 *4483:B1 *4487:C 5.97496e-05
6 *4483:B1 *4536:RESET_B 4.70078e-05
7 *4483:B1 *4557:A 0.000255395
8 *4483:B1 *4566:A 1.41029e-05
9 *4483:B1 *183:16 4.05258e-05
10 *4483:B1 *191:10 0.000170654
11 *4482:B1 *4483:B1 0
12 *4483:A2 *4483:B1 9.60875e-05
*RES
1 *4482:Y *4483:B1 38.1536 
*END

*D_NET *160 0.00157434
*CONN
*I *4487:B I *D sky130_fd_sc_hd__and3_2
*I *4484:X O *D sky130_fd_sc_hd__a31o_2
*CAP
1 *4487:B 0.000371981
2 *4484:X 0.000371981
3 *4487:B *4487:C 4.70078e-05
4 *4487:B *4557:A 6.12335e-05
5 *4487:B *180:8 9.71197e-05
6 *4487:B *183:16 7.79781e-06
7 *4483:B1 *4487:B 0.000357952
8 *110:12 *4487:B 0.000202934
9 *157:21 *4487:B 5.6331e-05
*RES
1 *4484:X *4487:B 36.1536 
*END

*D_NET *161 0.00386891
*CONN
*I *4486:B I *D sky130_fd_sc_hd__nand2b_2
*I *4488:A2 I *D sky130_fd_sc_hd__a21oi_2
*I *4489:D I *D sky130_fd_sc_hd__and4_2
*I *4485:X O *D sky130_fd_sc_hd__and2_2
*CAP
1 *4486:B 0.000336216
2 *4488:A2 0.000239037
3 *4489:D 0.000172953
4 *4485:X 8.49105e-05
5 *161:17 0.000665021
6 *161:6 0.00034763
7 *4486:B *4382:A 2.89114e-05
8 *4486:B *4382:B 9.71197e-05
9 *4486:B *4382:C 0.00039665
10 *4488:A2 *4488:B1 0.000410583
11 *4488:A2 *166:65 0.00018944
12 *4489:D *4489:A 0.000218679
13 *161:6 *4489:A 1.24368e-05
14 *161:6 *1280:10 0.000130143
15 *161:17 *4488:B1 9.15804e-05
16 *161:17 *166:65 3.92854e-05
17 *161:17 *1280:27 7.83587e-05
18 *4479:A *4488:A2 0
19 *4488:A1 *4488:A2 2.44318e-05
20 *4539:D *4486:B 7.847e-05
21 *105:35 *161:17 0
22 *110:12 *4486:B 0.00022705
*RES
1 *4485:X *161:6 10.6571 
2 *161:6 *4489:D 11.4786 
3 *161:6 *161:17 6.75 
4 *161:17 *4488:A2 20.1571 
5 *161:17 *4486:B 21.7464 
*END

*D_NET *162 0.00167364
*CONN
*I *4487:C I *D sky130_fd_sc_hd__and3_2
*I *4486:Y O *D sky130_fd_sc_hd__nand2b_2
*CAP
1 *4487:C 0.000211047
2 *4486:Y 0.000211047
3 *4487:C *4483:A1 9.60875e-05
4 *4487:C *4536:RESET_B 5.52238e-05
5 *4487:C *4557:A 0.000263524
6 *4483:B1 *4487:C 5.97496e-05
7 *4487:B *4487:C 4.70078e-05
8 *4539:D *4487:C 0.000686919
9 *110:12 *4487:C 4.30382e-05
*RES
1 *4486:Y *4487:C 26.1179 
*END

*D_NET *163 0.00222825
*CONN
*I *4490:B I *D sky130_fd_sc_hd__nor3_2
*I *4488:Y O *D sky130_fd_sc_hd__a21oi_2
*CAP
1 *4490:B 0.000555086
2 *4488:Y 0.000555086
3 *4490:B *4541:CLK 0.000127439
4 *4490:B *165:22 0.000264153
5 *4490:A *4490:B 5.66157e-05
6 *4540:D *4490:B 0
7 *4570:A *4490:B 0
8 *104:114 *4490:B 0.000669875
*RES
1 *4488:Y *4490:B 39.4214 
*END

*D_NET *164 0.00351063
*CONN
*I *4491:A2 I *D sky130_fd_sc_hd__a21oi_2
*I *4490:C I *D sky130_fd_sc_hd__nor3_2
*I *4492:A2 I *D sky130_fd_sc_hd__o21a_2
*I *4489:X O *D sky130_fd_sc_hd__and4_2
*CAP
1 *4491:A2 0.000358042
2 *4490:C 2.23854e-05
3 *4492:A2 0.000232901
4 *4489:X 0
5 *164:23 0.000805748
6 *164:6 0.000658222
7 *4491:A2 *4491:A1 9.90431e-05
8 *4491:A2 *4542:D 0.000188586
9 *4492:A2 *4488:B1 8.33751e-05
10 *4492:A2 *4492:A1 7.43578e-06
11 *4492:A2 *4492:B1 1.02936e-05
12 *4492:A2 *172:10 0.000190689
13 *164:23 *4540:RESET_B 2.70899e-05
14 *164:23 *4542:RESET_B 9.25014e-06
15 *164:23 *172:10 0.000162832
16 *164:23 *183:16 8.75368e-05
17 *164:23 *199:10 0
18 *4479:A *4492:A2 6.05161e-06
19 *4479:B *4492:A2 1.76039e-05
20 *4489:B *4492:A2 0
21 *4490:A *164:23 5.52238e-05
22 *4491:B1 *4491:A2 0.000181192
23 *4491:B1 *164:23 4.51611e-05
24 *4569:A *4492:A2 0.000239769
25 *4569:A *164:23 2.21972e-05
*RES
1 *4489:X *164:6 13.8 
2 *164:6 *4492:A2 19.6214 
3 *164:6 *164:23 12.625 
4 *164:23 *4490:C 9.72857 
5 *164:23 *4491:A2 16.8357 
*END

*D_NET *165 0.00409501
*CONN
*I *4492:B1 I *D sky130_fd_sc_hd__o21a_2
*I *4491:Y O *D sky130_fd_sc_hd__a21oi_2
*CAP
1 *4492:B1 5.94409e-05
2 *4491:Y 0.00109153
3 *165:22 0.00115097
4 *4492:B1 *4492:A1 5.52238e-05
5 *165:22 *4488:B1 0.00021159
6 *165:22 *4491:A1 0.000406212
7 *165:22 *4492:A1 7.83659e-05
8 *165:22 *170:39 7.79781e-06
9 *165:22 *181:41 3.55407e-05
10 *165:22 *181:47 7.22794e-05
11 *165:22 *182:16 0.000192204
12 *4479:A *4492:B1 0.000120881
13 *4479:A *165:22 6.21582e-05
14 *4488:A1 *165:22 9.60875e-05
15 *4490:B *165:22 0.000264153
16 *4492:A2 *4492:B1 1.02936e-05
17 *4541:D *4492:B1 0.000180281
*RES
1 *4491:Y *165:22 48.5143 
2 *165:22 *4492:B1 11.4964 
*END

*D_NET *166 0.00979225
*CONN
*I *4546:A I *D sky130_fd_sc_hd__clkbuf_16
*I *4545:A I *D sky130_fd_sc_hd__clkbuf_16
*I *4547:A I *D sky130_fd_sc_hd__clkbuf_16
*I *4548:A I *D sky130_fd_sc_hd__clkbuf_16
*I *4544:X O *D sky130_fd_sc_hd__clkbuf_16
*CAP
1 *4546:A 7.76454e-05
2 *4545:A 0
3 *4547:A 4.76981e-05
4 *4548:A 3.34385e-05
5 *4544:X 0.000215892
6 *166:95 0.00038952
7 *166:65 0.00064391
8 *166:56 0.000610471
9 *166:54 0.00012756
10 *166:46 0.00144488
11 *166:29 0.00136502
12 *166:27 0.000132219
13 *166:19 0.000346406
14 *166:13 0.000581342
15 *166:6 0.000271173
16 *4546:A *4560:A 8.41486e-05
17 *4547:A *1286:38 8.27532e-05
18 *4548:A *4382:C 3.20883e-05
19 *166:6 *1276:36 0.000118098
20 *166:13 *1276:23 3.69047e-06
21 *166:13 *1276:36 2.81228e-05
22 *166:19 *4475:B 5.33882e-05
23 *166:46 *4364:B 0.000160294
24 *166:46 *4387:A 2.89114e-05
25 *166:46 *4455:A 2.84109e-05
26 *166:46 *4458:B 0.000168902
27 *166:46 *4458:C 1.46148e-05
28 *166:46 *183:20 0.000218038
29 *166:46 *201:25 6.58289e-05
30 *166:46 *1285:40 4.58194e-05
31 *166:46 *1286:38 4.16878e-05
32 *166:46 *1286:48 2.59355e-05
33 *166:54 *1286:38 7.4456e-05
34 *166:65 *4376:B 0.000142245
35 *166:65 *4461:B1 6.42242e-05
36 *166:65 *182:16 9.88232e-05
37 *166:95 *4442:A1 0.000181378
38 *166:95 *4475:B 2.58997e-05
39 *166:95 *4525:RESET_B 0
40 *166:95 *4537:CLK 0.000195471
41 *166:95 *4560:A 2.2528e-05
42 *166:95 *196:10 0
43 *4441:A *166:19 5.92338e-05
44 *4441:A *166:46 0
45 *4443:B *166:46 2.59355e-05
46 *4455:B *166:46 4.73286e-05
47 *4455:C *166:46 6.17565e-05
48 *4456:B1 *166:65 0.000130685
49 *4463:A *166:65 5.68747e-05
50 *4475:D *166:19 7.80966e-05
51 *4475:D *166:95 3.17163e-05
52 *4476:C *166:95 1.18451e-05
53 *4479:A *166:65 0
54 *4481:A2 *166:19 1.73501e-05
55 *4488:A2 *166:65 0.00018944
56 *95:8 *166:27 5.71472e-05
57 *104:16 *166:65 0.000340316
58 *105:35 *166:65 2.47093e-05
59 *105:57 *166:95 3.92854e-05
60 *112:59 *166:46 0.000163615
61 *134:27 *166:46 9.28468e-05
62 *140:8 *166:46 2.15245e-05
63 *148:30 *166:19 1.03245e-05
64 *161:17 *166:65 3.92854e-05
*RES
1 *4544:X *166:6 12.7598 
2 *166:6 *166:13 5.39732 
3 *166:13 *166:19 4.42857 
4 *166:19 *166:27 6.28571 
5 *166:27 *166:29 4.5 
6 *166:29 *166:46 30.7634 
7 *166:46 *166:54 1.80804 
8 *166:54 *166:56 4.5 
9 *166:56 *166:65 14.25 
10 *166:65 *4548:A 14.3893 
11 *166:54 *4547:A 10.2464 
12 *166:27 *4545:A 9.3 
13 *166:13 *166:95 12.3393 
14 *166:95 *4546:A 10.7643 
*END

*D_NET *167 0.00570636
*CONN
*I *4519:CLK I *D sky130_fd_sc_hd__dfrtp_2
*I *4528:CLK I *D sky130_fd_sc_hd__dfrtp_2
*I *4527:CLK I *D sky130_fd_sc_hd__dfrtp_2
*I *4534:CLK I *D sky130_fd_sc_hd__dfrtp_2
*I *4526:CLK I *D sky130_fd_sc_hd__dfrtp_2
*I *4545:X O *D sky130_fd_sc_hd__clkbuf_16
*CAP
1 *4519:CLK 0
2 *4528:CLK 0.000780425
3 *4527:CLK 0
4 *4534:CLK 0.000245591
5 *4526:CLK 8.41164e-05
6 *4545:X 0.000255897
7 *167:28 0.000846401
8 *167:18 0.000723281
9 *167:14 0.00119514
10 *167:10 0.000464019
11 *4528:CLK *4527:RESET_B 0.000163757
12 *167:10 *180:78 4.25809e-05
13 *167:10 *180:121 0
14 *167:14 *4444:S 6.5185e-05
15 *167:14 *4445:B 3.69697e-05
16 *167:14 *180:121 0
17 *167:18 *4527:RESET_B 9.46915e-05
18 *167:28 *4527:RESET_B 0.000142856
19 *167:28 *5297:A 6.71359e-05
20 *167:28 *5298:A 0
21 *4386:A *167:10 0
22 *4446:A1 *167:14 0
23 *4449:A *4528:CLK 2.97021e-05
24 *4519:D *167:10 3.47737e-05
25 *4526:D *4526:CLK 6.05161e-06
26 *4526:D *4534:CLK 4.57538e-05
27 *4526:D *167:28 1.97381e-05
28 *4527:D *167:14 4.78056e-05
29 *4554:A *4528:CLK 7.43787e-05
30 *4554:A *167:28 0.000240115
31 *113:23 *167:10 0
32 *113:23 *167:14 0
*RES
1 *4545:X *167:10 18.4071 
2 *167:10 *167:14 8.875 
3 *167:14 *167:18 3.21429 
4 *167:18 *167:28 13.7857 
5 *167:28 *4526:CLK 15.1571 
6 *167:28 *4534:CLK 18.4786 
7 *167:18 *4527:CLK 9.3 
8 *167:14 *4528:CLK 19.6036 
9 *167:10 *4519:CLK 13.8 
*END

*D_NET *168 0.00491511
*CONN
*I *4538:CLK I *D sky130_fd_sc_hd__dfrtp_2
*I *4537:CLK I *D sky130_fd_sc_hd__dfrtp_2
*I *4525:CLK I *D sky130_fd_sc_hd__dfrtp_2
*I *4536:CLK I *D sky130_fd_sc_hd__dfrtp_2
*I *4535:CLK I *D sky130_fd_sc_hd__dfrtp_2
*I *4546:X O *D sky130_fd_sc_hd__clkbuf_16
*CAP
1 *4538:CLK 1.91209e-05
2 *4537:CLK 0.000393359
3 *4525:CLK 0.000140106
4 *4536:CLK 5.88362e-05
5 *4535:CLK 0.000581095
6 *4546:X 0
7 *168:53 0.000971523
8 *168:38 0.000824556
9 *168:8 0.000748182
10 *168:6 0.000233658
11 *4525:CLK *4405:A 3.80277e-05
12 *4535:CLK *1290:8 2.07937e-05
13 *4537:CLK *4525:RESET_B 0
14 *4537:CLK *196:10 0.00014535
15 *168:53 *4525:RESET_B 6.3622e-05
16 *4405:B *4535:CLK 0
17 *4405:B *168:8 0
18 *4405:B *168:38 0
19 *4525:D *4525:CLK 6.05161e-06
20 *4525:D *4535:CLK 0
21 *4525:D *168:8 0
22 *4525:D *168:38 0
23 *4525:D *168:53 0.000123673
24 *4535:D *4535:CLK 5.41609e-05
25 *4538:D *4537:CLK 0.000297522
26 *166:95 *4537:CLK 0.000195471
*RES
1 *4546:X *168:6 13.8 
2 *168:6 *168:8 1.94643 
3 *168:8 *4535:CLK 22.9786 
4 *168:8 *4536:CLK 14.7464 
5 *168:6 *168:38 6.75 
6 *168:38 *4525:CLK 11.3893 
7 *168:38 *168:53 8.07143 
8 *168:53 *4537:CLK 27.7107 
9 *168:53 *4538:CLK 9.72857 
*END

*D_NET *169 0.00462641
*CONN
*I *4533:CLK I *D sky130_fd_sc_hd__dfrtp_2
*I *4532:CLK I *D sky130_fd_sc_hd__dfrtp_2
*I *4531:CLK I *D sky130_fd_sc_hd__dfrtp_2
*I *4529:CLK I *D sky130_fd_sc_hd__dfrtp_2
*I *4530:CLK I *D sky130_fd_sc_hd__dfrtp_2
*I *4547:X O *D sky130_fd_sc_hd__clkbuf_16
*CAP
1 *4533:CLK 0.000196064
2 *4532:CLK 2.33186e-05
3 *4531:CLK 0
4 *4529:CLK 1.68269e-05
5 *4530:CLK 0.000463054
6 *4547:X 0.000867274
7 *169:54 0.000338283
8 *169:40 0.000350806
9 *169:32 0.000857099
10 *4529:CLK *4529:RESET_B 5.71472e-05
11 *4530:CLK *4530:RESET_B 9.23695e-05
12 *4530:CLK *181:53 0
13 *4532:CLK *1287:6 1.39841e-05
14 *169:40 *4529:RESET_B 4.88637e-05
15 *169:40 *1285:38 8.03354e-06
16 *169:40 *1286:10 0.000166528
17 *169:40 *1286:19 2.82057e-05
18 *169:40 *1286:38 4.33438e-05
19 *4456:B1 *169:40 0
20 *4456:B1 *169:54 0
21 *4457:A *4532:CLK 5.33433e-05
22 *4457:B *4530:CLK 8.45315e-05
23 *4460:A2 *169:40 0.000193118
24 *4460:B1 *169:40 0.000220448
25 *4467:B *4533:CLK 0
26 *4468:A2 *4533:CLK 4.66303e-05
27 *4468:A2 *169:54 4.46186e-06
28 *4529:D *169:40 0
29 *4531:D *169:40 0.000100831
30 *4532:D *4532:CLK 5.71472e-05
31 *4533:D *4533:CLK 4.79842e-05
32 *104:114 *4533:CLK 0.000246715
*RES
1 *4547:X *4530:CLK 34.2607 
2 *4547:X *169:32 18.4429 
3 *169:32 *169:40 13.5893 
4 *169:40 *4529:CLK 9.83571 
5 *169:40 *4531:CLK 9.3 
6 *169:32 *169:54 1.94643 
7 *169:54 *4532:CLK 14.7464 
8 *169:54 *4533:CLK 18.4786 
*END

*D_NET *170 0.0041023
*CONN
*I *4542:CLK I *D sky130_fd_sc_hd__dfrtp_2
*I *4549:A I *D sky130_fd_sc_hd__clkbuf_4
*I *4539:CLK I *D sky130_fd_sc_hd__dfrtp_2
*I *4540:CLK I *D sky130_fd_sc_hd__dfrtp_2
*I *4541:CLK I *D sky130_fd_sc_hd__dfrtp_2
*I *4548:X O *D sky130_fd_sc_hd__clkbuf_16
*CAP
1 *4542:CLK 0.000207919
2 *4549:A 0
3 *4539:CLK 2.95714e-05
4 *4540:CLK 8.79921e-05
5 *4541:CLK 0.000217327
6 *4548:X 0.000311418
7 *170:43 0.000464605
8 *170:39 0.000902005
9 *170:26 0.000441136
10 *4539:CLK *4542:RESET_B 0.000100685
11 *4540:CLK *4540:RESET_B 0.000219818
12 *4540:CLK *1280:10 0.000136019
13 *4541:CLK *182:16 0.000230482
14 *170:26 *182:16 0.000175512
15 *170:39 *4491:A1 0
16 *170:39 *4542:D 0
17 *170:39 *182:16 0.000125731
18 *170:43 *4542:RESET_B 0.000287931
19 *4490:B *4541:CLK 0.000127439
20 *4540:D *4540:CLK 2.89114e-05
21 *4540:D *170:26 0
22 *4540:D *170:39 0
23 *4570:A *170:39 0
24 *165:22 *170:39 7.79781e-06
*RES
1 *4548:X *4541:CLK 31.4214 
2 *4548:X *170:26 16.05 
3 *170:26 *4540:CLK 17.6214 
4 *170:26 *170:39 9.48214 
5 *170:39 *170:43 8.76786 
6 *170:43 *4539:CLK 10.2464 
7 *170:43 *4549:A 9.3 
8 *170:39 *4542:CLK 12.7107 
*END

*D_NET *171 0.00180833
*CONN
*I *4543:A I *D sky130_fd_sc_hd__buf_2
*I *4560:A I *D sky130_fd_sc_hd__dlygate4sd3_1
*I *4525:Q O *D sky130_fd_sc_hd__dfrtp_2
*CAP
1 *4543:A 0.000277296
2 *4560:A 0.000295711
3 *4525:Q 0
4 *171:6 0.000573008
5 *4543:A *4525:RESET_B 0.000105689
6 *4543:A *197:6 0.000318101
7 *4560:A *4525:RESET_B 0.000128161
8 *4560:A *196:10 3.69047e-06
9 *4480:A *4543:A 0
10 *4546:A *4560:A 8.41486e-05
11 *166:95 *4560:A 2.2528e-05
*RES
1 *4525:Q *171:6 13.8 
2 *171:6 *4560:A 19.2643 
3 *171:6 *4543:A 19.9607 
*END

*D_NET *172 0.0027525
*CONN
*I *4542:RESET_B I *D sky130_fd_sc_hd__dfrtp_2
*I *4558:A I *D sky130_fd_sc_hd__clkdlybuf4s25_1
*I *4569:X O *D sky130_fd_sc_hd__clkdlybuf4s25_1
*CAP
1 *4542:RESET_B 0.000354384
2 *4558:A 7.87621e-05
3 *4569:X 0.000307365
4 *172:10 0.000740511
5 *4542:RESET_B *199:10 0.000142856
6 *4558:A *183:16 3.57405e-05
7 *172:10 *4382:D 0.000144075
8 *4489:C *172:10 4.50796e-05
9 *4492:A2 *172:10 0.000190689
10 *4539:CLK *4542:RESET_B 0.000100685
11 *4571:A *4542:RESET_B 0.00011891
12 *4571:A *172:10 3.34295e-05
13 *164:23 *4542:RESET_B 9.25014e-06
14 *164:23 *172:10 0.000162832
15 *170:43 *4542:RESET_B 0.000287931
*RES
1 *4569:X *172:10 19.8357 
2 *172:10 *4558:A 15.175 
3 *172:10 *4542:RESET_B 12.7768 
*END

*D_NET *173 0.00632462
*CONN
*I *4517:RESET_B I *D sky130_fd_sc_hd__dfrtp_2
*I *4518:RESET_B I *D sky130_fd_sc_hd__dfrtp_2
*I *4516:RESET_B I *D sky130_fd_sc_hd__dfrtp_2
*I *4521:RESET_B I *D sky130_fd_sc_hd__dfrtp_2
*I *4515:RESET_B I *D sky130_fd_sc_hd__dfrtp_2
*I *4514:RESET_B I *D sky130_fd_sc_hd__dfrtp_2
*I *4550:X O *D sky130_fd_sc_hd__clkdlybuf4s25_1
*CAP
1 *4517:RESET_B 0.000425721
2 *4518:RESET_B 0.000476015
3 *4516:RESET_B 0
4 *4521:RESET_B 0.000306305
5 *4515:RESET_B 0.000491013
6 *4514:RESET_B 0.000413995
7 *4550:X 0.000108969
8 *173:42 0.000403751
9 *173:40 0.00085353
10 *173:38 0.000891777
11 *4514:RESET_B *4508:RESET_B 0.000250193
12 *4514:RESET_B *4550:A 0.000194299
13 *4514:RESET_B *4559:A 0.000152333
14 *4514:RESET_B *204:27 0
15 *4515:RESET_B *4497:A 9.33521e-05
16 *4515:RESET_B *203:10 9.99853e-05
17 *4515:RESET_B *210:20 0.000128161
18 *4517:RESET_B *217:8 0.000136638
19 *4518:RESET_B *4350:A 5.71472e-05
20 *4518:RESET_B *209:14 0.000302653
21 *4518:RESET_B *216:12 3.05446e-05
22 *4521:RESET_B *202:10 9.1736e-05
23 *173:38 *4433:S 0
24 *173:38 *4497:A 9.1736e-05
25 *173:40 *209:14 2.21254e-05
26 *173:40 *209:27 0
27 *173:42 *209:14 9.97164e-05
28 *4512:CLK *4515:RESET_B 1.13883e-05
29 *4512:CLK *173:38 4.04221e-05
30 *4512:D *4515:RESET_B 0
31 *4515:D *4517:RESET_B 5.20692e-05
32 *4516:D *4518:RESET_B 9.90431e-05
*RES
1 *4550:X *4514:RESET_B 22.675 
2 *4514:RESET_B *4515:RESET_B 15.2232 
3 *4515:RESET_B *173:38 8.54464 
4 *173:38 *173:40 4.98214 
5 *173:40 *173:42 1.94643 
6 *173:42 *4521:RESET_B 10.0625 
7 *173:42 *4516:RESET_B 4.5 
8 *173:40 *4518:RESET_B 13.1875 
9 *173:38 *4517:RESET_B 11.5446 
*END

*D_NET *174 0.027673
*CONN
*I *4407:B I *D sky130_fd_sc_hd__and3_2
*I *4406:B I *D sky130_fd_sc_hd__and3_2
*I *4410:B I *D sky130_fd_sc_hd__and3_2
*I *4411:B I *D sky130_fd_sc_hd__and3_2
*I *4415:C I *D sky130_fd_sc_hd__and3_2
*I *4417:C I *D sky130_fd_sc_hd__and3_2
*I *4412:B I *D sky130_fd_sc_hd__and3_2
*I *4413:B I *D sky130_fd_sc_hd__and3_2
*I *4416:C I *D sky130_fd_sc_hd__and3_2
*I *4404:A1 I *D sky130_fd_sc_hd__a22o_2
*I *4551:X O *D sky130_fd_sc_hd__clkdlybuf4s25_1
*CAP
1 *4407:B 0
2 *4406:B 0
3 *4410:B 0
4 *4411:B 0
5 *4415:C 3.34103e-05
6 *4417:C 0
7 *4412:B 0.000560455
8 *4413:B 0
9 *4416:C 0.00024442
10 *4404:A1 4.34177e-05
11 *4551:X 0.000355448
12 *174:94 0.000746704
13 *174:77 0.000805192
14 *174:71 0.00165253
15 *174:61 0.00166699
16 *174:55 0.00194503
17 *174:43 0.00267899
18 *174:28 0.0021148
19 *174:22 0.00196901
20 *174:14 0.00120319
21 *174:6 0.000571491
22 *4412:B *5530:A 0
23 *4412:B *5535:A 6.57036e-05
24 *4412:B *5545:A 0
25 *4415:C *4365:B 5.33005e-05
26 *4416:C *4655:A 0
27 *4416:C *4669:A 2.80789e-05
28 *4416:C *4670:A 9.27788e-05
29 *4416:C *4671:A 1.05613e-05
30 *174:6 *4975:A 8.78006e-05
31 *174:14 *4369:B 0.000139907
32 *174:14 *176:10 9.25014e-06
33 *174:22 *4369:B 0.000575092
34 *174:22 *4694:A 7.18982e-05
35 *174:22 *4695:A 9.57215e-05
36 *174:22 *4696:A 9.57078e-05
37 *174:22 *4698:A 0.000159517
38 *174:22 *4709:A 0.000131829
39 *174:22 *5411:A 8.94885e-05
40 *174:22 *5412:A 9.57215e-05
41 *174:22 *5414:A 1.59935e-05
42 *174:28 *4521:CLK 1.32552e-05
43 *174:28 *4690:A 0
44 *174:28 *4694:A 0
45 *174:28 *5306:A 0
46 *174:28 *5318:A 0
47 *174:28 *5327:B 0
48 *174:43 *4414:C 2.32517e-05
49 *174:43 *4521:CLK 5.71472e-05
50 *174:43 *5568:A 9.90367e-05
51 *174:43 *5569:A 1.87703e-05
52 *174:43 *5570:A 3.80922e-05
53 *174:43 *5571:A 3.80922e-05
54 *174:43 *5572:A 3.80922e-05
55 *174:43 *5574:A 3.80922e-05
56 *174:43 *5583:B 0.000378161
57 *174:55 *4759:A 8.80821e-05
58 *174:55 *4760:A 3.52408e-05
59 *174:55 *4761:A 1.37743e-05
60 *174:55 *4763:A 5.33783e-05
61 *174:55 *4764:A 5.33783e-05
62 *174:55 *4765:A 5.33783e-05
63 *174:55 *4767:A 8.21248e-06
64 *174:55 *4788:A 0
65 *174:55 *4789:A 0
66 *174:55 *4792:A 0
67 *174:55 *4797:A 0
68 *174:55 *4798:A 0
69 *174:55 *5487:A 3.08664e-05
70 *174:55 *5487:B 2.84026e-05
71 *174:55 *5556:A 0
72 *174:55 *5567:A 0
73 *174:55 *5568:A 0
74 *174:61 *4365:B 2.85547e-05
75 *174:61 *178:73 0.00019846
76 *174:71 *4365:B 3.34366e-05
77 *174:71 *5599:A 2.524e-05
78 *174:71 *5600:A 0.000205626
79 *174:71 *5601:A 2.80853e-05
80 *174:71 *5602:A 9.57215e-05
81 *174:71 *5603:A 9.57215e-05
82 *174:71 *5604:A 9.57215e-05
83 *174:71 *178:83 0.000125693
84 *174:77 *4668:A 1.88048e-05
85 *174:77 *4679:A 0
86 *174:94 *4668:A 3.79467e-05
87 *174:94 *5530:A 0
88 *174:94 *5551:B 0
89 *4391:B1 *174:28 0.000531943
90 *4396:A *174:28 0
91 *4404:A2 *4404:A1 5.95283e-05
92 *4404:A2 *174:43 7.91029e-05
93 *4407:A *174:14 3.34783e-05
94 *4408:C *174:28 6.07328e-05
95 *4410:A *174:43 9.37951e-05
96 *4411:A *174:61 0.000185976
97 *4411:A *174:71 0.00010326
98 *4411:C *174:55 4.0342e-06
99 *4411:C *174:61 9.42598e-06
100 *4412:C *4412:B 2.31235e-05
101 *4413:A *174:77 0.000245368
102 *4413:A *174:94 0.000164482
103 *4413:C *4412:B 0.000449426
104 *4413:C *174:94 0.000108118
105 *4551:A *174:6 9.31209e-05
106 *4552:A *174:22 0.000106569
107 *4553:A *174:14 0.000245349
108 *98:16 *174:71 0.00139639
109 *98:20 *174:71 0.00010096
110 *98:20 *174:77 0.000142856
111 *98:26 *174:77 1.76039e-05
112 *98:77 *174:22 0.00179678
113 *99:31 *174:61 0
114 *99:37 *174:71 8.6642e-05
115 *100:10 *174:14 0.000153964
116 *101:48 *174:22 0.000266919
117 *101:54 *174:22 0.00039819
118 *103:18 *174:55 0
119 *103:30 *4416:C 4.18749e-05
120 *120:14 *174:43 8.0786e-06
121 *120:14 *174:55 9.33978e-07
122 *120:28 *174:55 0.000159782
123 *130:12 *174:28 0
*RES
1 *4551:X *174:6 13.9429 
2 *174:6 *174:14 14.4286 
3 *174:14 *174:22 33.4107 
4 *174:22 *174:28 22.6786 
5 *174:28 *4404:A1 10.2464 
6 *174:28 *174:43 17.7321 
7 *174:43 *174:55 36.5893 
8 *174:55 *174:61 10.7679 
9 *174:61 *174:71 30.8214 
10 *174:71 *174:77 12.0536 
11 *174:77 *4416:C 18.4964 
12 *174:77 *174:94 5.28571 
13 *174:94 *4413:B 13.8 
14 *174:94 *4412:B 23.1036 
15 *174:71 *4417:C 9.3 
16 *174:61 *4415:C 14.3357 
17 *174:55 *4411:B 9.3 
18 *174:43 *4410:B 9.3 
19 *174:14 *4406:B 9.3 
20 *174:6 *4407:B 9.3 
*END

*D_NET *175 0.0107031
*CONN
*I *4409:B I *D sky130_fd_sc_hd__and3_2
*I *4419:C I *D sky130_fd_sc_hd__and3_2
*I *4414:C I *D sky130_fd_sc_hd__and3_2
*I *4408:B I *D sky130_fd_sc_hd__and3_2
*I *4421:C I *D sky130_fd_sc_hd__and3_2
*I *4420:C I *D sky130_fd_sc_hd__and3_2
*I *4418:C I *D sky130_fd_sc_hd__and3_2
*I *4552:X O *D sky130_fd_sc_hd__clkdlybuf4s25_1
*CAP
1 *4409:B 0
2 *4419:C 0
3 *4414:C 0.000390135
4 *4408:B 0.000212995
5 *4421:C 0
6 *4420:C 0.00012878
7 *4418:C 5.45374e-05
8 *4552:X 3.1161e-05
9 *175:63 0.000886215
10 *175:54 0.000519805
11 *175:39 0.000749928
12 *175:35 0.000713222
13 *175:16 0.000752692
14 *175:10 0.000400521
15 *4408:B *195:50 0.000312215
16 *4414:C *4366:A_N 0
17 *4414:C *4404:B2 0.000198698
18 *4414:C *5583:A 3.18676e-05
19 *4414:C *5583:B 8.00346e-05
20 *4414:C *177:12 3.34687e-05
21 *4418:C *4708:A 9.60875e-05
22 *4418:C *4719:A 5.71472e-05
23 *175:10 *5414:A 7.6644e-05
24 *175:10 *194:63 7.83659e-05
25 *175:16 *5414:A 1.92905e-05
26 *175:16 *5423:A 0
27 *175:35 *4697:A 0.000132465
28 *175:35 *4699:A 9.47974e-05
29 *175:35 *4700:A 9.47974e-05
30 *175:35 *4708:A 0.000283245
31 *175:35 *4719:A 5.71472e-05
32 *175:54 *4724:A 5.59013e-05
33 *175:54 *4815:A 9.25014e-06
34 *175:54 *177:12 5.80563e-05
35 *175:63 *4815:A 0.000118903
36 *175:63 *177:12 0.000225532
37 *4374:B *4420:C 9.60939e-05
38 *4410:A *4414:C 6.05161e-06
39 *4421:A *175:54 0.000431831
40 *100:78 *175:35 0.000189091
41 *100:78 *175:39 6.97692e-05
42 *100:80 *4420:C 8.57023e-05
43 *100:80 *175:39 0.000481746
44 *100:88 *175:54 0.000552708
45 *101:78 *4414:C 0
46 *102:49 *4418:C 0.00018372
47 *102:49 *175:16 0.000430562
48 *102:49 *175:35 0.00087965
49 *130:12 *4414:C 2.05938e-05
50 *130:12 *175:54 0.000106311
51 *130:12 *175:63 0.000192074
52 *174:43 *4414:C 2.32517e-05
*RES
1 *4552:X *175:10 19.3357 
2 *175:10 *175:16 7.33929 
3 *175:16 *4418:C 11.4786 
4 *175:16 *175:35 20.9821 
5 *175:35 *175:39 5.89286 
6 *175:39 *4420:C 11.0679 
7 *175:39 *175:54 14.0893 
8 *175:54 *4421:C 13.8 
9 *175:54 *175:63 7.41071 
10 *175:63 *4408:B 16.8 
11 *175:63 *4414:C 20.675 
12 *175:35 *4419:C 9.3 
13 *175:10 *4409:B 9.3 
*END

*D_NET *176 0.0235307
*CONN
*I *4372:A I *D sky130_fd_sc_hd__and3_2
*I *4370:A I *D sky130_fd_sc_hd__and3_2
*I *4374:A I *D sky130_fd_sc_hd__and3_2
*I *4430:A I *D sky130_fd_sc_hd__and3_2
*I *4431:A I *D sky130_fd_sc_hd__and3_2
*I *4427:A I *D sky130_fd_sc_hd__and3_2
*I *4429:A I *D sky130_fd_sc_hd__and3_2
*I *4428:A I *D sky130_fd_sc_hd__and3_2
*I *4367:A I *D sky130_fd_sc_hd__and3_2
*I *4432:A I *D sky130_fd_sc_hd__and3_2
*I *4553:X O *D sky130_fd_sc_hd__clkdlybuf4s25_1
*CAP
1 *4372:A 2.31617e-05
2 *4370:A 0
3 *4374:A 0
4 *4430:A 0
5 *4431:A 0.000499764
6 *4427:A 0
7 *4429:A 0
8 *4428:A 0.000171321
9 *4367:A 0
10 *4432:A 0.000215678
11 *4553:X 0.000280127
12 *176:90 0.000215834
13 *176:66 0.000690979
14 *176:58 0.0017266
15 *176:48 0.00167369
16 *176:36 0.00155966
17 *176:34 0.00128055
18 *176:22 0.00265692
19 *176:16 0.00235952
20 *176:10 0.000693442
21 *4428:A *5094:A 0.000110942
22 *4428:A *5103:B 3.33174e-05
23 *4431:A *5157:A 7.54384e-05
24 *4431:A *5167:A 0.000163535
25 *4431:A *5167:B 7.57312e-05
26 *176:10 *4369:B 0.000307336
27 *176:16 *4398:S0 0.000168939
28 *176:16 *5358:A 5.33005e-05
29 *176:16 *5386:A 6.59118e-05
30 *176:16 *5387:A 0.000148911
31 *176:22 *4922:A 2.70241e-05
32 *176:22 *4933:A 5.33783e-05
33 *176:22 *4934:A 2.3104e-05
34 *176:22 *4935:A 5.33783e-05
35 *176:22 *4936:A 3.33174e-05
36 *176:22 *4943:A 0.000139907
37 *176:22 *4943:B 0.000256783
38 *176:22 *5263:A 0
39 *176:22 *5333:A 1.67305e-05
40 *176:22 *5334:A 0.000124123
41 *176:22 *5335:A 7.70192e-05
42 *176:22 *5336:A 5.17013e-05
43 *176:22 *5337:A 3.32595e-05
44 *176:22 *5338:A 0.000108338
45 *176:22 *5349:A 5.33783e-05
46 *176:22 *5351:A 5.33783e-05
47 *176:22 *5352:A 5.33783e-05
48 *176:22 *5353:A 1.06618e-05
49 *176:22 *5358:A 0.00033307
50 *176:22 *5359:A 2.77143e-05
51 *176:34 *5114:A 0.000186669
52 *176:34 *5135:B 6.58643e-05
53 *176:36 *5104:A 9.57215e-05
54 *176:36 *5105:A 9.57215e-05
55 *176:36 *5106:A 0.000134382
56 *176:36 *5107:A 0.000164692
57 *176:36 *5125:A 7.18918e-05
58 *176:36 *5127:A 1.95199e-05
59 *176:36 *5132:A 2.524e-05
60 *176:36 *5133:A 5.76121e-05
61 *176:48 *5134:A 0.000198698
62 *176:48 *178:83 0
63 *176:58 *5072:A 9.57215e-05
64 *176:58 *5073:A 7.71303e-05
65 *176:58 *5093:A 2.3541e-05
66 *176:58 *5094:A 2.8266e-06
67 *176:58 *5095:A 6.85475e-05
68 *176:58 *5096:A 9.57215e-05
69 *176:58 *5097:A 9.57215e-05
70 *176:58 *5098:A 9.57215e-05
71 *176:58 *5099:A 0.000139534
72 *176:58 *5100:A 9.57215e-05
73 *176:58 *5101:A 9.57215e-05
74 *176:58 *5103:A 9.90367e-05
75 *176:58 *5134:A 0.00014183
76 *176:66 *5218:A 0
77 *176:66 *5220:A 0.000101545
78 *176:90 *5094:A 3.17148e-05
79 *4370:B *176:16 9.91086e-05
80 *4374:C *176:22 1.40415e-05
81 *4402:A1 *176:48 0.000108239
82 *4402:B1 *176:48 1.46624e-05
83 *4407:A *176:10 5.88505e-05
84 *4407:A *176:16 1.19402e-05
85 *4424:B *176:22 1.74903e-05
86 *4425:B *176:22 0.000181803
87 *4427:B *4431:A 0.000428846
88 *4427:B *176:48 0
89 *4428:B *4432:A 0.000102797
90 *4428:B *176:66 0
91 *4428:C *4428:A 0.000164384
92 *4429:B *176:66 0.000674019
93 *4429:C *176:58 1.97695e-05
94 *4430:B *176:36 0.000216786
95 *4430:B *176:48 6.64653e-05
96 *4431:C *4431:A 9.87617e-05
97 *4432:B *4432:A 2.72859e-05
98 *98:26 *4432:A 1.72894e-05
99 *98:26 *176:66 1.40306e-05
100 *99:75 *4432:A 0.000319082
101 *99:75 *176:66 4.18895e-05
102 *99:86 *4432:A 9.71532e-05
103 *100:10 *176:10 6.81083e-05
104 *100:12 *176:10 0.000108118
105 *100:12 *176:16 0.000782686
106 *102:31 *4372:A 5.52238e-05
107 *103:34 *4432:A 2.8266e-06
108 *120:48 *176:58 0.000350578
109 *120:72 *176:58 9.47613e-05
110 *129:14 *176:34 0.000108173
111 *174:14 *176:10 9.25014e-06
*RES
1 *4553:X *176:10 19.05 
2 *176:10 *176:16 16.3929 
3 *176:16 *176:22 37.5179 
4 *176:22 *176:34 20.875 
5 *176:34 *176:36 12.8571 
6 *176:36 *176:48 17.2321 
7 *176:48 *176:58 28.7589 
8 *176:58 *176:66 15.4732 
9 *176:66 *4432:A 24.4786 
10 *176:66 *4367:A 9.3 
11 *176:58 *176:90 5.38393 
12 *176:90 *4428:A 13.1214 
13 *176:90 *4429:A 9.3 
14 *176:48 *4427:A 9.3 
15 *176:36 *4431:A 29.9964 
16 *176:34 *4430:A 9.3 
17 *176:22 *4374:A 9.3 
18 *176:16 *4370:A 9.3 
19 *176:10 *4372:A 14.3357 
*END

*D_NET *177 0.0159474
*CONN
*I *4404:B2 I *D sky130_fd_sc_hd__a22o_2
*I *4375:A I *D sky130_fd_sc_hd__and3_2
*I *4423:A I *D sky130_fd_sc_hd__and3_2
*I *4422:A I *D sky130_fd_sc_hd__and3_2
*I *4425:A I *D sky130_fd_sc_hd__and3_2
*I *4424:A I *D sky130_fd_sc_hd__and3_2
*I *4426:A I *D sky130_fd_sc_hd__and3_2
*I *4554:X O *D sky130_fd_sc_hd__clkdlybuf4s25_1
*CAP
1 *4404:B2 8.93169e-05
2 *4375:A 0.000217476
3 *4423:A 6.10063e-05
4 *4422:A 0.000219153
5 *4425:A 8.29222e-05
6 *4424:A 0.000133504
7 *4426:A 0.000298001
8 *4554:X 3.40767e-05
9 *177:59 0.00108441
10 *177:53 0.00111482
11 *177:38 0.00146647
12 *177:16 0.000640328
13 *177:12 0.00244985
14 *177:6 0.00107397
15 *4375:A *5380:A 0.000100831
16 *4422:A *4398:S0 0
17 *4424:A *5359:B 2.72967e-05
18 *4425:A *5333:A 0
19 *4426:A *5007:A 5.52238e-05
20 *4426:A *5348:A 2.80853e-05
21 *4426:A *5350:A 9.57215e-05
22 *4426:A *5359:B 7.40303e-06
23 *177:12 *4366:A_N 3.57163e-05
24 *177:12 *4721:A 5.56943e-05
25 *177:12 *4815:A 0.000128154
26 *177:16 *5359:B 7.83366e-05
27 *177:38 *5328:A 5.32631e-05
28 *177:38 *5329:A 5.33783e-05
29 *177:38 *5330:A 5.33783e-05
30 *177:38 *5331:A 9.57215e-05
31 *177:38 *5332:A 0.000134772
32 *177:38 *5333:A 0.000208575
33 *177:38 *5353:A 3.82062e-05
34 *177:38 *5354:A 5.18181e-05
35 *177:38 *5355:A 5.17013e-05
36 *177:38 *5356:A 5.15647e-05
37 *177:38 *5357:A 4.9848e-05
38 *177:59 *4936:A 6.63281e-05
39 *177:59 *4937:A 8.11817e-05
40 *177:59 *4938:A 0.000175184
41 *177:59 *4939:A 0.00012095
42 *177:59 *194:63 0
43 *4374:B *177:16 6.62961e-05
44 *4396:A *177:6 1.92905e-05
45 *4396:A *177:12 3.14048e-05
46 *4403:A *177:38 0.000401527
47 *4403:A *177:53 4.43256e-05
48 *4404:A2 *4404:B2 0.000153054
49 *4414:C *4404:B2 0.000198698
50 *4414:C *177:12 3.34687e-05
51 *4422:C *4422:A 0.000184745
52 *4423:B *4422:A 9.92409e-05
53 *4423:C *4422:A 0
54 *4424:B *4424:A 4.37999e-05
55 *4424:B *177:16 1.78353e-05
56 *4424:C *4425:A 5.80706e-06
57 *4424:C *177:59 0.000141356
58 *4425:B *4375:A 0.000199793
59 *4425:B *177:59 0.000108538
60 *4426:B *4426:A 7.78042e-05
61 *4426:B *177:16 0
62 *100:88 *177:12 0.000295265
63 *101:78 *4404:B2 0
64 *101:78 *177:12 0
65 *103:74 *177:12 0.00105777
66 *103:78 *177:12 0.000882261
67 *103:78 *177:16 7.83659e-05
68 *115:85 *4375:A 1.08359e-05
69 *115:85 *4425:A 5.84171e-05
70 *115:85 *177:53 9.71197e-05
71 *115:85 *177:59 6.42242e-05
72 *115:124 *4422:A 0.000184745
73 *115:124 *4423:A 9.52453e-05
74 *129:14 *177:38 9.90431e-05
75 *130:12 *4404:B2 4.98872e-05
76 *130:12 *177:12 0
77 *175:54 *177:12 5.80563e-05
78 *175:63 *177:12 0.000225532
*RES
1 *4554:X *177:6 9.83571 
2 *177:6 *177:12 32.6964 
3 *177:12 *177:16 9.17857 
4 *177:16 *4426:A 14.7643 
5 *177:16 *4424:A 11.8893 
6 *177:12 *177:38 24.8929 
7 *177:38 *4425:A 19.9429 
8 *177:38 *177:53 6.26786 
9 *177:53 *177:59 19.7188 
10 *177:59 *4422:A 23.742 
11 *177:59 *4423:A 10.7598 
12 *177:53 *4375:A 18.7821 
13 *177:6 *4404:B2 21.4607 
*END

*D_NET *178 0.0286807
*CONN
*I *4389:S1 I *D sky130_fd_sc_hd__mux4_2
*I *4373:B I *D sky130_fd_sc_hd__and2b_2
*I *4394:S1 I *D sky130_fd_sc_hd__mux4_2
*I *4392:S1 I *D sky130_fd_sc_hd__mux4_2
*I *4365:B I *D sky130_fd_sc_hd__and2_2
*I *4400:S1 I *D sky130_fd_sc_hd__mux4_2
*I *4401:S1 I *D sky130_fd_sc_hd__mux4_2
*I *4390:S1 I *D sky130_fd_sc_hd__mux4_2
*I *4369:B I *D sky130_fd_sc_hd__nor2_2
*I *4371:A_N I *D sky130_fd_sc_hd__and2b_2
*I *4555:X O *D sky130_fd_sc_hd__clkdlybuf4s25_1
*CAP
1 *4389:S1 6.47017e-05
2 *4373:B 0
3 *4394:S1 0.000292019
4 *4392:S1 6.74894e-05
5 *4365:B 0.000159202
6 *4400:S1 0
7 *4401:S1 0.000355777
8 *4390:S1 0.000149129
9 *4369:B 0.00029414
10 *4371:A_N 0.000401572
11 *4555:X 0.000158858
12 *178:122 0.00075633
13 *178:83 0.00125548
14 *178:73 0.00156888
15 *178:65 0.00146664
16 *178:63 0.00113812
17 *178:48 0.00232217
18 *178:14 0.00118508
19 *178:12 0.00223013
20 *178:10 0.000369559
21 *4365:B *4365:A 0.000186188
22 *4369:B *4369:A 2.28598e-05
23 *4369:B *4623:A 6.9276e-05
24 *4371:A_N *5381:A 3.69047e-06
25 *4371:A_N *5383:A 0.000159524
26 *4371:A_N *5384:A 2.06583e-05
27 *4371:A_N *5385:A 2.3541e-05
28 *4371:A_N *5386:A 7.90536e-05
29 *4371:A_N *5415:A 0.000100823
30 *4371:A_N *194:63 0
31 *4390:S1 *4390:A3 0.00015304
32 *4390:S1 *4390:S0 0
33 *4390:S1 *4804:A 6.5185e-05
34 *4394:S1 *4394:S0 0.000565832
35 *4394:S1 *5486:A 0
36 *4394:S1 *5550:A 0
37 *4394:S1 *179:128 3.34366e-05
38 *4401:S1 *4401:S0 0.000297542
39 *4401:S1 *5076:A 0
40 *4401:S1 *179:99 1.99099e-05
41 *178:10 *194:53 5.33433e-05
42 *178:10 *194:63 0
43 *178:10 *196:20 0
44 *178:14 *5393:A 0
45 *178:14 *5396:A 6.74911e-05
46 *178:14 *5415:A 5.59013e-05
47 *178:14 *5418:A 0
48 *178:14 *5421:A 0
49 *178:14 *5422:A 0
50 *178:14 *194:63 0
51 *178:48 *4794:A 0.000126619
52 *178:48 *4805:A 0.000201658
53 *178:48 *4806:A 5.809e-05
54 *178:48 *4815:B 6.55493e-05
55 *178:48 *5313:A 3.49005e-05
56 *178:63 *4390:S0 0
57 *178:63 *179:79 0.00117808
58 *178:65 *4392:A0 5.44602e-05
59 *178:65 *5456:A 7.82904e-05
60 *178:65 *5469:A 1.37743e-05
61 *178:65 *179:79 0.000188586
62 *178:65 *179:91 0.000966032
63 *178:73 *5467:A 1.02504e-05
64 *178:73 *5473:A 5.80217e-05
65 *178:73 *5475:A 6.97972e-05
66 *178:73 *179:91 0
67 *178:83 *4400:A0 0.000155198
68 *178:83 *5139:A 2.00751e-05
69 *178:83 *5140:A 0.000177941
70 *178:122 *4392:A0 0.000200715
71 *178:122 *4392:A1 5.52238e-05
72 *178:122 *5467:A 0.000266658
73 *178:122 *5469:A 1.02821e-05
74 *4391:A2 *4389:S1 0.00014285
75 *4395:A2 *4394:S1 0
76 *4395:A2 *178:122 4.82048e-05
77 *4395:B2 *4394:S1 0
78 *4402:A1 *178:83 3.47737e-05
79 *4402:A2 *178:83 2.28598e-05
80 *4402:B1 *178:83 1.02504e-05
81 *4402:B2 *178:83 9.60939e-05
82 *4409:C *4371:A_N 5.33005e-05
83 *4415:C *4365:B 5.33005e-05
84 *4552:A *4369:B 0.000487467
85 *99:31 *4365:B 0.000173836
86 *99:31 *178:73 0
87 *99:37 *4365:B 5.49544e-05
88 *99:37 *178:83 0
89 *99:39 *178:83 0
90 *99:41 *178:83 0
91 *101:42 *4369:B 0.000520054
92 *101:78 *4390:S1 0.0004445
93 *101:78 *178:63 0.000388153
94 *102:81 *4365:B 1.39726e-05
95 *103:70 *178:63 6.4443e-05
96 *115:10 *178:12 0
97 *115:20 *178:48 0.00244626
98 *115:56 *4371:A_N 0.000349483
99 *115:56 *178:14 0
100 *115:75 *4371:A_N 3.17148e-05
101 *120:14 *178:63 0.00071434
102 *120:30 *178:73 0.000445713
103 *120:36 *4401:S1 0
104 *120:36 *178:73 3.13947e-05
105 *120:36 *178:83 0.000441489
106 *120:40 *4401:S1 0
107 *174:14 *4369:B 0.000139907
108 *174:22 *4369:B 0.000575092
109 *174:61 *4365:B 2.85547e-05
110 *174:61 *178:73 0.00019846
111 *174:71 *4365:B 3.34366e-05
112 *174:71 *178:83 0.000125693
113 *176:10 *4369:B 0.000307336
114 *176:48 *178:83 0
*RES
1 *4555:X *178:10 16.0857 
2 *178:10 *178:12 2.25 
3 *178:12 *178:14 8.625 
4 *178:14 *4371:A_N 22.925 
5 *178:14 *4369:B 25.8714 
6 *178:12 *178:48 39.6607 
7 *178:48 *4390:S1 19.3893 
8 *178:48 *178:63 22.3393 
9 *178:63 *178:65 12.4464 
10 *178:65 *178:73 17.0804 
11 *178:73 *178:83 25.9732 
12 *178:83 *4401:S1 26.0143 
13 *178:83 *4400:S1 9.3 
14 *178:73 *4365:B 18.8089 
15 *178:65 *178:122 8.94643 
16 *178:122 *4392:S1 10.2464 
17 *178:122 *4394:S1 26.0143 
18 *178:63 *4373:B 9.3 
19 *178:10 *4389:S1 15.1571 
*END

*D_NET *179 0.0273294
*CONN
*I *4373:A_N I *D sky130_fd_sc_hd__and2b_2
*I *4394:S0 I *D sky130_fd_sc_hd__mux4_2
*I *4392:S0 I *D sky130_fd_sc_hd__mux4_2
*I *4365:A I *D sky130_fd_sc_hd__and2_2
*I *4400:S0 I *D sky130_fd_sc_hd__mux4_2
*I *4401:S0 I *D sky130_fd_sc_hd__mux4_2
*I *4390:S0 I *D sky130_fd_sc_hd__mux4_2
*I *4369:A I *D sky130_fd_sc_hd__nor2_2
*I *4371:B I *D sky130_fd_sc_hd__and2b_2
*I *4389:S0 I *D sky130_fd_sc_hd__mux4_2
*I *4556:X O *D sky130_fd_sc_hd__clkdlybuf4s25_1
*CAP
1 *4373:A_N 0
2 *4394:S0 0.000268724
3 *4392:S0 0
4 *4365:A 0.000601332
5 *4400:S0 0
6 *4401:S0 0.000278528
7 *4390:S0 0.000330495
8 *4369:A 3.72381e-05
9 *4371:B 0.000372247
10 *4389:S0 0.00194908
11 *4556:X 0.000215391
12 *179:128 0.000456407
13 *179:99 0.000993159
14 *179:93 0.00189445
15 *179:91 0.00161294
16 *179:79 0.00125284
17 *179:66 0.00233797
18 *179:32 0.000851159
19 *179:12 0.00100473
20 *4365:A *5594:A 1.8855e-05
21 *4365:A *5605:A 0.000279736
22 *4365:A *5615:A 0.000106776
23 *4365:A *5615:B 2.87866e-05
24 *4369:A *4623:A 0.000136958
25 *4371:B *4397:S0 0.000337623
26 *4371:B *5387:A 7.78256e-05
27 *4371:B *5388:A 3.28686e-05
28 *4389:S0 *4368:B 7.77751e-05
29 *4389:S0 *4389:A0 3.24727e-05
30 *4389:S0 *196:20 2.77143e-05
31 *4390:S0 *4390:A3 4.57352e-05
32 *4390:S0 *4802:A 0
33 *4390:S0 *4804:A 6.74911e-05
34 *4394:S0 *5550:A 0
35 *4401:S0 *5073:A 0.00012401
36 *4401:S0 *5076:A 0
37 *179:12 *4368:B 0.000146474
38 *179:12 *4556:A 0.000178847
39 *179:32 *4389:A0 7.85195e-05
40 *179:32 *4397:S0 0.000116876
41 *179:32 *4623:A 0.000140933
42 *179:32 *4953:A 0.000167256
43 *179:66 *4805:A 8.30355e-06
44 *179:66 *4807:A 4.2621e-05
45 *179:66 *4808:A 3.47518e-05
46 *179:66 *4809:A 2.74849e-05
47 *179:66 *4810:A 3.79306e-05
48 *179:66 *5307:A 7.71303e-05
49 *179:66 *5422:A 0.000139913
50 *179:79 *4784:A 0.000134772
51 *179:79 *4785:A 0
52 *179:79 *4811:A 0.000195901
53 *179:79 *4812:A 0.000139534
54 *179:79 *4813:A 9.57215e-05
55 *179:91 *4392:A0 0.000190289
56 *179:91 *5470:A 5.94205e-05
57 *179:91 *5473:A 3.32012e-05
58 *179:91 *5484:A 3.3254e-05
59 *179:91 *5485:A 0.000103883
60 *179:91 *5614:A 0.000271352
61 *179:93 *5585:A 0
62 *179:93 *5588:A 3.34672e-05
63 *179:93 *5590:A 0
64 *179:93 *5592:A 0
65 *179:93 *5593:A 0
66 *179:93 *5596:A 0
67 *179:93 *5606:A 7.29667e-05
68 *179:93 *5607:A 0
69 *179:93 *5611:A 0
70 *179:99 *4400:A3 0.000103253
71 *179:99 *5143:A 0
72 *179:99 *5145:A 2.05517e-05
73 *179:99 *5147:A 0.00012401
74 *179:99 *5148:A 4.23122e-05
75 *179:99 *5150:A 0.000154762
76 *179:99 *5151:A 0
77 *179:99 *5600:A 0
78 *179:99 *5606:A 7.83659e-05
79 *179:99 *786:12 0
80 *179:128 *4392:A1 0
81 *179:128 *4392:A3 0
82 *179:128 *5588:A 1.65558e-05
83 *4365:B *4365:A 0.000186188
84 *4369:B *4369:A 2.28598e-05
85 *4390:S1 *4390:S0 0
86 *4391:A2 *4389:S0 0.000147465
87 *4391:A2 *179:66 0.00212347
88 *4391:B2 *179:66 1.30365e-05
89 *4394:S1 *4394:S0 0.000565832
90 *4394:S1 *179:128 3.34366e-05
91 *4401:S1 *4401:S0 0.000297542
92 *4401:S1 *179:99 1.99099e-05
93 *4423:B *4371:B 5.7616e-05
94 *4553:A *179:12 0.000196262
95 *99:31 *179:91 3.23712e-05
96 *100:10 *4371:B 0
97 *100:10 *179:32 0.000701342
98 *100:12 *4371:B 0
99 *101:12 *4371:B 5.4115e-05
100 *101:42 *4369:A 8.17274e-05
101 *101:42 *179:32 0.00014285
102 *102:8 *4371:B 5.11663e-06
103 *102:29 *4371:B 3.4984e-05
104 *102:81 *4365:A 0.000268191
105 *103:18 *179:91 0.000662296
106 *103:24 *179:91 1.21289e-05
107 *103:70 *179:79 0.000386072
108 *114:10 *179:12 0
109 *178:63 *4390:S0 0
110 *178:63 *179:79 0.00117808
111 *178:65 *179:79 0.000188586
112 *178:65 *179:91 0.000966032
113 *178:73 *179:91 0
*RES
1 *4556:X *179:12 22.6214 
2 *179:12 *4389:S0 5.4375 
3 *179:12 *179:32 21.0536 
4 *179:32 *4371:B 26.4786 
5 *179:32 *4369:A 10.6571 
6 *4389:S0 *179:66 33.4732 
7 *179:66 *4390:S0 11 
8 *179:66 *179:79 20.8214 
9 *179:79 *179:91 34.9821 
10 *179:91 *179:93 10.1429 
11 *179:93 *179:99 14.75 
12 *179:99 *4401:S0 11.6071 
13 *179:99 *4400:S0 4.5 
14 *179:93 *4365:A 25.175 
15 *179:91 *179:128 3.16071 
16 *179:128 *4392:S0 4.5 
17 *179:128 *4394:S0 11.6071 
18 *179:79 *4373:A_N 9.3 
*END

*D_NET *180 0.0130862
*CONN
*I *4526:RESET_B I *D sky130_fd_sc_hd__dfrtp_2
*I *4527:RESET_B I *D sky130_fd_sc_hd__dfrtp_2
*I *4405:A I *D sky130_fd_sc_hd__and2_2
*I *4519:RESET_B I *D sky130_fd_sc_hd__dfrtp_2
*I *4534:RESET_B I *D sky130_fd_sc_hd__dfrtp_2
*I *4525:RESET_B I *D sky130_fd_sc_hd__dfrtp_2
*I *4535:RESET_B I *D sky130_fd_sc_hd__dfrtp_2
*I *4536:RESET_B I *D sky130_fd_sc_hd__dfrtp_2
*I *4537:RESET_B I *D sky130_fd_sc_hd__dfrtp_2
*I *4528:RESET_B I *D sky130_fd_sc_hd__dfrtp_2
*I *4557:X O *D sky130_fd_sc_hd__clkdlybuf4s25_1
*CAP
1 *4526:RESET_B 0
2 *4527:RESET_B 0.000358981
3 *4405:A 0.000214586
4 *4519:RESET_B 0.000484943
5 *4534:RESET_B 0.000311292
6 *4525:RESET_B 0.000544198
7 *4535:RESET_B 0.00089534
8 *4536:RESET_B 0.000593983
9 *4537:RESET_B 0
10 *4528:RESET_B 0.00056926
11 *4557:X 7.03212e-05
12 *180:121 0.000628654
13 *180:78 0.000999271
14 *180:45 0.000752242
15 *180:10 0.000629845
16 *180:8 0.000724889
17 *4519:RESET_B *4378:A 0.00012096
18 *4519:RESET_B *4378:B 6.20948e-05
19 *4519:RESET_B *201:10 0
20 *4519:RESET_B *201:25 0
21 *4519:RESET_B *1282:36 3.34295e-05
22 *4519:RESET_B *1289:10 7.48091e-05
23 *4525:RESET_B *4442:A1 6.97972e-05
24 *4527:RESET_B *4445:B 0
25 *4528:RESET_B *4387:A 0.000115082
26 *4528:RESET_B *191:10 0
27 *4534:RESET_B *1289:10 1.4782e-05
28 *4535:RESET_B *4442:A1 0.000120645
29 *4535:RESET_B *4475:A 5.33005e-05
30 *4535:RESET_B *4475:C 0
31 *4535:RESET_B *1276:10 0.000263656
32 *4535:RESET_B *1276:23 5.52302e-05
33 *4535:RESET_B *1290:8 3.77486e-05
34 *4535:RESET_B *1290:41 0.00014285
35 *4536:RESET_B *4483:A1 8.94873e-05
36 *4536:RESET_B *1276:10 3.35381e-05
37 *180:78 *1289:10 0
38 *180:78 *1289:19 0
39 *180:121 *4444:S 0
40 *4385:A *4528:RESET_B 0.000189173
41 *4386:A *4519:RESET_B 0
42 *4443:A *4528:RESET_B 0
43 *4446:A1 *4519:RESET_B 0.000122436
44 *4449:A *4528:RESET_B 0.000411611
45 *4449:B *4519:RESET_B 0
46 *4469:B1 *180:78 0
47 *4476:C *4535:RESET_B 7.6644e-05
48 *4481:B1 *4528:RESET_B 0.000150625
49 *4481:C1 *4528:RESET_B 6.09762e-05
50 *4482:B1 *4528:RESET_B 0.000126568
51 *4482:B1 *4536:RESET_B 2.81861e-05
52 *4482:B1 *180:10 9.56872e-05
53 *4483:B1 *4536:RESET_B 4.70078e-05
54 *4487:A *4536:RESET_B 5.33005e-05
55 *4487:B *180:8 9.71197e-05
56 *4487:C *4536:RESET_B 5.52238e-05
57 *4525:CLK *4405:A 3.80277e-05
58 *4525:D *4405:A 0.000123603
59 *4526:D *180:121 0
60 *4527:D *4527:RESET_B 0
61 *4527:D *180:121 0
62 *4528:CLK *4527:RESET_B 0.000163757
63 *4536:D *4535:RESET_B 0
64 *4537:CLK *4525:RESET_B 0
65 *4537:D *4528:RESET_B 0.000316887
66 *4537:D *180:10 4.80729e-05
67 *4538:D *4525:RESET_B 0
68 *4543:A *4525:RESET_B 0.000105689
69 *4554:A *4527:RESET_B 0.000521555
70 *4560:A *4525:RESET_B 0.000128161
71 *104:43 *4528:RESET_B 0.000509425
72 *105:35 *4536:RESET_B 1.52978e-05
73 *105:45 *4536:RESET_B 4.31475e-05
74 *105:45 *180:10 4.29272e-05
75 *112:14 *4528:RESET_B 1.27784e-05
76 *134:27 *4528:RESET_B 7.83587e-05
77 *156:45 *4528:RESET_B 1.50225e-05
78 *166:95 *4525:RESET_B 0
79 *167:10 *180:78 4.25809e-05
80 *167:10 *180:121 0
81 *167:14 *180:121 0
82 *167:18 *4527:RESET_B 9.46915e-05
83 *167:28 *4527:RESET_B 0.000142856
84 *168:53 *4525:RESET_B 6.3622e-05
*RES
1 *4557:X *180:8 14.7464 
2 *180:8 *180:10 2.25 
3 *180:10 *4528:RESET_B 20.7143 
4 *180:10 *4537:RESET_B 4.5 
5 *180:8 *4536:RESET_B 13.5804 
6 *4536:RESET_B *180:45 4.5 
7 *180:45 *4535:RESET_B 13.5982 
8 *180:45 *4525:RESET_B 11.4911 
9 *4535:RESET_B *180:78 16.7143 
10 *180:78 *4534:RESET_B 0.901786 
11 *180:78 *4519:RESET_B 18.6071 
12 *4525:RESET_B *4405:A 13.4875 
13 *4534:RESET_B *180:121 9.48214 
14 *180:121 *4527:RESET_B 15.4911 
15 *180:121 *4526:RESET_B 4.5 
*END

*D_NET *181 0.0125627
*CONN
*I *4529:RESET_B I *D sky130_fd_sc_hd__dfrtp_2
*I *4538:RESET_B I *D sky130_fd_sc_hd__dfrtp_2
*I *4557:A I *D sky130_fd_sc_hd__clkdlybuf4s25_1
*I *4541:RESET_B I *D sky130_fd_sc_hd__dfrtp_2
*I *4533:RESET_B I *D sky130_fd_sc_hd__dfrtp_2
*I *4532:RESET_B I *D sky130_fd_sc_hd__dfrtp_2
*I *4530:RESET_B I *D sky130_fd_sc_hd__dfrtp_2
*I *4531:RESET_B I *D sky130_fd_sc_hd__dfrtp_2
*I *4539:RESET_B I *D sky130_fd_sc_hd__dfrtp_2
*I *4540:RESET_B I *D sky130_fd_sc_hd__dfrtp_2
*I *4558:X O *D sky130_fd_sc_hd__clkdlybuf4s25_1
*CAP
1 *4529:RESET_B 0.000681085
2 *4538:RESET_B 5.534e-05
3 *4557:A 0.000289173
4 *4541:RESET_B 0
5 *4533:RESET_B 0
6 *4532:RESET_B 2.42199e-05
7 *4530:RESET_B 1.9043e-05
8 *4531:RESET_B 0.000995501
9 *4539:RESET_B 0.000350916
10 *4540:RESET_B 0.00155274
11 *4558:X 0.0014333
12 *181:101 0.000629552
13 *181:53 0.000535899
14 *181:51 0.000495474
15 *181:47 0.000398282
16 *181:41 0.000314777
17 *4529:RESET_B *1286:10 0.000226658
18 *4531:RESET_B *4567:A 0
19 *4531:RESET_B *1286:10 9.23695e-05
20 *4532:RESET_B *1287:6 1.66373e-05
21 *4539:RESET_B *1279:10 7.6997e-05
22 *4540:RESET_B *183:16 0.000523275
23 *4540:RESET_B *199:10 0
24 *4540:RESET_B *1280:10 4.44285e-05
25 *4557:A *4483:A1 2.14756e-05
26 *181:41 *4491:A1 0.000224592
27 *181:41 *4492:A1 7.83659e-05
28 *181:41 *1281:10 0
29 *181:51 *4562:A 0.000129868
30 *181:101 *4483:A1 4.8936e-05
31 *181:101 *4564:A 0.000270302
32 *181:101 *1279:10 4.94936e-05
33 *4457:A *4532:RESET_B 6.05161e-06
34 *4457:A *181:51 0.000101545
35 *4457:B *4530:RESET_B 4.96155e-05
36 *4457:B *4531:RESET_B 2.94103e-05
37 *4457:B *181:51 2.41224e-05
38 *4457:B *181:53 0.000193156
39 *4467:A *181:51 0
40 *4480:B *4539:RESET_B 0
41 *4480:B *181:101 0.000227708
42 *4482:A2 *4538:RESET_B 2.02678e-05
43 *4482:B1 *4538:RESET_B 6.05161e-06
44 *4482:B1 *4557:A 0.000360094
45 *4483:B1 *4557:A 0.000255395
46 *4486:A_N *181:101 0.000531032
47 *4487:B *4557:A 6.12335e-05
48 *4487:C *4557:A 0.000263524
49 *4529:CLK *4529:RESET_B 5.71472e-05
50 *4530:CLK *4530:RESET_B 9.23695e-05
51 *4530:CLK *181:53 0
52 *4539:D *4539:RESET_B 7.6612e-06
53 *4540:CLK *4540:RESET_B 0.000219818
54 *4569:A *4540:RESET_B 2.06112e-05
55 *4573:A *4557:A 0
56 *105:35 *4540:RESET_B 0.000273443
57 *164:23 *4540:RESET_B 2.70899e-05
58 *165:22 *181:41 3.55407e-05
59 *165:22 *181:47 7.22794e-05
60 *169:40 *4529:RESET_B 4.88637e-05
*RES
1 *4558:X *4540:RESET_B 36.5768 
2 *4558:X *4539:RESET_B 19.6393 
3 *4540:RESET_B *181:41 9.17857 
4 *181:41 *181:47 2.91071 
5 *181:47 *181:51 5.51786 
6 *181:51 *181:53 4.67857 
7 *181:53 *4531:RESET_B 10.3661 
8 *181:53 *4530:RESET_B 5.38393 
9 *181:51 *4532:RESET_B 4.97321 
10 *181:47 *4533:RESET_B 4.5 
11 *181:41 *4541:RESET_B 4.5 
12 *4539:RESET_B *181:101 13.8125 
13 *181:101 *4557:A 22.3357 
14 *181:101 *4538:RESET_B 5.38393 
15 *4531:RESET_B *4529:RESET_B 13.5893 
*END

*D_NET *182 0.00468182
*CONN
*I *4542:D I *D sky130_fd_sc_hd__dfrtp_2
*I *4377:B I *D sky130_fd_sc_hd__nand2b_2
*I *4376:B I *D sky130_fd_sc_hd__and2b_2
*I *4570:X O *D sky130_fd_sc_hd__clkdlybuf4s25_1
*CAP
1 *4542:D 0.000197442
2 *4377:B 4.23735e-05
3 *4376:B 0.000244113
4 *4570:X 0.000705022
5 *182:16 0.000794066
6 *4376:B *4376:A_N 0.000132316
7 *4377:B *4377:A_N 9.70039e-05
8 *182:16 *4382:C 0.000742522
9 *4456:B1 *4376:B 0.000282842
10 *4456:B1 *182:16 7.90803e-05
11 *4491:A2 *4542:D 0.000188586
12 *4541:CLK *182:16 0.000230482
13 *4541:D *4377:B 9.66977e-05
14 *105:35 *182:16 0.000114759
15 *165:22 *182:16 0.000192204
16 *166:65 *4376:B 0.000142245
17 *166:65 *182:16 9.88232e-05
18 *170:26 *182:16 0.000175512
19 *170:39 *4542:D 0
20 *170:39 *182:16 0.000125731
*RES
1 *4570:X *182:16 37.1393 
2 *182:16 *4376:B 19.3536 
3 *182:16 *4377:B 15.175 
4 *4570:X *4542:D 30.7071 
*END

*D_NET *183 0.00704548
*CONN
*I *4364:A I *D sky130_fd_sc_hd__and2_2
*I *4387:A I *D sky130_fd_sc_hd__nor2_2
*I *4571:X O *D sky130_fd_sc_hd__clkdlybuf4s25_1
*CAP
1 *4364:A 0
2 *4387:A 0.000204488
3 *4571:X 0.00118985
4 *183:20 0.00032649
5 *183:16 0.00131185
6 *4387:A *4384:B1 0.000313241
7 *183:16 *4380:B 0
8 *183:16 *4477:C 0.000121573
9 *183:16 *4566:A 0.000312036
10 *183:16 *191:10 8.76717e-05
11 *183:16 *194:26 0.000141036
12 *183:16 *1277:8 0.000320024
13 *183:16 *1278:23 0.00019776
14 *183:20 *4364:B 1.97695e-05
15 *4443:A *4387:A 0
16 *4443:B *4387:A 2.89114e-05
17 *4478:B *183:16 0
18 *4482:A2 *183:16 5.52302e-05
19 *4483:B1 *183:16 4.05258e-05
20 *4486:A_N *183:16 0
21 *4487:B *183:16 7.79781e-06
22 *4528:RESET_B *4387:A 0.000115082
23 *4540:RESET_B *183:16 0.000523275
24 *4558:A *183:16 3.57405e-05
25 *4574:A *183:16 9.26125e-05
26 *107:12 *183:16 0.000243635
27 *110:12 *183:16 0.000340824
28 *112:14 *4387:A 0.000150618
29 *112:84 *4387:A 9.31893e-05
30 *134:27 *183:20 0.000437756
31 *157:21 *183:16 0
32 *164:23 *183:16 8.75368e-05
33 *166:46 *4387:A 2.89114e-05
34 *166:46 *183:20 0.000218038
*RES
1 *4571:X *183:16 47.3 
2 *183:16 *183:20 4.66071 
3 *183:20 *4387:A 24.6929 
4 *183:20 *4364:A 9.3 
*END

*D_NET *184 0.00149322
*CONN
*I *4442:A1 I *D sky130_fd_sc_hd__o21a_2
*I *4560:X O *D sky130_fd_sc_hd__dlygate4sd3_1
*CAP
1 *4442:A1 0.000242791
2 *4560:X 0.000242791
3 *4442:A2 *4442:A1 0.000227526
4 *4525:RESET_B *4442:A1 6.97972e-05
5 *4535:RESET_B *4442:A1 0.000120645
6 *105:57 *4442:A1 0.000139907
7 *105:59 *4442:A1 0.00026839
8 *166:95 *4442:A1 0.000181378
*RES
1 *4560:X *4442:A1 35.7964 
*END

*D_NET *185 0.00371024
*CONN
*I *4491:A1 I *D sky130_fd_sc_hd__a21oi_2
*I *4492:A1 I *D sky130_fd_sc_hd__o21a_2
*I *4561:X O *D sky130_fd_sc_hd__dlygate4sd3_1
*CAP
1 *4491:A1 0.000246165
2 *4492:A1 0.00101481
3 *4561:X 0
4 *185:6 0.00126098
5 *4492:A1 *4377:A_N 9.59954e-05
6 *4479:A *4492:A1 1.3701e-05
7 *4491:A2 *4491:A1 9.90431e-05
8 *4492:A2 *4492:A1 7.43578e-06
9 *4492:B1 *4492:A1 5.52238e-05
10 *4541:D *4492:A1 3.3533e-05
11 *105:8 *4492:A1 9.58126e-05
12 *165:22 *4491:A1 0.000406212
13 *165:22 *4492:A1 7.83659e-05
14 *170:39 *4491:A1 0
15 *181:41 *4491:A1 0.000224592
16 *181:41 *4492:A1 7.83659e-05
*RES
1 *4561:X *185:6 13.8 
2 *185:6 *4492:A1 27.2107 
3 *185:6 *4491:A1 20.6393 
*END

*D_NET *186 0.000886386
*CONN
*I *4468:A1 I *D sky130_fd_sc_hd__o21a_2
*I *4562:X O *D sky130_fd_sc_hd__dlygate4sd3_1
*CAP
1 *4468:A1 0.000239407
2 *4562:X 0.000239407
3 *4468:A1 *4376:A_N 1.33343e-05
4 *4468:A1 *1288:26 0.000175701
5 *4468:B1 *4468:A1 0.000186669
6 *4533:D *4468:A1 3.18676e-05
*RES
1 *4562:X *4468:A1 24.0821 
*END

*D_NET *187 0.00076022
*CONN
*I *4450:A1 I *D sky130_fd_sc_hd__a22o_2
*I *4563:X O *D sky130_fd_sc_hd__dlygate4sd3_1
*CAP
1 *4450:A1 0.000243766
2 *4563:X 0.000243766
3 *112:29 *4450:A1 4.70724e-05
4 *113:6 *4450:A1 0.000145622
5 *113:12 *4450:A1 7.9994e-05
*RES
1 *4563:X *4450:A1 22.8321 
*END

*D_NET *188 0.00147368
*CONN
*I *4483:A1 I *D sky130_fd_sc_hd__o21a_2
*I *4564:X O *D sky130_fd_sc_hd__dlygate4sd3_1
*CAP
1 *4483:A1 0.000321809
2 *4564:X 0.000321809
3 *4480:A *4483:A1 0
4 *4482:A2 *4483:A1 9.87983e-06
5 *4482:B1 *4483:A1 0.000132549
6 *4483:B1 *4483:A1 0.000219711
7 *4487:A *4483:A1 5.33005e-05
8 *4487:C *4483:A1 9.60875e-05
9 *4536:RESET_B *4483:A1 8.94873e-05
10 *4557:A *4483:A1 2.14756e-05
11 *4575:A *4483:A1 9.26125e-05
12 *105:35 *4483:A1 6.60209e-05
13 *181:101 *4483:A1 4.8936e-05
*RES
1 *4564:X *4483:A1 36.2786 
*END

*D_NET *189 0.00116609
*CONN
*I *4470:A1 I *D sky130_fd_sc_hd__a21oi_2
*I *4565:X O *D sky130_fd_sc_hd__dlygate4sd3_1
*CAP
1 *4470:A1 0.000244593
2 *4565:X 0.000244593
3 *4470:A1 *1289:25 0.000137983
4 *4469:A2 *4470:A1 8.57023e-05
5 *4469:B1 *4470:A1 0.00012401
6 *4470:A2 *4470:A1 0.000144773
7 *4470:B1 *4470:A1 5.71472e-05
8 *4534:D *4470:A1 5.33433e-05
9 *148:38 *4470:A1 2.28598e-05
10 *148:46 *4470:A1 5.10822e-05
*RES
1 *4565:X *4470:A1 33.1893 
*END

*D_NET *190 0.00198994
*CONN
*I *4347:A I *D sky130_fd_sc_hd__inv_2
*I *4566:X O *D sky130_fd_sc_hd__dlygate4sd3_1
*CAP
1 *4347:A 0.000556347
2 *4566:X 0.000556347
3 *4480:A *4347:A 0.000121122
4 *4481:A1 *4347:A 0.000224577
5 *4482:A2 *4347:A 0.000159689
6 *4537:D *4347:A 7.02611e-05
7 *105:35 *4347:A 2.26761e-05
8 *105:57 *4347:A 3.99614e-06
9 *112:124 *4347:A 7.622e-05
10 *156:45 *4347:A 0.000198705
*RES
1 *4566:X *4347:A 38.7071 
*END

*D_NET *191 0.0146692
*CONN
*I *4398:S0 I *D sky130_fd_sc_hd__mux4_2
*I *4397:S0 I *D sky130_fd_sc_hd__mux4_2
*I *4556:A I *D sky130_fd_sc_hd__clkdlybuf4s25_1
*I *4572:X O *D sky130_fd_sc_hd__clkdlybuf4s25_1
*CAP
1 *4398:S0 0.00126792
2 *4397:S0 0.00232405
3 *4556:A 0.000312362
4 *4572:X 0.00155682
5 *191:14 0.00143664
6 *191:10 0.00162498
7 *4397:S0 *4397:S1 0
8 *4397:S0 *4950:A 3.5707e-05
9 *4397:S0 *4951:A 6.19181e-05
10 *4397:S0 *4953:A 0.000320738
11 *4397:S0 *4958:A 6.97972e-05
12 *4397:S0 *4961:A 0
13 *4397:S0 *5295:A 0
14 *4397:S0 *5362:A 0.000129868
15 *4397:S0 *5363:A 0.000354665
16 *4397:S0 *5364:A 5.53716e-06
17 *4398:S0 *4398:A0 0.000266027
18 *4398:S0 *4863:A 2.3541e-05
19 *4398:S0 *4864:A 0.000102145
20 *4398:S0 *4865:A 9.57215e-05
21 *4398:S0 *4866:A 3.52408e-05
22 *4398:S0 *4869:A 0
23 *4398:S0 *4870:A 0.000151333
24 *4398:S0 *4872:A 0
25 *4398:S0 *4879:A 4.57352e-05
26 *4398:S0 *5366:A 2.79827e-05
27 *4398:S0 *5367:A 1.89596e-05
28 *4556:A *4950:A 2.3541e-05
29 *4556:A *4951:A 0.000120501
30 *4556:A *194:53 0.000502112
31 *191:10 *4397:S1 0
32 *191:10 *4452:A 5.63007e-05
33 *191:10 *4452:B 0
34 *191:10 *4458:A 0
35 *191:10 *4477:C 0.00012501
36 *191:10 *4485:A 9.71197e-05
37 *191:10 *4485:B 0.000161881
38 *191:10 *4566:A 0.000277599
39 *191:10 *194:26 0
40 *191:10 *1277:8 0.000311488
41 *191:10 *1283:12 6.97972e-05
42 *191:10 *1283:37 6.41079e-05
43 *191:14 *4951:A 8.46829e-05
44 *191:14 *194:53 6.81335e-05
45 *4370:B *4398:S0 5.21933e-05
46 *4371:B *4397:S0 0.000337623
47 *4384:A2 *191:10 0
48 *4385:A *191:10 0
49 *4399:A2 *4398:S0 0.000179764
50 *4422:A *4398:S0 0
51 *4423:B *4398:S0 0
52 *4441:B *191:10 2.86974e-05
53 *4449:A *191:10 0
54 *4482:B1 *191:10 0
55 *4483:B1 *191:10 0.000170654
56 *4489:B *191:10 5.33005e-05
57 *4489:C *191:10 1.21258e-05
58 *4528:RESET_B *191:10 0
59 *4553:A *191:10 0
60 *97:12 *191:10 0
61 *100:10 *4397:S0 0
62 *100:10 *4556:A 9.71197e-05
63 *101:10 *4397:S0 6.91157e-05
64 *101:12 *4397:S0 0.000465017
65 *104:43 *191:10 0
66 *105:35 *191:10 8.60655e-05
67 *107:12 *191:10 0.000335208
68 *115:124 *4398:S0 0
69 *176:16 *4398:S0 0.000168939
70 *179:12 *4556:A 0.000178847
71 *179:32 *4397:S0 0.000116876
72 *183:16 *191:10 8.76717e-05
*RES
1 *4572:X *191:10 45.7286 
2 *191:10 *191:14 6.26786 
3 *191:14 *4556:A 17.2464 
4 *191:14 *4397:S0 43.9464 
5 *4397:S0 *4398:S0 33.6964 
*END

*D_NET *192 0.00128539
*CONN
*I *4456:A1 I *D sky130_fd_sc_hd__o21ai_2
*I *4567:X O *D sky130_fd_sc_hd__dlygate4sd3_1
*CAP
1 *4456:A1 0.000614527
2 *4567:X 0.000614527
3 *4529:D *4456:A1 4.57445e-05
4 *4531:D *4456:A1 1.05947e-05
5 *138:19 *4456:A1 0
*RES
1 *4567:X *4456:A1 35.1179 
*END

*D_NET *193 0.000571123
*CONN
*I *4446:B2 I *D sky130_fd_sc_hd__a32o_2
*I *4568:X O *D sky130_fd_sc_hd__dlygate4sd3_1
*CAP
1 *4446:B2 0.000123322
2 *4568:X 0.000123322
3 *4446:B2 *4445:B 5.52238e-05
4 *4446:B2 *1275:43 3.73163e-05
5 *4446:A2 *4446:B2 5.33005e-05
6 *4446:A3 *4446:B2 5.33005e-05
7 *113:12 *4446:B2 7.01082e-05
8 *132:12 *4446:B2 5.52302e-05
*RES
1 *4568:X *4446:B2 21.6 
*END

*D_NET *194 0.0165428
*CONN
*I *4555:A I *D sky130_fd_sc_hd__clkdlybuf4s25_1
*I *4398:S1 I *D sky130_fd_sc_hd__mux4_2
*I *4397:S1 I *D sky130_fd_sc_hd__mux4_2
*I *4573:X O *D sky130_fd_sc_hd__clkdlybuf4s25_1
*CAP
1 *4555:A 0
2 *4398:S1 0
3 *4397:S1 0.00132767
4 *4573:X 0.00216027
5 *194:63 0.00202214
6 *194:53 0.00274808
7 *194:26 0.00421388
8 *4397:S1 *4946:A 0
9 *4397:S1 *4951:A 0
10 *4397:S1 *4958:A 0
11 *4397:S1 *4961:A 5.33786e-05
12 *4397:S1 *4963:A 0.000127446
13 *4397:S1 *4964:A 0
14 *4397:S1 *4966:A 6.26466e-05
15 *4397:S1 *4975:B 0
16 *4397:S1 *5273:A 0
17 *4397:S1 *5280:A 0.000128154
18 *4397:S1 *5281:A 7.80929e-05
19 *4397:S1 *5282:A 2.50556e-05
20 *4397:S1 *5295:A 0.000101545
21 *4397:S1 *5295:B 0
22 *4397:S1 *5362:A 0
23 *194:26 *195:22 0.00061952
24 *194:26 *1278:23 2.06178e-05
25 *194:53 *4445:A 0.000276211
26 *194:53 *4950:A 1.14548e-05
27 *194:53 *195:50 7.76433e-05
28 *194:53 *196:48 0.000261581
29 *194:63 *4398:A1 0
30 *194:63 *4398:A2 0
31 *194:63 *4398:A3 2.8266e-06
32 *194:63 *4445:A 0.000128379
33 *194:63 *4913:A 0
34 *194:63 *4915:A 8.16036e-05
35 *194:63 *4936:A 0
36 *194:63 *4942:A 0
37 *194:63 *5370:A 0
38 *194:63 *5381:A 0
39 *194:63 *5403:A 0.00012401
40 *194:63 *5408:A 0
41 *194:63 *5409:A 0
42 *194:63 *5411:A 4.78056e-05
43 *194:63 *5414:A 3.90513e-05
44 *194:63 *5422:A 7.36559e-05
45 *194:63 *196:48 4.59075e-05
46 *194:63 *951:12 0
47 *4371:A_N *194:63 0
48 *4397:S0 *4397:S1 0
49 *4399:A2 *4397:S1 3.18676e-05
50 *4399:B1 *194:63 0
51 *4409:C *194:63 7.83659e-05
52 *4425:B *194:63 0.000292789
53 *4556:A *194:53 0.000502112
54 *4572:A *194:26 0.000145422
55 *98:77 *194:63 1.00375e-05
56 *98:83 *194:63 3.41692e-05
57 *100:35 *194:63 0
58 *100:56 *194:63 0.000248486
59 *101:12 *4397:S1 0
60 *175:10 *194:63 7.83659e-05
61 *177:59 *194:63 0
62 *178:10 *194:53 5.33433e-05
63 *178:10 *194:63 0
64 *178:14 *194:63 0
65 *183:16 *194:26 0.000141036
66 *191:10 *4397:S1 0
67 *191:10 *194:26 0
68 *191:14 *194:53 6.81335e-05
*RES
1 *4573:X *194:26 34.4514 
2 *194:26 *4397:S1 39.3536 
3 *194:26 *194:53 21.7857 
4 *194:53 *194:63 47.5536 
5 *194:63 *4398:S1 9.3 
6 *194:53 *4555:A 9.3 
*END

*D_NET *195 0.0137171
*CONN
*I *4366:A_N I *D sky130_fd_sc_hd__and2b_2
*I *4393:B I *D sky130_fd_sc_hd__and2b_2
*I *4368:A I *D sky130_fd_sc_hd__and2_2
*I *4388:A I *D sky130_fd_sc_hd__nor2_2
*I *4574:X O *D sky130_fd_sc_hd__clkdlybuf4s25_1
*CAP
1 *4366:A_N 7.18562e-05
2 *4393:B 7.71473e-05
3 *4368:A 0
4 *4388:A 8.03978e-05
5 *4574:X 0.00220347
6 *195:50 0.00194634
7 *195:24 9.54005e-05
8 *195:22 0.0040158
9 *4366:A_N *4366:B 6.51946e-05
10 *4388:A *4368:B 0.000169939
11 *4393:B *4366:B 9.90431e-05
12 *4393:B *196:48 1.33343e-05
13 *195:22 *4484:A1 1.94879e-05
14 *195:22 *4484:B1 0
15 *195:22 *1278:25 0.000289208
16 *195:22 *1279:12 0
17 *195:24 *4368:B 1.02504e-05
18 *195:50 *196:48 0.00328667
19 *4408:B *195:50 0.000312215
20 *4414:C *4366:A_N 0
21 *4553:A *195:24 1.07593e-05
22 *4553:A *195:50 1.08601e-05
23 *4572:A *195:22 0
24 *3:14 *195:22 1.0446e-05
25 *101:78 *4366:A_N 9.11365e-06
26 *103:70 *4393:B 1.39841e-05
27 *112:132 *195:22 5.3943e-05
28 *114:10 *4388:A 8.03134e-05
29 *114:10 *195:24 2.0203e-05
30 *114:10 *195:50 1.88482e-05
31 *148:18 *195:22 0
32 *177:12 *4366:A_N 3.57163e-05
33 *194:26 *195:22 0.00061952
34 *194:53 *195:50 7.76433e-05
*RES
1 *4574:X *195:22 36.5672 
2 *195:22 *195:24 0.580357 
3 *195:24 *4388:A 16.05 
4 *195:24 *4368:A 13.8 
5 *195:22 *195:50 39.4375 
6 *195:50 *4393:B 10.6571 
7 *195:50 *4366:A_N 20.2464 
*END

*D_NET *196 0.0133134
*CONN
*I *4393:A_N I *D sky130_fd_sc_hd__and2b_2
*I *4366:B I *D sky130_fd_sc_hd__and2b_2
*I *4388:B I *D sky130_fd_sc_hd__nor2_2
*I *4368:B I *D sky130_fd_sc_hd__and2_2
*I *4575:X O *D sky130_fd_sc_hd__clkdlybuf4s25_1
*CAP
1 *4393:A_N 2.23854e-05
2 *4366:B 0.000117274
3 *4388:B 0
4 *4368:B 0.000133235
5 *4575:X 0.000966032
6 *196:48 0.000962129
7 *196:20 0.000349841
8 *196:10 0.00200511
9 *4368:B *4389:A0 6.87574e-05
10 *196:10 *4445:A 0
11 *196:10 *201:10 0
12 *196:10 *201:25 0
13 *196:10 *1282:23 0
14 *196:20 *4389:A0 9.71197e-05
15 *196:48 *4445:A 0.000378629
16 *196:48 *5298:A 2.99061e-05
17 *196:48 *5299:A 9.52792e-05
18 *196:48 *5300:A 9.57215e-05
19 *196:48 *5301:A 9.57215e-05
20 *196:48 *5318:A 9.72992e-05
21 *196:48 *5327:A 0.000188586
22 *196:48 *951:12 8.03022e-05
23 *4366:A_N *4366:B 6.51946e-05
24 *4388:A *4368:B 0.000169939
25 *4389:S0 *4368:B 7.77751e-05
26 *4389:S0 *196:20 2.77143e-05
27 *4391:A2 *4368:B 0
28 *4393:B *4366:B 9.90431e-05
29 *4393:B *196:48 1.33343e-05
30 *4396:B *4366:B 2.59355e-05
31 *4408:A *196:48 0.000181762
32 *4441:A *196:10 2.72101e-05
33 *4443:A *196:10 4.21584e-05
34 *4443:B *196:10 0.000268536
35 *4449:B *196:10 3.97356e-05
36 *4475:D *196:10 0.000119372
37 *4480:A *196:10 0.000344678
38 *4537:CLK *196:10 0.00014535
39 *4538:D *196:10 8.00806e-05
40 *4553:A *4368:B 2.39876e-05
41 *4560:A *196:10 3.69047e-06
42 *101:78 *4366:B 0.000150625
43 *103:70 *4366:B 5.62995e-05
44 *103:70 *196:48 4.58976e-05
45 *112:103 *196:10 0.000479171
46 *114:10 *4368:B 6.8646e-06
47 *114:10 *196:10 0.000874521
48 *114:10 *196:20 0.00021049
49 *132:10 *196:10 0.000199793
50 *166:95 *196:10 0
51 *178:10 *196:20 0
52 *179:12 *4368:B 0.000146474
53 *194:53 *196:48 0.000261581
54 *194:63 *196:48 4.59075e-05
55 *195:24 *4368:B 1.02504e-05
56 *195:50 *196:48 0.00328667
*RES
1 *4575:X *196:10 38.3536 
2 *196:10 *196:20 8.96429 
3 *196:20 *4368:B 22.6393 
4 *196:20 *4388:B 9.3 
5 *196:10 *196:48 37.625 
6 *196:48 *4366:B 21.7286 
7 *196:48 *4393:A_N 9.72857 
*END

*D_NET *197 0.0123601
*CONN
*I *4433:S I *D sky130_fd_sc_hd__mux2_1
*I *4435:S I *D sky130_fd_sc_hd__mux2_1
*I *4438:S I *D sky130_fd_sc_hd__mux2_1
*I *4434:S I *D sky130_fd_sc_hd__mux2_1
*I *4439:S I *D sky130_fd_sc_hd__mux2_1
*I *4440:S I *D sky130_fd_sc_hd__mux2_1
*I *4436:S I *D sky130_fd_sc_hd__mux2_1
*I *4437:S I *D sky130_fd_sc_hd__mux2_1
*I *4576:X O *D sky130_fd_sc_hd__clkdlybuf4s25_1
*CAP
1 *4433:S 0.000539418
2 *4435:S 0
3 *4438:S 0.00030613
4 *4434:S 0
5 *4439:S 0
6 *4440:S 0.000149227
7 *4436:S 0
8 *4437:S 0.00042081
9 *4576:X 0.00141067
10 *197:68 0.000665119
11 *197:59 0.00043183
12 *197:34 0.000619666
13 *197:32 0.000720997
14 *197:24 0.000495059
15 *197:8 0.000445479
16 *197:6 0.00167984
17 *4433:S *4353:A 7.4826e-05
18 *4433:S *4435:A1 9.53331e-05
19 *4433:S *4499:A 0
20 *4433:S *203:10 0
21 *4433:S *203:14 3.32631e-05
22 *4433:S *209:27 0.000270246
23 *4437:S *4498:A 0.000290115
24 *4437:S *4507:A 0.000495276
25 *4437:S *211:14 0.000144074
26 *4440:S *4439:A0 0.000242372
27 *4440:S *4439:A1 0.00025263
28 *4440:S *4520:RESET_B 4.75521e-05
29 *4440:S *214:14 0.000132168
30 *197:6 *4550:A 0.000274294
31 *197:6 *204:27 0.000683402
32 *197:6 *211:14 8.46829e-05
33 *197:8 *211:14 4.17433e-05
34 *197:24 *4435:A0 6.35892e-05
35 *197:24 *211:12 6.42242e-05
36 *197:32 *4434:A0 9.90367e-05
37 *197:32 *4435:A0 1.19309e-05
38 *197:34 *4439:A0 5.33005e-05
39 *197:68 *4435:A1 2.07878e-05
40 uo_out[0] *4433:S 0
41 uo_out[0] *197:32 0
42 uo_out[1] *197:32 1.21859e-05
43 uo_out[2] *197:24 2.06112e-05
44 *4480:A *197:6 3.48705e-05
45 *4480:B *197:6 0.000201357
46 *4486:A_N *197:6 0.000403862
47 *4508:CLK *197:24 0
48 *4508:D *197:24 1.00375e-05
49 *4543:A *197:6 0.000318101
50 *173:38 *4433:S 0
*RES
1 *4576:X *197:6 41.4607 
2 *197:6 *197:8 0.535714 
3 *197:8 *4437:S 20.1036 
4 *197:8 *4436:S 9.3 
5 *197:6 *197:24 9.48214 
6 *197:24 *197:32 9.25 
7 *197:32 *197:34 7.92857 
8 *197:34 *4440:S 23.8179 
9 *197:34 *4439:S 9.3 
10 *197:32 *4434:S 9.3 
11 *197:24 *197:59 4.5 
12 *197:59 *4438:S 14.3536 
13 *197:59 *197:68 2.17857 
14 *197:68 *4435:S 9.3 
15 *197:68 *4433:S 30.0857 
*END

*D_NET *198 0.0100882
*CONN
*I *4511:RESET_B I *D sky130_fd_sc_hd__dfrtp_2
*I *4510:RESET_B I *D sky130_fd_sc_hd__dfrtp_2
*I *4509:RESET_B I *D sky130_fd_sc_hd__dfrtp_2
*I *4522:RESET_B I *D sky130_fd_sc_hd__dfrtp_2
*I *4520:RESET_B I *D sky130_fd_sc_hd__dfrtp_2
*I *4513:RESET_B I *D sky130_fd_sc_hd__dfrtp_2
*I *4523:RESET_B I *D sky130_fd_sc_hd__dfrtp_2
*I *4524:RESET_B I *D sky130_fd_sc_hd__dfrtp_2
*I *4512:RESET_B I *D sky130_fd_sc_hd__dfrtp_2
*I *4508:RESET_B I *D sky130_fd_sc_hd__dfrtp_2
*I *4559:X O *D sky130_fd_sc_hd__clkdlybuf4s25_1
*CAP
1 *4511:RESET_B 0.000282507
2 *4510:RESET_B 0.000394622
3 *4509:RESET_B 9.54618e-05
4 *4522:RESET_B 0.000453898
5 *4520:RESET_B 0.000328685
6 *4513:RESET_B 0.000177733
7 *4523:RESET_B 0.00075779
8 *4524:RESET_B 0.00091247
9 *4512:RESET_B 0.000111969
10 *4508:RESET_B 0.00118678
11 *4559:X 0
12 *198:112 0.000661474
13 *198:89 0.000570344
14 *198:6 0.000724672
15 *4508:RESET_B *4355:A 5.52238e-05
16 *4508:RESET_B *4559:A 9.21958e-05
17 *4508:RESET_B *204:12 0
18 *4508:RESET_B *210:20 7.32955e-05
19 *4508:RESET_B *210:22 0.00016486
20 *4508:RESET_B *211:12 0.00013299
21 *4509:RESET_B *4360:A 3.84291e-05
22 *4509:RESET_B *4504:A 1.41706e-05
23 *4510:RESET_B *4439:A1 0.000230475
24 *4510:RESET_B *207:6 0.000138106
25 *4512:RESET_B *210:20 1.66373e-05
26 *4513:RESET_B *4506:A 0
27 *4513:RESET_B *205:8 2.76491e-05
28 *4520:RESET_B *4439:A1 3.17163e-05
29 *4520:RESET_B *4440:A0 0.000225314
30 *4520:RESET_B *215:12 0
31 *4523:RESET_B *4438:A0 0.000154027
32 *4523:RESET_B *4438:A1 0.000442662
33 *4523:RESET_B *4506:A 0
34 *4523:RESET_B *212:8 9.84891e-05
35 *4523:RESET_B *213:12 0.000101063
36 *4524:RESET_B *4435:A0 0.000100674
37 *4524:RESET_B *4493:A 0
38 *4524:RESET_B *4499:A 0
39 *4524:RESET_B *210:22 0.000113122
40 *4524:RESET_B *211:12 4.45768e-06
41 *4524:RESET_B *212:8 0.00017915
42 *198:89 *4439:A0 0
43 *198:89 *4439:A1 0.000108848
44 *198:112 *4360:A 1.19402e-05
45 *198:112 *4439:A1 0.000221211
46 uo_out[6] *198:89 5.7836e-06
47 uo_out[7] *4513:RESET_B 0.000162358
48 uo_out[7] *4520:RESET_B 0
49 uo_out[7] *198:89 0
50 *4405:B *4508:RESET_B 0
51 *4405:B *4512:RESET_B 5.26184e-05
52 *4440:S *4520:RESET_B 4.75521e-05
53 *4473:A *4512:RESET_B 6.05161e-06
54 *4514:RESET_B *4508:RESET_B 0.000250193
55 *4522:CLK *198:112 0
56 *4522:D *198:112 0.000103307
57 *4523:D *4513:RESET_B 0
58 *4524:CLK *4523:RESET_B 0
59 *105:65 *4512:RESET_B 2.51935e-05
*RES
1 *4559:X *198:6 13.8 
2 *198:6 *4508:RESET_B 17.8661 
3 *198:6 *4512:RESET_B 6.91964 
4 *4508:RESET_B *4524:RESET_B 18.1339 
5 *4524:RESET_B *4523:RESET_B 18.0357 
6 *4523:RESET_B *4513:RESET_B 12.7589 
7 *4523:RESET_B *198:89 9.17857 
8 *198:89 *4520:RESET_B 11.6071 
9 *198:89 *4522:RESET_B 4.5 
10 *4522:RESET_B *198:112 14.3839 
11 *198:112 *4509:RESET_B 6.44643 
12 *198:112 *4510:RESET_B 7.84821 
13 *4510:RESET_B *4511:RESET_B 13.9821 
*END

*D_NET *199 0.00389778
*CONN
*I *4377:A_N I *D sky130_fd_sc_hd__nand2b_2
*I *4376:A_N I *D sky130_fd_sc_hd__and2b_2
*I *4542:Q O *D sky130_fd_sc_hd__dfrtp_2
*CAP
1 *4377:A_N 0.00013731
2 *4376:A_N 0.000277323
3 *4542:Q 0.000436602
4 *199:10 0.000851235
5 *4376:A_N *1288:26 0.000159499
6 *4376:B *4376:A_N 0.000132316
7 *4377:B *4377:A_N 9.70039e-05
8 *4456:B1 *4376:A_N 0.000338351
9 *4456:B1 *199:10 4.73656e-05
10 *4468:A1 *4376:A_N 1.33343e-05
11 *4490:A *199:10 2.82057e-05
12 *4492:A1 *4377:A_N 9.59954e-05
13 *4540:RESET_B *199:10 0
14 *4541:D *4377:A_N 9.88452e-05
15 *4542:RESET_B *199:10 0.000142856
16 *4569:A *199:10 0
17 *4570:A *199:10 0
18 *3:14 *199:10 0.000133769
19 *104:114 *4376:A_N 0.000175795
20 *104:114 *199:10 0.000291979
21 *105:8 *4377:A_N 5.42899e-05
22 *105:35 *199:10 0.00038571
23 *164:23 *199:10 0
*RES
1 *4542:Q *199:10 24.3893 
2 *199:10 *4376:A_N 22.1393 
3 *199:10 *4377:A_N 17.9071 
*END

*D_NET *200 0.00189602
*CONN
*I *4550:A I *D sky130_fd_sc_hd__clkdlybuf4s25_1
*I *4559:A I *D sky130_fd_sc_hd__clkdlybuf4s25_1
*I *4405:X O *D sky130_fd_sc_hd__and2_2
*CAP
1 *4550:A 0.000211326
2 *4559:A 0.000270796
3 *4405:X 0
4 *200:6 0.000482123
5 *4550:A *204:27 0
6 *4405:B *4550:A 4.81157e-05
7 *4405:B *4559:A 0.000170532
8 *4508:RESET_B *4559:A 9.21958e-05
9 *4514:RESET_B *4550:A 0.000194299
10 *4514:RESET_B *4559:A 0.000152333
11 *197:6 *4550:A 0.000274294
*RES
1 *4405:X *200:6 13.8 
2 *200:6 *4559:A 20.4607 
3 *200:6 *4550:A 19.55 
*END

*D_NET *201 0.00263574
*CONN
*I *4346:A I *D sky130_fd_sc_hd__inv_2
*I *4384:B1 I *D sky130_fd_sc_hd__o41a_2
*I *4364:B I *D sky130_fd_sc_hd__and2_2
*I *4519:Q O *D sky130_fd_sc_hd__dfrtp_2
*CAP
1 *4346:A 0
2 *4384:B1 0.000265891
3 *4364:B 0.000273991
4 *4519:Q 0.000114152
5 *201:25 0.000431756
6 *201:10 0.000554008
7 *201:10 *1282:44 5.71472e-05
8 *4384:A4 *4384:B1 1.04232e-05
9 *4387:A *4384:B1 0.000313241
10 *4441:A *201:25 5.80706e-06
11 *4443:B *4364:B 5.52238e-05
12 *4443:B *4384:B1 1.21258e-05
13 *4443:B *201:25 0
14 *4449:B *201:10 4.46186e-06
15 *4519:RESET_B *201:10 0
16 *4519:RESET_B *201:25 0
17 *95:8 *4384:B1 5.91094e-05
18 *112:14 *4384:B1 2.89016e-05
19 *114:10 *4384:B1 0.000180764
20 *132:10 *201:10 2.28428e-05
21 *166:46 *4364:B 0.000160294
22 *166:46 *201:25 6.58289e-05
23 *183:20 *4364:B 1.97695e-05
24 *196:10 *201:10 0
25 *196:10 *201:25 0
*RES
1 *4519:Q *201:10 15.675 
2 *201:10 *4364:B 18.8714 
3 *201:10 *201:25 7.66071 
4 *201:25 *4384:B1 15.6214 
5 *201:25 *4346:A 9.3 
*END

*D_NET *202 0.0028785
*CONN
*I *4433:A0 I *D sky130_fd_sc_hd__mux2_1
*I *4501:A I *D sky130_fd_sc_hd__inv_2
*I *4348:A I *D sky130_fd_sc_hd__inv_2
*I *4521:Q O *D sky130_fd_sc_hd__dfrtp_2
*CAP
1 *4433:A0 0.00035324
2 *4501:A 0.000105924
3 *4348:A 0
4 *4521:Q 0.000590456
5 *202:19 0.000628859
6 *202:10 0.000760151
7 *4433:A0 *4433:A1 0.000123673
8 *4433:A0 *209:27 0
9 *4433:A0 *216:12 0
10 *4516:CLK *4501:A 3.18676e-05
11 *4516:D *4433:A0 0.000103267
12 *4516:D *202:19 9.25014e-06
13 *4521:D *202:10 8.00806e-05
14 *4521:RESET_B *202:10 9.1736e-05
*RES
1 *4521:Q *202:10 21.3179 
2 *202:10 *4348:A 13.8 
3 *202:10 *202:19 3.16071 
4 *202:19 *4501:A 15.5857 
5 *202:19 *4433:A0 20.6571 
*END

*D_NET *203 0.00309943
*CONN
*I *4499:A I *D sky130_fd_sc_hd__inv_2
*I *4353:A I *D sky130_fd_sc_hd__inv_2
*I *4435:A1 I *D sky130_fd_sc_hd__mux2_1
*I *4515:Q O *D sky130_fd_sc_hd__dfrtp_2
*CAP
1 *4499:A 0.000260394
2 *4353:A 0.000124122
3 *4435:A1 0.000225271
4 *4515:Q 0.000136076
5 *203:14 0.000672682
6 *203:10 0.000719759
7 *4353:A *209:27 0.000202835
8 uo_out[0] *4353:A 0.0001234
9 *4433:S *4353:A 7.4826e-05
10 *4433:S *4435:A1 9.53331e-05
11 *4433:S *4499:A 0
12 *4433:S *203:10 0
13 *4433:S *203:14 3.32631e-05
14 *4514:CLK *4499:A 0.000310699
15 *4515:RESET_B *203:10 9.99853e-05
16 *4524:RESET_B *4499:A 0
17 *197:68 *4435:A1 2.07878e-05
*RES
1 *4515:Q *203:10 15.7821 
2 *203:10 *203:14 8.32143 
3 *203:14 *4435:A1 12.3 
4 *203:14 *4353:A 22.675 
5 *203:10 *4499:A 19.3893 
*END

*D_NET *204 0.00706763
*CONN
*I *4436:A1 I *D sky130_fd_sc_hd__mux2_1
*I *4498:A I *D sky130_fd_sc_hd__inv_2
*I *4355:A I *D sky130_fd_sc_hd__inv_2
*I *4514:Q O *D sky130_fd_sc_hd__dfrtp_2
*CAP
1 *4436:A1 0
2 *4498:A 0.00109558
3 *4355:A 2.24635e-05
4 *4514:Q 0.000471559
5 *204:27 0.00191099
6 *204:12 0.00130943
7 *4355:A *210:20 1.33343e-05
8 *4498:A *4437:A1 0.00014258
9 *4498:A *4507:A 0.000495276
10 *4498:A *211:14 4.38128e-05
11 *204:12 *210:20 6.57056e-05
12 *204:27 *211:14 0.000226687
13 *4437:S *4498:A 0.000290115
14 *4508:CLK *204:27 9.8621e-05
15 *4508:RESET_B *4355:A 5.52238e-05
16 *4508:RESET_B *204:12 0
17 *4514:RESET_B *204:27 0
18 *4524:CLK *4498:A 0.000142856
19 *4550:A *204:27 0
20 *197:6 *204:27 0.000683402
*RES
1 *4514:Q *204:12 20.1036 
2 *204:12 *4355:A 14.3357 
3 *204:12 *204:27 20.5357 
4 *204:27 *4498:A 39.2643 
5 *204:27 *4436:A1 9.3 
*END

*D_NET *205 0.00325856
*CONN
*I *4437:A1 I *D sky130_fd_sc_hd__mux2_1
*I *4357:A I *D sky130_fd_sc_hd__inv_2
*I *4496:A I *D sky130_fd_sc_hd__inv_2
*I *4513:Q O *D sky130_fd_sc_hd__dfrtp_2
*CAP
1 *4437:A1 0.000165769
2 *4357:A 2.23854e-05
3 *4496:A 0.00028208
4 *4513:Q 0
5 *205:8 0.00114878
6 *205:4 0.00101008
7 *4496:A *4359:A 9.83442e-05
8 *4498:A *4437:A1 0.00014258
9 *4513:D *205:8 0.000360894
10 *4513:RESET_B *205:8 2.76491e-05
*RES
1 *4513:Q *205:4 9.3 
2 *205:4 *205:8 10.8214 
3 *205:8 *4496:A 13.9607 
4 *205:8 *4357:A 9.72857 
5 *205:4 *4437:A1 20.6929 
*END

*D_NET *206 0.00458022
*CONN
*I *4438:A1 I *D sky130_fd_sc_hd__mux2_1
*I *4359:A I *D sky130_fd_sc_hd__inv_2
*I *4495:A I *D sky130_fd_sc_hd__inv_2
*I *4511:Q O *D sky130_fd_sc_hd__dfrtp_2
*CAP
1 *4438:A1 0.000625675
2 *4359:A 0.000137563
3 *4495:A 0.000180327
4 *4511:Q 0
5 *206:10 0.000866017
6 *206:4 0.0011738
7 *4438:A1 *4506:A 0.000430735
8 *4438:A1 *213:12 0.000179645
9 *4495:A *4361:A 4.13122e-06
10 *4496:A *4359:A 9.83442e-05
11 *4510:CLK *4495:A 4.85049e-06
12 *4511:CLK *4359:A 6.98302e-05
13 *4511:CLK *4495:A 5.83304e-05
14 *4511:D *4359:A 9.53171e-05
15 *4511:D *4495:A 0.000104198
16 *4511:D *206:10 1.07719e-05
17 *4523:CLK *4438:A1 9.80173e-05
18 *4523:RESET_B *4438:A1 0.000442662
*RES
1 *4511:Q *206:4 9.3 
2 *206:4 *206:10 10.8036 
3 *206:10 *4495:A 17.4964 
4 *206:10 *4359:A 17.3536 
5 *206:4 *4438:A1 24.7643 
*END

*D_NET *207 0.00488931
*CONN
*I *4439:A1 I *D sky130_fd_sc_hd__mux2_1
*I *4361:A I *D sky130_fd_sc_hd__inv_2
*I *4494:A I *D sky130_fd_sc_hd__inv_2
*I *4510:Q O *D sky130_fd_sc_hd__dfrtp_2
*CAP
1 *4439:A1 0.000842808
2 *4361:A 0.000250374
3 *4494:A 0.000263912
4 *4510:Q 0
5 *207:6 0.000920593
6 *207:4 0.00124912
7 *4440:S *4439:A1 0.00025263
8 *4495:A *4361:A 4.13122e-06
9 *4509:CLK *4494:A 5.65955e-05
10 *4510:CLK *4361:A 0
11 *4510:D *4361:A 7.70035e-05
12 *4510:D *4494:A 7.84935e-06
13 *4510:D *207:6 4.48347e-06
14 *4510:RESET_B *4439:A1 0.000230475
15 *4510:RESET_B *207:6 0.000138106
16 *4520:RESET_B *4439:A1 3.17163e-05
17 *4522:D *4439:A1 0.000229456
18 *198:89 *4439:A1 0.000108848
19 *198:112 *4439:A1 0.000221211
*RES
1 *4510:Q *207:4 9.3 
2 *207:4 *207:6 5.05357 
3 *207:6 *4494:A 22.2464 
4 *207:6 *4361:A 22.7107 
5 *207:4 *4439:A1 32.2643 
*END

*D_NET *208 0.0018157
*CONN
*I *4440:A1 I *D sky130_fd_sc_hd__mux2_1
*I *4363:A I *D sky130_fd_sc_hd__inv_2
*I *4509:Q O *D sky130_fd_sc_hd__dfrtp_2
*CAP
1 *4440:A1 0.000263079
2 *4363:A 0.000447115
3 *4509:Q 0
4 *208:4 0.000710194
5 *4363:A *214:14 2.89114e-05
6 *4440:A1 *214:14 0.000366399
7 *4509:D *4363:A 0
*RES
1 *4509:Q *208:4 9.3 
2 *208:4 *4363:A 25.9071 
3 *208:4 *4440:A1 15.5857 
*END

*D_NET *209 0.00418512
*CONN
*I *4497:A I *D sky130_fd_sc_hd__inv_2
*I *4434:A0 I *D sky130_fd_sc_hd__mux2_1
*I *4350:A I *D sky130_fd_sc_hd__inv_2
*I *4516:Q O *D sky130_fd_sc_hd__dfrtp_2
*CAP
1 *4497:A 0.000286366
2 *4434:A0 0.000424713
3 *4350:A 2.1025e-05
4 *4516:Q 0.000386792
5 *209:27 0.00101768
6 *209:14 0.000714416
7 uo_out[0] *4434:A0 5.66157e-05
8 uo_out[0] *209:27 0
9 *4353:A *209:27 0.000202835
10 *4433:A0 *209:27 0
11 *4433:S *209:27 0.000270246
12 *4512:CLK *4497:A 2.84109e-05
13 *4515:D *4434:A0 1.02504e-05
14 *4515:RESET_B *4497:A 9.33521e-05
15 *4518:RESET_B *4350:A 5.71472e-05
16 *4518:RESET_B *209:14 0.000302653
17 *173:38 *4497:A 9.1736e-05
18 *173:40 *209:14 2.21254e-05
19 *173:40 *209:27 0
20 *173:42 *209:14 9.97164e-05
21 *197:32 *4434:A0 9.90367e-05
*RES
1 *4516:Q *209:14 25.1214 
2 *209:14 *4350:A 9.83571 
3 *209:14 *209:27 16.4107 
4 *209:27 *4434:A0 25.0321 
5 *209:27 *4497:A 14.7821 
*END

*D_NET *210 0.004174
*CONN
*I *4352:A I *D sky130_fd_sc_hd__inv_2
*I *4493:A I *D sky130_fd_sc_hd__inv_2
*I *4435:A0 I *D sky130_fd_sc_hd__mux2_1
*I *4512:Q O *D sky130_fd_sc_hd__dfrtp_2
*CAP
1 *4352:A 2.06112e-05
2 *4493:A 0.000147025
3 *4435:A0 0.00016383
4 *4512:Q 0.000764419
5 *210:22 0.000675538
6 *210:20 0.00114971
7 *4493:A *211:12 0
8 *210:22 *211:12 0.00020224
9 uo_out[0] *4435:A0 0
10 *4355:A *210:20 1.33343e-05
11 *4473:A *210:20 1.86687e-05
12 *4508:CLK *4493:A 3.93893e-05
13 *4508:D *4435:A0 9.77074e-05
14 *4508:D *210:22 6.05161e-06
15 *4508:RESET_B *210:20 7.32955e-05
16 *4508:RESET_B *210:22 0.00016486
17 *4512:D *210:20 0
18 *4512:RESET_B *210:20 1.66373e-05
19 *4514:D *210:20 0.000100594
20 *4515:RESET_B *210:20 0.000128161
21 *4524:RESET_B *4435:A0 0.000100674
22 *4524:RESET_B *4493:A 0
23 *4524:RESET_B *210:22 0.000113122
24 *105:61 *210:20 2.72967e-05
25 *105:65 *210:20 9.60578e-06
26 *197:24 *4435:A0 6.35892e-05
27 *197:32 *4435:A0 1.19309e-05
28 *204:12 *210:20 6.57056e-05
*RES
1 *4512:Q *210:20 31.5857 
2 *210:20 *210:22 8.33929 
3 *210:22 *4435:A0 22.6214 
4 *210:22 *4493:A 20.8536 
5 *210:20 *4352:A 9.72857 
*END

*D_NET *211 0.00382885
*CONN
*I *4354:A I *D sky130_fd_sc_hd__inv_2
*I *4436:A0 I *D sky130_fd_sc_hd__mux2_1
*I *4507:A I *D sky130_fd_sc_hd__inv_2
*I *4508:Q O *D sky130_fd_sc_hd__dfrtp_2
*CAP
1 *4354:A 0
2 *4436:A0 0
3 *4507:A 5.45556e-05
4 *4508:Q 0.000716652
5 *211:14 0.000100174
6 *211:12 0.00076227
7 *4437:S *4507:A 0.000495276
8 *4437:S *211:14 0.000144074
9 *4493:A *211:12 0
10 *4498:A *4507:A 0.000495276
11 *4498:A *211:14 4.38128e-05
12 *4508:D *211:12 0.00025974
13 *4508:RESET_B *211:12 0.00013299
14 *4524:RESET_B *211:12 4.45768e-06
15 *197:6 *211:14 8.46829e-05
16 *197:8 *211:14 4.17433e-05
17 *197:24 *211:12 6.42242e-05
18 *204:27 *211:14 0.000226687
19 *210:22 *211:12 0.00020224
*RES
1 *4508:Q *211:12 28.6929 
2 *211:12 *211:14 2.58929 
3 *211:14 *4507:A 13.9429 
4 *211:14 *4436:A0 9.3 
5 *211:12 *4354:A 9.3 
*END

*D_NET *212 0.00348962
*CONN
*I *4356:A I *D sky130_fd_sc_hd__inv_2
*I *4437:A0 I *D sky130_fd_sc_hd__mux2_1
*I *4506:A I *D sky130_fd_sc_hd__inv_2
*I *4524:Q O *D sky130_fd_sc_hd__dfrtp_2
*CAP
1 *4356:A 0
2 *4437:A0 0.000102341
3 *4506:A 0.00066207
4 *4524:Q 0.000491754
5 *212:12 0.000822623
6 *212:8 0.000549966
7 uo_out[7] *4506:A 0
8 *4438:A1 *4506:A 0.000430735
9 *4513:RESET_B *4506:A 0
10 *4523:RESET_B *4506:A 0
11 *4523:RESET_B *212:8 9.84891e-05
12 *4524:CLK *4437:A0 0
13 *4524:D *212:8 0.000152493
14 *4524:RESET_B *212:8 0.00017915
*RES
1 *4524:Q *212:8 19.3 
2 *212:8 *212:12 5.44643 
3 *212:12 *4506:A 32.4786 
4 *212:12 *4437:A0 15.4429 
5 *212:8 *4356:A 9.3 
*END

*D_NET *213 0.00209588
*CONN
*I *4438:A0 I *D sky130_fd_sc_hd__mux2_1
*I *4358:A I *D sky130_fd_sc_hd__inv_2
*I *4505:A I *D sky130_fd_sc_hd__inv_2
*I *4523:Q O *D sky130_fd_sc_hd__dfrtp_2
*CAP
1 *4438:A0 0.000167781
2 *4358:A 0
3 *4505:A 8.32847e-05
4 *4523:Q 0
5 *213:12 0.00062275
6 *213:4 0.000707246
7 uo_out[7] *213:12 0
8 *4438:A1 *213:12 0.000179645
9 *4523:D *213:12 8.00806e-05
10 *4523:RESET_B *4438:A0 0.000154027
11 *4523:RESET_B *213:12 0.000101063
*RES
1 *4523:Q *213:4 9.3 
2 *213:4 *213:12 16.9286 
3 *213:12 *4505:A 10.6571 
4 *213:12 *4358:A 9.3 
5 *213:4 *4438:A0 11.8893 
*END

*D_NET *214 0.00310468
*CONN
*I *4439:A0 I *D sky130_fd_sc_hd__mux2_1
*I *4360:A I *D sky130_fd_sc_hd__inv_2
*I *4504:A I *D sky130_fd_sc_hd__inv_2
*I *4522:Q O *D sky130_fd_sc_hd__dfrtp_2
*CAP
1 *4439:A0 0.000213347
2 *4360:A 0.000101822
3 *4504:A 0.000265995
4 *4522:Q 0
5 *214:14 0.00086545
6 *214:6 0.000710979
7 *4363:A *214:14 2.89114e-05
8 *4440:A1 *214:14 0.000366399
9 *4440:S *4439:A0 0.000242372
10 *4440:S *214:14 0.000132168
11 *4509:RESET_B *4360:A 3.84291e-05
12 *4509:RESET_B *4504:A 1.41706e-05
13 *4517:CLK *4439:A0 0
14 *4517:CLK *214:14 0
15 *4520:CLK *4504:A 5.33433e-05
16 *4520:D *4504:A 6.05161e-06
17 *197:34 *4439:A0 5.33005e-05
18 *198:89 *4439:A0 0
19 *198:112 *4360:A 1.19402e-05
*RES
1 *4522:Q *214:6 13.8 
2 *214:6 *214:14 18.6786 
3 *214:14 *4504:A 18.7286 
4 *214:14 *4360:A 15.7464 
5 *214:6 *4439:A0 18.6214 
*END

*D_NET *215 0.00145831
*CONN
*I *4503:A I *D sky130_fd_sc_hd__inv_2
*I *4440:A0 I *D sky130_fd_sc_hd__mux2_1
*I *4362:A I *D sky130_fd_sc_hd__inv_2
*I *4520:Q O *D sky130_fd_sc_hd__dfrtp_2
*CAP
1 *4503:A 0
2 *4440:A0 0.000110291
3 *4362:A 0.000132523
4 *4520:Q 0.000182536
5 *215:14 0.000433964
6 *215:12 0.000373687
7 *215:12 *4349:A 0
8 *4518:D *215:12 0
9 *4520:RESET_B *4440:A0 0.000225314
10 *4520:RESET_B *215:12 0
*RES
1 *4520:Q *215:12 20.8893 
2 *215:12 *215:14 3 
3 *215:14 *4362:A 11.4786 
4 *215:14 *4440:A0 21.1571 
5 *215:12 *4503:A 9.3 
*END

*D_NET *216 0.00253905
*CONN
*I *4433:A1 I *D sky130_fd_sc_hd__mux2_1
*I *4502:A I *D sky130_fd_sc_hd__inv_2
*I *4349:A I *D sky130_fd_sc_hd__inv_2
*I *4518:Q O *D sky130_fd_sc_hd__dfrtp_2
*CAP
1 *4433:A1 0.000342008
2 *4502:A 2.23854e-05
3 *4349:A 0.000285572
4 *4518:Q 0.000161879
5 *216:16 0.000497182
6 *216:12 0.000693112
7 *216:16 *4351:A 0.00010096
8 *216:16 *4500:A 0.000131439
9 *4433:A0 *4433:A1 0.000123673
10 *4433:A0 *216:12 0
11 *4515:CLK *4433:A1 3.05446e-05
12 *4517:CLK *4349:A 3.69047e-06
13 *4517:D *4349:A 5.30637e-06
14 *4517:D *216:16 7.50473e-05
15 *4518:D *4349:A 3.5707e-05
16 *4518:RESET_B *216:12 3.05446e-05
17 *215:12 *4349:A 0
*RES
1 *4518:Q *216:12 20.5857 
2 *216:12 *216:16 4.66071 
3 *216:16 *4349:A 23.5143 
4 *216:16 *4502:A 9.72857 
5 *216:12 *4433:A1 15.1929 
*END

*D_NET *217 0.00171171
*CONN
*I *4434:A1 I *D sky130_fd_sc_hd__mux2_1
*I *4500:A I *D sky130_fd_sc_hd__inv_2
*I *4351:A I *D sky130_fd_sc_hd__inv_2
*I *4517:Q O *D sky130_fd_sc_hd__dfrtp_2
*CAP
1 *4434:A1 0.000166726
2 *4500:A 5.25316e-05
3 *4351:A 3.79164e-05
4 *4517:Q 0.00031182
5 *217:12 0.000192789
6 *217:8 0.000580887
7 *4515:CLK *4434:A1 0
8 *4515:CLK *217:12 0
9 *4517:CLK *4434:A1 0
10 *4517:D *4434:A1 0
11 *4517:D *217:12 0
12 *4517:RESET_B *217:8 0.000136638
13 *216:16 *4351:A 0.00010096
14 *216:16 *4500:A 0.000131439
*RES
1 *4517:Q *217:8 17.6214 
2 *217:8 *217:12 6.14286 
3 *217:12 *4351:A 10.2464 
4 *217:12 *4500:A 10.6571 
5 *217:8 *4434:A1 16.9607 
*END

*D_NET *218 0.00290918
*CONN
*I *4623:A I *D sky130_fd_sc_hd__nand2_1
*I *4406:X O *D sky130_fd_sc_hd__and3_2
*CAP
1 *4623:A 0.000949665
2 *4406:X 0.000949665
3 *4623:A *4963:A 2.3541e-05
4 *4623:A *4964:A 0.000209351
5 *4623:A *5281:A 0.000197761
6 *4369:A *4623:A 0.000136958
7 *4369:B *4623:A 6.9276e-05
8 *4553:A *4623:A 9.60939e-05
9 *101:10 *4623:A 9.90431e-05
10 *101:42 *4623:A 3.68898e-05
11 *179:32 *4623:A 0.000140933
*RES
1 *4406:X *4623:A 36.0107 
*END

*D_NET *219 0.000275297
*CONN
*I *4602:A I *D sky130_fd_sc_hd__inv_1
*I *4623:Y O *D sky130_fd_sc_hd__nand2_1
*CAP
1 *4602:A 0.000131921
2 *4623:Y 0.000131921
3 *4602:A *4614:A 0
4 *4602:A *4615:A 1.14548e-05
*RES
1 *4623:Y *4602:A 29.4795 
*END

*D_NET *220 0.000492374
*CONN
*I *4593:A I *D sky130_fd_sc_hd__inv_1
*I *4592:Y O *D sky130_fd_sc_hd__inv_1
*CAP
1 *4593:A 0.000191406
2 *4592:Y 0.000191406
3 *4593:A *4592:A 5.62995e-05
4 *4593:A *4594:A 3.94872e-05
5 *4593:A *4621:A 1.37743e-05
*RES
1 *4592:Y *4593:A 22.3634 
*END

*D_NET *221 0.000565618
*CONN
*I *4594:A I *D sky130_fd_sc_hd__inv_1
*I *4593:Y O *D sky130_fd_sc_hd__inv_1
*CAP
1 *4594:A 0.000202888
2 *4593:Y 0.000202888
3 *4594:A *4596:A 3.82062e-05
4 *4594:A *4598:A 7.18982e-05
5 *4594:A *225:12 1.02504e-05
6 *4593:A *4594:A 3.94872e-05
*RES
1 *4593:Y *4594:A 30.9795 
*END

*D_NET *222 0.000239643
*CONN
*I *4595:A I *D sky130_fd_sc_hd__inv_1
*I *4594:Y O *D sky130_fd_sc_hd__inv_1
*CAP
1 *4595:A 2.42856e-05
2 *4594:Y 2.42856e-05
3 *4595:A *4596:A 5.62995e-05
4 *4595:A *4598:A 0.000134772
*RES
1 *4594:Y *4595:A 19.8634 
*END

*D_NET *223 0.000756557
*CONN
*I *4596:A I *D sky130_fd_sc_hd__inv_1
*I *4595:Y O *D sky130_fd_sc_hd__inv_1
*CAP
1 *4596:A 0.000226786
2 *4595:Y 0.000226786
3 *4596:A *4389:A0 0.000148602
4 *4596:A *4597:A 1.96517e-05
5 *4596:A *4598:A 4.02252e-05
6 *4594:A *4596:A 3.82062e-05
7 *4595:A *4596:A 5.62995e-05
*RES
1 *4595:Y *4596:A 23.5955 
*END

*D_NET *224 0.000585349
*CONN
*I *4597:A I *D sky130_fd_sc_hd__inv_1
*I *4596:Y O *D sky130_fd_sc_hd__inv_1
*CAP
1 *4597:A 0.000238695
2 *4596:Y 0.000238695
3 *4597:A *4944:A 0
4 *4597:A *225:12 8.83074e-05
5 *4596:A *4597:A 1.96517e-05
*RES
1 *4596:Y *4597:A 31.908 
*END

*D_NET *225 0.00125926
*CONN
*I *4598:A I *D sky130_fd_sc_hd__inv_1
*I *4622:A I *D sky130_fd_sc_hd__buf_1
*I *4597:Y O *D sky130_fd_sc_hd__inv_1
*CAP
1 *4598:A 0.000228026
2 *4622:A 0
3 *4597:Y 0.000228878
4 *225:12 0.000456904
5 *225:12 *4944:A 0
6 *4594:A *4598:A 7.18982e-05
7 *4594:A *225:12 1.02504e-05
8 *4595:A *4598:A 0.000134772
9 *4596:A *4598:A 4.02252e-05
10 *4597:A *225:12 8.83074e-05
*RES
1 *4597:Y *225:12 21.5054 
2 *225:12 *4622:A 9.3 
3 *225:12 *4598:A 13.8491 
*END

*D_NET *226 0.000106793
*CONN
*I *4599:A I *D sky130_fd_sc_hd__inv_1
*I *4598:Y O *D sky130_fd_sc_hd__inv_1
*CAP
1 *4599:A 5.33963e-05
2 *4598:Y 5.33963e-05
*RES
1 *4598:Y *4599:A 19.4973 
*END

*D_NET *227 0.000658135
*CONN
*I *4600:A I *D sky130_fd_sc_hd__inv_1
*I *4599:Y O *D sky130_fd_sc_hd__inv_1
*CAP
1 *4600:A 0.000232785
2 *4599:Y 0.000232785
3 *4600:A *4601:A 7.90536e-05
4 *4600:A *4603:A 0.000113512
*RES
1 *4599:Y *4600:A 32.0509 
*END

*D_NET *228 0.000198089
*CONN
*I *4601:A I *D sky130_fd_sc_hd__inv_1
*I *4600:Y O *D sky130_fd_sc_hd__inv_1
*CAP
1 *4601:A 5.51589e-05
2 *4600:Y 5.51589e-05
3 *4601:A *4603:A 8.71761e-06
4 *4600:A *4601:A 7.90536e-05
*RES
1 *4600:Y *4601:A 19.8634 
*END

*D_NET *229 0.000580277
*CONN
*I *4603:A I *D sky130_fd_sc_hd__inv_1
*I *4601:Y O *D sky130_fd_sc_hd__inv_1
*CAP
1 *4603:A 0.000229024
2 *4601:Y 0.000229024
3 *4600:A *4603:A 0.000113512
4 *4601:A *4603:A 8.71761e-06
*RES
1 *4601:Y *4603:A 22.3009 
*END

*D_NET *230 0.000245473
*CONN
*I *4613:A I *D sky130_fd_sc_hd__inv_1
*I *4602:Y O *D sky130_fd_sc_hd__inv_1
*CAP
1 *4613:A 0.00010335
2 *4602:Y 0.00010335
3 *4613:A *4615:A 3.87742e-05
*RES
1 *4602:Y *4613:A 20.7205 
*END

*D_NET *231 0.00051857
*CONN
*I *4604:A I *D sky130_fd_sc_hd__inv_1
*I *4603:Y O *D sky130_fd_sc_hd__inv_1
*CAP
1 *4604:A 0.000252248
2 *4603:Y 0.000252248
3 *4604:A *4607:A 1.40749e-05
*RES
1 *4603:Y *4604:A 31.042 
*END

*D_NET *232 0.000585214
*CONN
*I *4605:A I *D sky130_fd_sc_hd__inv_1
*I *4604:Y O *D sky130_fd_sc_hd__inv_1
*CAP
1 *4605:A 0.000250646
2 *4604:Y 0.000250646
3 *4605:A *4606:A 5.33783e-05
4 *4605:A *4607:A 3.05446e-05
*RES
1 *4604:Y *4605:A 22.408 
*END

*D_NET *233 0.000118761
*CONN
*I *4606:A I *D sky130_fd_sc_hd__inv_1
*I *4605:Y O *D sky130_fd_sc_hd__inv_1
*CAP
1 *4606:A 3.26913e-05
2 *4605:Y 3.26913e-05
3 *4605:A *4606:A 5.33783e-05
*RES
1 *4605:Y *4606:A 19.4973 
*END

*D_NET *234 0.000577783
*CONN
*I *4607:A I *D sky130_fd_sc_hd__inv_1
*I *4606:Y O *D sky130_fd_sc_hd__inv_1
*CAP
1 *4607:A 0.000266582
2 *4606:Y 0.000266582
3 *4604:A *4607:A 1.40749e-05
4 *4605:A *4607:A 3.05446e-05
*RES
1 *4606:Y *4607:A 32.1045 
*END

*D_NET *235 0.000106793
*CONN
*I *4608:A I *D sky130_fd_sc_hd__inv_1
*I *4607:Y O *D sky130_fd_sc_hd__inv_1
*CAP
1 *4608:A 5.33963e-05
2 *4607:Y 5.33963e-05
*RES
1 *4607:Y *4608:A 19.4973 
*END

*D_NET *236 0.000106793
*CONN
*I *4609:A I *D sky130_fd_sc_hd__inv_1
*I *4608:Y O *D sky130_fd_sc_hd__inv_1
*CAP
1 *4609:A 5.33963e-05
2 *4608:Y 5.33963e-05
*RES
1 *4608:Y *4609:A 19.4973 
*END

*D_NET *237 0.000106793
*CONN
*I *4610:A I *D sky130_fd_sc_hd__inv_1
*I *4609:Y O *D sky130_fd_sc_hd__inv_1
*CAP
1 *4610:A 5.33963e-05
2 *4609:Y 5.33963e-05
*RES
1 *4609:Y *4610:A 19.4973 
*END

*D_NET *238 0.000106793
*CONN
*I *4611:A I *D sky130_fd_sc_hd__inv_1
*I *4610:Y O *D sky130_fd_sc_hd__inv_1
*CAP
1 *4611:A 5.33963e-05
2 *4610:Y 5.33963e-05
*RES
1 *4610:Y *4611:A 19.4973 
*END

*D_NET *239 0.000155673
*CONN
*I *4612:A I *D sky130_fd_sc_hd__inv_1
*I *4611:Y O *D sky130_fd_sc_hd__inv_1
*CAP
1 *4612:A 7.78365e-05
2 *4611:Y 7.78365e-05
*RES
1 *4611:Y *4612:A 19.908 
*END

*D_NET *240 0.000594311
*CONN
*I *4614:A I *D sky130_fd_sc_hd__inv_1
*I *4612:Y O *D sky130_fd_sc_hd__inv_1
*CAP
1 *4614:A 0.000297156
2 *4612:Y 0.000297156
3 *4602:A *4614:A 0
*RES
1 *4612:Y *4614:A 31.4973 
*END

*D_NET *241 0.00063171
*CONN
*I *4615:A I *D sky130_fd_sc_hd__inv_1
*I *4613:Y O *D sky130_fd_sc_hd__inv_1
*CAP
1 *4615:A 0.000272412
2 *4613:Y 0.000272412
3 *4615:A *4616:A 3.66576e-05
4 *4602:A *4615:A 1.14548e-05
5 *4613:A *4615:A 3.87742e-05
*RES
1 *4613:Y *4615:A 22.7741 
*END

*D_NET *242 0.000185957
*CONN
*I *4623:B I *D sky130_fd_sc_hd__nand2_1
*I *4614:Y O *D sky130_fd_sc_hd__inv_1
*CAP
1 *4623:B 9.29787e-05
2 *4614:Y 9.29787e-05
*RES
1 *4614:Y *4623:B 20.1625 
*END

*D_NET *243 0.000548193
*CONN
*I *4616:A I *D sky130_fd_sc_hd__inv_1
*I *4615:Y O *D sky130_fd_sc_hd__inv_1
*CAP
1 *4616:A 0.000214723
2 *4615:Y 0.000214723
3 *4616:A *4618:A 2.80789e-05
4 *4616:A *4620:A 1.37644e-05
5 *4616:A *4621:A 4.02462e-05
6 *4615:A *4616:A 3.66576e-05
*RES
1 *4615:Y *4616:A 30.9795 
*END

*D_NET *244 0.000931905
*CONN
*I *4617:A I *D sky130_fd_sc_hd__inv_1
*I *4616:Y O *D sky130_fd_sc_hd__inv_1
*CAP
1 *4617:A 0.000237649
2 *4616:Y 0.000237649
3 *4617:A *4618:A 0.000355648
4 *4617:A *4621:A 0.00010096
*RES
1 *4616:Y *4617:A 32.8812 
*END

*D_NET *245 0.00106126
*CONN
*I *4618:A I *D sky130_fd_sc_hd__inv_1
*I *4617:Y O *D sky130_fd_sc_hd__inv_1
*CAP
1 *4618:A 0.000223934
2 *4617:Y 0.000223934
3 *4618:A *4620:A 0.000166669
4 *4618:A *4621:A 6.30014e-05
5 *4616:A *4618:A 2.80789e-05
6 *4617:A *4618:A 0.000355648
*RES
1 *4617:Y *4618:A 33.6937 
*END

*D_NET *246 0.000164013
*CONN
*I *4619:A I *D sky130_fd_sc_hd__inv_1
*I *4618:Y O *D sky130_fd_sc_hd__inv_1
*CAP
1 *4619:A 5.41977e-05
2 *4618:Y 5.41977e-05
3 *4619:A *4620:A 5.56173e-05
*RES
1 *4618:Y *4619:A 19.8634 
*END

*D_NET *247 0.000798656
*CONN
*I *4620:A I *D sky130_fd_sc_hd__inv_1
*I *4619:Y O *D sky130_fd_sc_hd__inv_1
*CAP
1 *4620:A 0.000280352
2 *4619:Y 0.000280352
3 *4620:A *4621:A 1.90131e-06
4 *4616:A *4620:A 1.37644e-05
5 *4618:A *4620:A 0.000166669
6 *4619:A *4620:A 5.56173e-05
*RES
1 *4619:Y *4620:A 23.1848 
*END

*D_NET *248 0.000985474
*CONN
*I *4621:A I *D sky130_fd_sc_hd__inv_1
*I *4620:Y O *D sky130_fd_sc_hd__inv_1
*CAP
1 *4621:A 0.000382795
2 *4620:Y 0.000382795
3 *4593:A *4621:A 1.37743e-05
4 *4616:A *4621:A 4.02462e-05
5 *4617:A *4621:A 0.00010096
6 *4618:A *4621:A 6.30014e-05
7 *4620:A *4621:A 1.90131e-06
*RES
1 *4620:Y *4621:A 33.4259 
*END

*D_NET *249 0.000169665
*CONN
*I *4592:A I *D sky130_fd_sc_hd__inv_1
*I *4621:Y O *D sky130_fd_sc_hd__inv_1
*CAP
1 *4592:A 5.66829e-05
2 *4621:Y 5.66829e-05
3 *4593:A *4592:A 5.62995e-05
*RES
1 *4621:Y *4592:A 19.8634 
*END

*D_NET *250 0.00386854
*CONN
*I *4389:A0 I *D sky130_fd_sc_hd__mux4_2
*I *4622:X O *D sky130_fd_sc_hd__buf_1
*CAP
1 *4389:A0 0.000928863
2 *4622:X 0.000928863
3 *4389:A0 *4389:A1 0.000437749
4 *4389:A0 *4944:A 7.33793e-05
5 *4389:A0 *4945:A 3.33941e-05
6 *4389:A0 *4946:A 2.97126e-05
7 *4389:A0 *4947:A 9.52342e-05
8 *4389:A0 *4948:A 0.000224217
9 *4389:A0 *4949:A 9.57215e-05
10 *4389:A0 *4951:A 3.00023e-05
11 *4389:A0 *4952:A 0.000131829
12 *4389:A0 *4953:A 1.66856e-05
13 *4389:A0 *4970:A 2.80789e-05
14 *4389:A0 *4971:A 0.000133959
15 *4389:A0 *4974:A 8.7498e-05
16 *4389:A0 *588:6 6.6922e-05
17 *4368:B *4389:A0 6.87574e-05
18 *4389:S0 *4389:A0 3.24727e-05
19 *4391:A2 *4389:A0 0.00010096
20 *4596:A *4389:A0 0.000148602
21 *179:32 *4389:A0 7.85195e-05
22 *196:20 *4389:A0 9.71197e-05
*RES
1 *4622:X *4389:A0 40.9571 
*END

*D_NET *251 0.000591647
*CONN
*I *4655:A I *D sky130_fd_sc_hd__nand2_1
*I *4416:X O *D sky130_fd_sc_hd__and3_2
*CAP
1 *4655:A 0.000215897
2 *4416:X 0.000215897
3 *4655:A *4634:A 8.29398e-06
4 *4655:A *4645:A 0.000102974
5 *4655:A *4647:A 4.31992e-05
6 *4655:A *4655:B 5.38444e-06
7 *4416:C *4655:A 0
*RES
1 *4416:X *4655:A 22.8679 
*END

*D_NET *252 0.000277378
*CONN
*I *4634:A I *D sky130_fd_sc_hd__inv_1
*I *4655:Y O *D sky130_fd_sc_hd__nand2_1
*CAP
1 *4634:A 7.49514e-05
2 *4655:Y 7.49514e-05
3 *4634:A *4645:A 1.69175e-05
4 *4634:A *4655:B 0.000102264
5 *4655:A *4634:A 8.29398e-06
*RES
1 *4655:Y *4634:A 20.6223 
*END

*D_NET *253 0.00118448
*CONN
*I *4625:A I *D sky130_fd_sc_hd__inv_1
*I *4624:Y O *D sky130_fd_sc_hd__inv_1
*CAP
1 *4625:A 0.000356135
2 *4624:Y 0.000356135
3 *4625:A *4624:A 1.65787e-05
4 *4625:A *4626:A 0.000133958
5 *4625:A *4627:A 0.000200934
6 *4625:A *4628:A 0.000120736
7 *103:30 *4625:A 0
*RES
1 *4624:Y *4625:A 34.9259 
*END

*D_NET *254 0.000292266
*CONN
*I *4626:A I *D sky130_fd_sc_hd__inv_1
*I *4625:Y O *D sky130_fd_sc_hd__inv_1
*CAP
1 *4626:A 1.70199e-05
2 *4625:Y 1.70199e-05
3 *4626:A *4628:A 0.000124268
4 *4625:A *4626:A 0.000133958
*RES
1 *4625:Y *4626:A 19.8634 
*END

*D_NET *255 0.000548811
*CONN
*I *4627:A I *D sky130_fd_sc_hd__inv_1
*I *4626:Y O *D sky130_fd_sc_hd__inv_1
*CAP
1 *4627:A 0.00016046
2 *4626:Y 0.00016046
3 *4627:A *4628:A 2.69566e-05
4 *4625:A *4627:A 0.000200934
*RES
1 *4626:Y *4627:A 21.9527 
*END

*D_NET *256 0.000836384
*CONN
*I *4628:A I *D sky130_fd_sc_hd__inv_1
*I *4627:Y O *D sky130_fd_sc_hd__inv_1
*CAP
1 *4628:A 0.000204608
2 *4627:Y 0.000204608
3 *4628:A *4629:A 0.000155207
4 *4625:A *4628:A 0.000120736
5 *4626:A *4628:A 0.000124268
6 *4627:A *4628:A 2.69566e-05
*RES
1 *4627:Y *4628:A 23.4348 
*END

*D_NET *257 0.000636248
*CONN
*I *4629:A I *D sky130_fd_sc_hd__inv_1
*I *4628:Y O *D sky130_fd_sc_hd__inv_1
*CAP
1 *4629:A 0.000236282
2 *4628:Y 0.000236282
3 *4629:A *4654:A 8.47668e-06
4 *4628:A *4629:A 0.000155207
*RES
1 *4628:Y *4629:A 31.0866 
*END

*D_NET *258 0.0045458
*CONN
*I *4654:A I *D sky130_fd_sc_hd__buf_1
*I *4630:A I *D sky130_fd_sc_hd__inv_1
*I *4629:Y O *D sky130_fd_sc_hd__inv_1
*CAP
1 *4654:A 0.00150274
2 *4630:A 0.000417357
3 *4629:Y 0
4 *258:4 0.0019201
5 *4654:A *5537:A 6.98553e-06
6 *4654:A *5538:A 0.00027282
7 *4654:A *5545:A 6.98553e-06
8 *4654:A *5546:A 0.000308541
9 *4654:A *5548:A 6.65548e-05
10 *4654:A *5549:A 3.52408e-05
11 *4629:A *4654:A 8.47668e-06
*RES
1 *4629:Y *258:4 9.3 
2 *258:4 *4630:A 24.1259 
3 *258:4 *4654:A 29.8089 
*END

*D_NET *259 0.000204572
*CONN
*I *4631:A I *D sky130_fd_sc_hd__inv_1
*I *4630:Y O *D sky130_fd_sc_hd__inv_1
*CAP
1 *4631:A 0.000102286
2 *4630:Y 0.000102286
*RES
1 *4630:Y *4631:A 20.3188 
*END

*D_NET *260 0.000106793
*CONN
*I *4632:A I *D sky130_fd_sc_hd__inv_1
*I *4631:Y O *D sky130_fd_sc_hd__inv_1
*CAP
1 *4632:A 5.33963e-05
2 *4631:Y 5.33963e-05
*RES
1 *4631:Y *4632:A 19.4973 
*END

*D_NET *261 0.000160801
*CONN
*I *4633:A I *D sky130_fd_sc_hd__inv_1
*I *4632:Y O *D sky130_fd_sc_hd__inv_1
*CAP
1 *4633:A 7.51201e-05
2 *4632:Y 7.51201e-05
3 *4633:A *4635:A 1.05613e-05
*RES
1 *4632:Y *4633:A 19.8634 
*END

*D_NET *262 0.000336066
*CONN
*I *4635:A I *D sky130_fd_sc_hd__inv_1
*I *4633:Y O *D sky130_fd_sc_hd__inv_1
*CAP
1 *4635:A 0.000162753
2 *4633:Y 0.000162753
3 *4633:A *4635:A 1.05613e-05
*RES
1 *4633:Y *4635:A 30.1134 
*END

*D_NET *263 0.000592183
*CONN
*I *4645:A I *D sky130_fd_sc_hd__inv_1
*I *4634:Y O *D sky130_fd_sc_hd__inv_1
*CAP
1 *4645:A 0.000191869
2 *4634:Y 0.000191869
3 *4645:A *4655:B 8.85537e-05
4 *4634:A *4645:A 1.69175e-05
5 *4655:A *4645:A 0.000102974
*RES
1 *4634:Y *4645:A 22.2027 
*END

*D_NET *264 0.000481128
*CONN
*I *4636:A I *D sky130_fd_sc_hd__inv_1
*I *4635:Y O *D sky130_fd_sc_hd__inv_1
*CAP
1 *4636:A 0.000189219
2 *4635:Y 0.000189219
3 *4636:A *4637:A 7.51545e-05
4 *4636:A *4638:A 2.75364e-05
*RES
1 *4635:Y *4636:A 22.408 
*END

*D_NET *265 0.000188754
*CONN
*I *4637:A I *D sky130_fd_sc_hd__inv_1
*I *4636:Y O *D sky130_fd_sc_hd__inv_1
*CAP
1 *4637:A 2.86501e-05
2 *4636:Y 2.86501e-05
3 *4637:A *4638:A 5.62995e-05
4 *4636:A *4637:A 7.51545e-05
*RES
1 *4636:Y *4637:A 19.8634 
*END

*D_NET *266 0.000690672
*CONN
*I *4638:A I *D sky130_fd_sc_hd__inv_1
*I *4637:Y O *D sky130_fd_sc_hd__inv_1
*CAP
1 *4638:A 0.000303418
2 *4637:Y 0.000303418
3 *4636:A *4638:A 2.75364e-05
4 *4637:A *4638:A 5.62995e-05
*RES
1 *4637:Y *4638:A 31.908 
*END

*D_NET *267 0.00011689
*CONN
*I *4639:A I *D sky130_fd_sc_hd__inv_1
*I *4638:Y O *D sky130_fd_sc_hd__inv_1
*CAP
1 *4639:A 5.42009e-05
2 *4638:Y 5.42009e-05
3 *4639:A *4641:A 8.48822e-06
*RES
1 *4638:Y *4639:A 19.4973 
*END

*D_NET *268 0.000157042
*CONN
*I *4640:A I *D sky130_fd_sc_hd__inv_1
*I *4639:Y O *D sky130_fd_sc_hd__inv_1
*CAP
1 *4640:A 5.84327e-05
2 *4639:Y 5.84327e-05
3 *4640:A *4641:A 4.01768e-05
*RES
1 *4639:Y *4640:A 19.8634 
*END

*D_NET *269 0.000561974
*CONN
*I *4641:A I *D sky130_fd_sc_hd__inv_1
*I *4640:Y O *D sky130_fd_sc_hd__inv_1
*CAP
1 *4641:A 0.000256655
2 *4640:Y 0.000256655
3 *4639:A *4641:A 8.48822e-06
4 *4640:A *4641:A 4.01768e-05
*RES
1 *4640:Y *4641:A 31.3902 
*END

*D_NET *270 0.000106793
*CONN
*I *4642:A I *D sky130_fd_sc_hd__inv_1
*I *4641:Y O *D sky130_fd_sc_hd__inv_1
*CAP
1 *4642:A 5.33963e-05
2 *4641:Y 5.33963e-05
*RES
1 *4641:Y *4642:A 19.4973 
*END

*D_NET *271 0.000106793
*CONN
*I *4643:A I *D sky130_fd_sc_hd__inv_1
*I *4642:Y O *D sky130_fd_sc_hd__inv_1
*CAP
1 *4643:A 5.33963e-05
2 *4642:Y 5.33963e-05
*RES
1 *4642:Y *4643:A 19.4973 
*END

*D_NET *272 0.000106793
*CONN
*I *4644:A I *D sky130_fd_sc_hd__inv_1
*I *4643:Y O *D sky130_fd_sc_hd__inv_1
*CAP
1 *4644:A 5.33963e-05
2 *4643:Y 5.33963e-05
*RES
1 *4643:Y *4644:A 19.4973 
*END

*D_NET *273 0.000253437
*CONN
*I *4646:A I *D sky130_fd_sc_hd__inv_1
*I *4644:Y O *D sky130_fd_sc_hd__inv_1
*CAP
1 *4646:A 0.000126719
2 *4644:Y 0.000126719
*RES
1 *4644:Y *4646:A 20.7295 
*END

*D_NET *274 0.000815972
*CONN
*I *4647:A I *D sky130_fd_sc_hd__inv_1
*I *4645:Y O *D sky130_fd_sc_hd__inv_1
*CAP
1 *4647:A 0.000236949
2 *4645:Y 0.000236949
3 *4647:A *4648:A 7.70668e-05
4 *4647:A *4649:A 3.94104e-05
5 *4647:A *4650:A 0.000142152
6 *4647:A *4651:A 4.02462e-05
7 *4655:A *4647:A 4.31992e-05
*RES
1 *4645:Y *4647:A 32.658 
*END

*D_NET *275 0.000396142
*CONN
*I *4655:B I *D sky130_fd_sc_hd__nand2_1
*I *4646:Y O *D sky130_fd_sc_hd__inv_1
*CAP
1 *4655:B 9.99702e-05
2 *4646:Y 9.99702e-05
3 *4634:A *4655:B 0.000102264
4 *4645:A *4655:B 8.85537e-05
5 *4655:A *4655:B 5.38444e-06
*RES
1 *4646:Y *4655:B 21.0018 
*END

*D_NET *276 0.000230948
*CONN
*I *4648:A I *D sky130_fd_sc_hd__inv_1
*I *4647:Y O *D sky130_fd_sc_hd__inv_1
*CAP
1 *4648:A 3.67809e-05
2 *4647:Y 3.67809e-05
3 *4648:A *4649:A 5.15294e-05
4 *4648:A *4650:A 2.87898e-05
5 *4647:A *4648:A 7.70668e-05
*RES
1 *4647:Y *4648:A 19.8634 
*END

*D_NET *277 0.000484566
*CONN
*I *4649:A I *D sky130_fd_sc_hd__inv_1
*I *4648:Y O *D sky130_fd_sc_hd__inv_1
*CAP
1 *4649:A 0.000183335
2 *4648:Y 0.000183335
3 *4649:A *4650:A 2.69566e-05
4 *4647:A *4649:A 3.94104e-05
5 *4648:A *4649:A 5.15294e-05
*RES
1 *4648:Y *4649:A 21.9527 
*END

*D_NET *278 0.000835455
*CONN
*I *4650:A I *D sky130_fd_sc_hd__inv_1
*I *4649:Y O *D sky130_fd_sc_hd__inv_1
*CAP
1 *4650:A 0.000304582
2 *4649:Y 0.000304582
3 *4650:A *4651:A 2.83922e-05
4 *4647:A *4650:A 0.000142152
5 *4648:A *4650:A 2.87898e-05
6 *4649:A *4650:A 2.69566e-05
*RES
1 *4649:Y *4650:A 23.1848 
*END

*D_NET *279 0.000787953
*CONN
*I *4651:A I *D sky130_fd_sc_hd__inv_1
*I *4650:Y O *D sky130_fd_sc_hd__inv_1
*CAP
1 *4651:A 0.000338343
2 *4650:Y 0.000338343
3 *4651:A *4652:A 1.63274e-05
4 *4651:A *4653:A 2.63017e-05
5 *4647:A *4651:A 4.02462e-05
6 *4650:A *4651:A 2.83922e-05
*RES
1 *4650:Y *4651:A 32.8277 
*END

*D_NET *280 0.000275132
*CONN
*I *4652:A I *D sky130_fd_sc_hd__inv_1
*I *4651:Y O *D sky130_fd_sc_hd__inv_1
*CAP
1 *4652:A 7.23045e-05
2 *4651:Y 7.23045e-05
3 *4652:A *4624:A 2.40086e-05
4 *4652:A *4653:A 9.01869e-05
5 *4651:A *4652:A 1.63274e-05
*RES
1 *4651:Y *4652:A 20.417 
*END

*D_NET *281 0.000546705
*CONN
*I *4653:A I *D sky130_fd_sc_hd__inv_1
*I *4652:Y O *D sky130_fd_sc_hd__inv_1
*CAP
1 *4653:A 0.00010647
2 *4652:Y 0.00010647
3 *4653:A *4624:A 0.000217276
4 *4651:A *4653:A 2.63017e-05
5 *4652:A *4653:A 9.01869e-05
*RES
1 *4652:Y *4653:A 21.9527 
*END

*D_NET *282 0.000896048
*CONN
*I *4624:A I *D sky130_fd_sc_hd__inv_1
*I *4653:Y O *D sky130_fd_sc_hd__inv_1
*CAP
1 *4624:A 0.000319093
2 *4653:Y 0.000319093
3 *4625:A *4624:A 1.65787e-05
4 *4652:A *4624:A 2.40086e-05
5 *4653:A *4624:A 0.000217276
*RES
1 *4653:Y *4624:A 23.4884 
*END

*D_NET *283 0.000500808
*CONN
*I *4392:A2 I *D sky130_fd_sc_hd__mux4_2
*I *4654:X O *D sky130_fd_sc_hd__buf_1
*CAP
1 *4392:A2 0.00015707
2 *4654:X 0.00015707
3 *4392:A2 *4392:A3 0.000186669
*RES
1 *4654:X *4392:A2 20.7786 
*END

*D_NET *284 0.000133696
*CONN
*I *4687:A I *D sky130_fd_sc_hd__nand2_1
*I *4417:X O *D sky130_fd_sc_hd__and3_2
*CAP
1 *4687:A 1.1624e-05
2 *4417:X 1.1624e-05
3 *4687:A *4666:A 5.52238e-05
4 *98:20 *4687:A 5.52238e-05
*RES
1 *4417:X *4687:A 19.1357 
*END

*D_NET *285 0.00101916
*CONN
*I *4666:A I *D sky130_fd_sc_hd__inv_1
*I *4687:Y O *D sky130_fd_sc_hd__nand2_1
*CAP
1 *4666:A 0.000214384
2 *4687:Y 0.000214384
3 *4666:A *4677:A 0.000134772
4 *4666:A *4679:A 1.96517e-05
5 *4417:B *4666:A 0.000122101
6 *4687:A *4666:A 5.52238e-05
7 *98:16 *4666:A 0.000116576
8 *98:20 *4666:A 0.000142063
*RES
1 *4687:Y *4666:A 25.1848 
*END

*D_NET *286 0.000383663
*CONN
*I *4657:A I *D sky130_fd_sc_hd__inv_1
*I *4656:Y O *D sky130_fd_sc_hd__inv_1
*CAP
1 *4657:A 0.000166717
2 *4656:Y 0.000166717
3 *4657:A *4656:A 3.87742e-05
4 *4657:A *4685:A 1.14548e-05
*RES
1 *4656:Y *4657:A 21.5866 
*END

*D_NET *287 0.000154766
*CONN
*I *4658:A I *D sky130_fd_sc_hd__inv_1
*I *4657:Y O *D sky130_fd_sc_hd__inv_1
*CAP
1 *4658:A 6.75572e-05
2 *4657:Y 6.75572e-05
3 *4658:A *4659:A 1.96517e-05
*RES
1 *4657:Y *4658:A 19.8634 
*END

*D_NET *288 0.00031674
*CONN
*I *4659:A I *D sky130_fd_sc_hd__inv_1
*I *4658:Y O *D sky130_fd_sc_hd__inv_1
*CAP
1 *4659:A 0.000148544
2 *4658:Y 0.000148544
3 *4659:A *5592:A 0
4 *4658:A *4659:A 1.96517e-05
*RES
1 *4658:Y *4659:A 29.8545 
*END

*D_NET *289 0.000157042
*CONN
*I *4660:A I *D sky130_fd_sc_hd__inv_1
*I *4659:Y O *D sky130_fd_sc_hd__inv_1
*CAP
1 *4660:A 5.84326e-05
2 *4659:Y 5.84326e-05
3 *4660:A *4661:A 4.01768e-05
*RES
1 *4659:Y *4660:A 19.8634 
*END

*D_NET *290 0.000561178
*CONN
*I *4661:A I *D sky130_fd_sc_hd__inv_1
*I *4660:Y O *D sky130_fd_sc_hd__inv_1
*CAP
1 *4661:A 0.000232415
2 *4660:Y 0.000232415
3 *4661:A *4662:A 2.80853e-05
4 *4661:A *4663:A 0
5 *4661:A *5590:A 0
6 *4660:A *4661:A 4.01768e-05
7 *103:24 *4661:A 2.80853e-05
*RES
1 *4660:Y *4661:A 30.9795 
*END

*D_NET *291 0.000603084
*CONN
*I *4686:A I *D sky130_fd_sc_hd__buf_1
*I *4662:A I *D sky130_fd_sc_hd__inv_1
*I *4661:Y O *D sky130_fd_sc_hd__inv_1
*CAP
1 *4686:A 6.06056e-05
2 *4662:A 8.89811e-05
3 *4661:Y 0
4 *291:4 0.000149587
5 *4661:A *4662:A 2.80853e-05
6 *103:24 *4662:A 0.000109147
7 *103:24 *4686:A 0.000166679
*RES
1 *4661:Y *291:4 9.3 
2 *291:4 *4662:A 11.5723 
3 *291:4 *4686:A 11.2911 
*END

*D_NET *292 0.000483663
*CONN
*I *4663:A I *D sky130_fd_sc_hd__inv_1
*I *4662:Y O *D sky130_fd_sc_hd__inv_1
*CAP
1 *4663:A 0.000224869
2 *4662:Y 0.000224869
3 *4661:A *4663:A 0
4 *103:24 *4663:A 3.39243e-05
*RES
1 *4662:Y *4663:A 30.9795 
*END

*D_NET *293 0.000204789
*CONN
*I *4664:A I *D sky130_fd_sc_hd__inv_1
*I *4663:Y O *D sky130_fd_sc_hd__inv_1
*CAP
1 *4664:A 0.000102394
2 *4663:Y 0.000102394
*RES
1 *4663:Y *4664:A 20.3188 
*END

*D_NET *294 0.000456012
*CONN
*I *4665:A I *D sky130_fd_sc_hd__inv_1
*I *4664:Y O *D sky130_fd_sc_hd__inv_1
*CAP
1 *4665:A 0.000228006
2 *4664:Y 0.000228006
*RES
1 *4664:Y *4665:A 31.0866 
*END

*D_NET *295 0.000106793
*CONN
*I *4667:A I *D sky130_fd_sc_hd__inv_1
*I *4665:Y O *D sky130_fd_sc_hd__inv_1
*CAP
1 *4667:A 5.33963e-05
2 *4665:Y 5.33963e-05
*RES
1 *4665:Y *4667:A 19.4973 
*END

*D_NET *296 0.000299235
*CONN
*I *4677:A I *D sky130_fd_sc_hd__inv_1
*I *4666:Y O *D sky130_fd_sc_hd__inv_1
*CAP
1 *4677:A 1.48454e-05
2 *4666:Y 1.48454e-05
3 *4666:A *4677:A 0.000134772
4 *98:16 *4677:A 0.000134772
*RES
1 *4666:Y *4677:A 19.8634 
*END

*D_NET *297 0.000353536
*CONN
*I *4668:A I *D sky130_fd_sc_hd__inv_1
*I *4667:Y O *D sky130_fd_sc_hd__inv_1
*CAP
1 *4668:A 0.000148392
2 *4667:Y 0.000148392
3 *174:77 *4668:A 1.88048e-05
4 *174:94 *4668:A 3.79467e-05
*RES
1 *4667:Y *4668:A 30.158 
*END

*D_NET *298 0.000138549
*CONN
*I *4669:A I *D sky130_fd_sc_hd__inv_1
*I *4668:Y O *D sky130_fd_sc_hd__inv_1
*CAP
1 *4669:A 5.5235e-05
2 *4668:Y 5.5235e-05
3 *4416:C *4669:A 2.80789e-05
*RES
1 *4668:Y *4669:A 19.4973 
*END

*D_NET *299 0.000176006
*CONN
*I *4670:A I *D sky130_fd_sc_hd__inv_1
*I *4669:Y O *D sky130_fd_sc_hd__inv_1
*CAP
1 *4670:A 4.16135e-05
2 *4669:Y 4.16135e-05
3 *4416:C *4670:A 9.27788e-05
*RES
1 *4669:Y *4670:A 19.4973 
*END

*D_NET *300 0.000536036
*CONN
*I *4671:A I *D sky130_fd_sc_hd__inv_1
*I *4670:Y O *D sky130_fd_sc_hd__inv_1
*CAP
1 *4671:A 0.000182294
2 *4670:Y 0.000182294
3 *4413:A *4671:A 6.5185e-05
4 *4416:A *4671:A 9.57017e-05
5 *4416:C *4671:A 1.05613e-05
*RES
1 *4670:Y *4671:A 31.0866 
*END

*D_NET *301 0.000109317
*CONN
*I *4672:A I *D sky130_fd_sc_hd__inv_1
*I *4671:Y O *D sky130_fd_sc_hd__inv_1
*CAP
1 *4672:A 5.46587e-05
2 *4671:Y 5.46587e-05
*RES
1 *4671:Y *4672:A 19.4973 
*END

*D_NET *302 0.000419426
*CONN
*I *4673:A I *D sky130_fd_sc_hd__inv_1
*I *4672:Y O *D sky130_fd_sc_hd__inv_1
*CAP
1 *4673:A 0.000201611
2 *4672:Y 0.000201611
3 *4673:A *4675:A 1.62049e-05
*RES
1 *4672:Y *4673:A 30.5688 
*END

*D_NET *303 0.000171637
*CONN
*I *4674:A I *D sky130_fd_sc_hd__inv_1
*I *4673:Y O *D sky130_fd_sc_hd__inv_1
*CAP
1 *4674:A 5.95304e-05
2 *4673:Y 5.95304e-05
3 *4674:A *4675:A 5.25759e-05
*RES
1 *4673:Y *4674:A 19.8634 
*END

*D_NET *304 0.00048475
*CONN
*I *4675:A I *D sky130_fd_sc_hd__inv_1
*I *4674:Y O *D sky130_fd_sc_hd__inv_1
*CAP
1 *4675:A 0.000207985
2 *4674:Y 0.000207985
3 *4673:A *4675:A 1.62049e-05
4 *4674:A *4675:A 5.25759e-05
*RES
1 *4674:Y *4675:A 21.5866 
*END

*D_NET *305 0.000107334
*CONN
*I *4676:A I *D sky130_fd_sc_hd__inv_1
*I *4675:Y O *D sky130_fd_sc_hd__inv_1
*CAP
1 *4676:A 5.36668e-05
2 *4675:Y 5.36668e-05
*RES
1 *4675:Y *4676:A 19.4973 
*END

*D_NET *306 0.000109281
*CONN
*I *4678:A I *D sky130_fd_sc_hd__inv_1
*I *4676:Y O *D sky130_fd_sc_hd__inv_1
*CAP
1 *4678:A 5.46406e-05
2 *4676:Y 5.46406e-05
*RES
1 *4676:Y *4678:A 19.4973 
*END

*D_NET *307 0.000636654
*CONN
*I *4679:A I *D sky130_fd_sc_hd__inv_1
*I *4677:Y O *D sky130_fd_sc_hd__inv_1
*CAP
1 *4679:A 0.000266995
2 *4677:Y 0.000266995
3 *4679:A *4680:A 5.32786e-05
4 *4679:A *4681:A 2.97343e-05
5 *4666:A *4679:A 1.96517e-05
6 *174:77 *4679:A 0
*RES
1 *4677:Y *4679:A 31.8634 
*END

*D_NET *308 0.000107821
*CONN
*I *4687:B I *D sky130_fd_sc_hd__nand2_1
*I *4678:Y O *D sky130_fd_sc_hd__inv_1
*CAP
1 *4687:B 4.4265e-05
2 *4678:Y 4.4265e-05
3 *4417:B *4687:B 1.92905e-05
*RES
1 *4678:Y *4687:B 19.3411 
*END

*D_NET *309 0.00027948
*CONN
*I *4680:A I *D sky130_fd_sc_hd__inv_1
*I *4679:Y O *D sky130_fd_sc_hd__inv_1
*CAP
1 *4680:A 6.49248e-05
2 *4679:Y 6.49248e-05
3 *4680:A *4681:A 9.63518e-05
4 *4679:A *4680:A 5.32786e-05
*RES
1 *4679:Y *4680:A 20.417 
*END

*D_NET *310 0.000481032
*CONN
*I *4681:A I *D sky130_fd_sc_hd__inv_1
*I *4680:Y O *D sky130_fd_sc_hd__inv_1
*CAP
1 *4681:A 0.000157557
2 *4680:Y 0.000157557
3 *4681:A *4682:A 3.98316e-05
4 *4679:A *4681:A 2.97343e-05
5 *4680:A *4681:A 9.63518e-05
*RES
1 *4680:Y *4681:A 21.9527 
*END

*D_NET *311 0.000393524
*CONN
*I *4682:A I *D sky130_fd_sc_hd__inv_1
*I *4681:Y O *D sky130_fd_sc_hd__inv_1
*CAP
1 *4682:A 0.000176846
2 *4681:Y 0.000176846
3 *4681:A *4682:A 3.98316e-05
*RES
1 *4681:Y *4682:A 30.2652 
*END

*D_NET *312 0.000106793
*CONN
*I *4683:A I *D sky130_fd_sc_hd__inv_1
*I *4682:Y O *D sky130_fd_sc_hd__inv_1
*CAP
1 *4683:A 5.33963e-05
2 *4682:Y 5.33963e-05
*RES
1 *4682:Y *4683:A 19.4973 
*END

*D_NET *313 0.000106793
*CONN
*I *4684:A I *D sky130_fd_sc_hd__inv_1
*I *4683:Y O *D sky130_fd_sc_hd__inv_1
*CAP
1 *4684:A 5.33963e-05
2 *4683:Y 5.33963e-05
*RES
1 *4683:Y *4684:A 19.4973 
*END

*D_NET *314 0.00038894
*CONN
*I *4685:A I *D sky130_fd_sc_hd__inv_1
*I *4684:Y O *D sky130_fd_sc_hd__inv_1
*CAP
1 *4685:A 0.000188743
2 *4684:Y 0.000188743
3 *4657:A *4685:A 1.14548e-05
*RES
1 *4684:Y *4685:A 30.1134 
*END

*D_NET *315 0.000278086
*CONN
*I *4656:A I *D sky130_fd_sc_hd__inv_1
*I *4685:Y O *D sky130_fd_sc_hd__inv_1
*CAP
1 *4656:A 0.000119656
2 *4685:Y 0.000119656
3 *4657:A *4656:A 3.87742e-05
*RES
1 *4685:Y *4656:A 20.7205 
*END

*D_NET *316 0.000651486
*CONN
*I *4392:A3 I *D sky130_fd_sc_hd__mux4_2
*I *4686:X O *D sky130_fd_sc_hd__buf_1
*CAP
1 *4392:A3 0.000232409
2 *4686:X 0.000232409
3 *4392:A2 *4392:A3 0.000186669
4 *179:128 *4392:A3 0
*RES
1 *4686:X *4392:A3 31.9393 
*END

*D_NET *317 0.000126884
*CONN
*I *4719:A I *D sky130_fd_sc_hd__nand2_1
*I *4418:X O *D sky130_fd_sc_hd__and3_2
*CAP
1 *4719:A 6.29488e-06
2 *4418:X 6.29488e-06
3 *4418:C *4719:A 5.71472e-05
4 *175:35 *4719:A 5.71472e-05
*RES
1 *4418:X *4719:A 19.1357 
*END

*D_NET *318 0.000553776
*CONN
*I *4698:A I *D sky130_fd_sc_hd__inv_1
*I *4719:Y O *D sky130_fd_sc_hd__nand2_1
*CAP
1 *4698:A 0.0001536
2 *4719:Y 0.0001536
3 *4418:B *4698:A 0
4 *101:48 *4698:A 8.706e-05
5 *174:22 *4698:A 0.000159517
*RES
1 *4719:Y *4698:A 31.0598 
*END

*D_NET *319 0.000171126
*CONN
*I *4689:A I *D sky130_fd_sc_hd__inv_1
*I *4688:Y O *D sky130_fd_sc_hd__inv_1
*CAP
1 *4689:A 8.02821e-05
2 *4688:Y 8.02821e-05
3 *4689:A *4690:A 1.05613e-05
*RES
1 *4688:Y *4689:A 19.8634 
*END

*D_NET *320 0.000597164
*CONN
*I *4690:A I *D sky130_fd_sc_hd__inv_1
*I *4689:Y O *D sky130_fd_sc_hd__inv_1
*CAP
1 *4690:A 0.000245896
2 *4689:Y 0.000245896
3 *4690:A *4691:A 9.48112e-05
4 *4690:A *4716:A 0
5 *4689:A *4690:A 1.05613e-05
6 *174:28 *4690:A 0
*RES
1 *4689:Y *4690:A 32.1759 
*END

*D_NET *321 0.000163977
*CONN
*I *4691:A I *D sky130_fd_sc_hd__inv_1
*I *4690:Y O *D sky130_fd_sc_hd__inv_1
*CAP
1 *4691:A 3.45827e-05
2 *4690:Y 3.45827e-05
3 *4690:A *4691:A 9.48112e-05
*RES
1 *4690:Y *4691:A 19.4973 
*END

*D_NET *322 0.000106793
*CONN
*I *4692:A I *D sky130_fd_sc_hd__inv_1
*I *4691:Y O *D sky130_fd_sc_hd__inv_1
*CAP
1 *4692:A 5.33963e-05
2 *4691:Y 5.33963e-05
*RES
1 *4691:Y *4692:A 19.4973 
*END

*D_NET *323 0.000156178
*CONN
*I *4693:A I *D sky130_fd_sc_hd__inv_1
*I *4692:Y O *D sky130_fd_sc_hd__inv_1
*CAP
1 *4693:A 7.80889e-05
2 *4692:Y 7.80889e-05
*RES
1 *4692:Y *4693:A 19.908 
*END

*D_NET *324 0.00100339
*CONN
*I *4718:A I *D sky130_fd_sc_hd__buf_1
*I *4694:A I *D sky130_fd_sc_hd__inv_1
*I *4693:Y O *D sky130_fd_sc_hd__inv_1
*CAP
1 *4718:A 0
2 *4694:A 0.000144967
3 *4693:Y 7.69869e-05
4 *324:6 0.000221954
5 *4391:B1 *324:6 5.41609e-05
6 *98:77 *4694:A 9.77274e-05
7 *101:54 *4694:A 0.000244207
8 *130:12 *4694:A 9.14882e-05
9 *174:22 *4694:A 7.18982e-05
10 *174:28 *4694:A 0
*RES
1 *4693:Y *324:6 10.8625 
2 *324:6 *4694:A 22.8848 
3 *324:6 *4718:A 9.3 
*END

*D_NET *325 0.000212531
*CONN
*I *4695:A I *D sky130_fd_sc_hd__inv_1
*I *4694:Y O *D sky130_fd_sc_hd__inv_1
*CAP
1 *4695:A 1.05439e-05
2 *4694:Y 1.05439e-05
3 *101:54 *4695:A 9.57215e-05
4 *174:22 *4695:A 9.57215e-05
*RES
1 *4694:Y *4695:A 19.4973 
*END

*D_NET *326 0.000212559
*CONN
*I *4696:A I *D sky130_fd_sc_hd__inv_1
*I *4695:Y O *D sky130_fd_sc_hd__inv_1
*CAP
1 *4696:A 1.05718e-05
2 *4695:Y 1.05718e-05
3 *101:54 *4696:A 9.57078e-05
4 *174:22 *4696:A 9.57078e-05
*RES
1 *4695:Y *4696:A 19.4973 
*END

*D_NET *327 0.000736811
*CONN
*I *4697:A I *D sky130_fd_sc_hd__inv_1
*I *4696:Y O *D sky130_fd_sc_hd__inv_1
*CAP
1 *4697:A 0.000205551
2 *4696:Y 0.000205551
3 *98:77 *4697:A 7.64755e-05
4 *100:78 *4697:A 0.000116768
5 *175:35 *4697:A 0.000132465
*RES
1 *4696:Y *4697:A 31.3902 
*END

*D_NET *328 0.000214423
*CONN
*I *4699:A I *D sky130_fd_sc_hd__inv_1
*I *4697:Y O *D sky130_fd_sc_hd__inv_1
*CAP
1 *4699:A 1.24142e-05
2 *4697:Y 1.24142e-05
3 *100:78 *4699:A 9.47974e-05
4 *175:35 *4699:A 9.47974e-05
*RES
1 *4697:Y *4699:A 19.4973 
*END

*D_NET *329 0.000301589
*CONN
*I *4709:A I *D sky130_fd_sc_hd__inv_1
*I *4698:Y O *D sky130_fd_sc_hd__inv_1
*CAP
1 *4709:A 2.40865e-05
2 *4698:Y 2.40865e-05
3 *101:48 *4709:A 1.06439e-05
4 *101:54 *4709:A 0.000110942
5 *174:22 *4709:A 0.000131829
*RES
1 *4698:Y *4709:A 19.8634 
*END

*D_NET *330 0.000214423
*CONN
*I *4700:A I *D sky130_fd_sc_hd__inv_1
*I *4699:Y O *D sky130_fd_sc_hd__inv_1
*CAP
1 *4700:A 1.24142e-05
2 *4699:Y 1.24142e-05
3 *100:78 *4700:A 9.47974e-05
4 *175:35 *4700:A 9.47974e-05
*RES
1 *4699:Y *4700:A 19.4973 
*END

*D_NET *331 0.000584833
*CONN
*I *4701:A I *D sky130_fd_sc_hd__inv_1
*I *4700:Y O *D sky130_fd_sc_hd__inv_1
*CAP
1 *4701:A 0.000249757
2 *4700:Y 0.000249757
3 *4701:A *4745:A 9.11048e-06
4 *4701:A *4751:A 0
5 *100:78 *4701:A 7.62083e-05
*RES
1 *4700:Y *4701:A 31.4973 
*END

*D_NET *332 0.000106811
*CONN
*I *4702:A I *D sky130_fd_sc_hd__inv_1
*I *4701:Y O *D sky130_fd_sc_hd__inv_1
*CAP
1 *4702:A 5.34057e-05
2 *4701:Y 5.34057e-05
*RES
1 *4701:Y *4702:A 19.4973 
*END

*D_NET *333 0.000429822
*CONN
*I *4703:A I *D sky130_fd_sc_hd__inv_1
*I *4702:Y O *D sky130_fd_sc_hd__inv_1
*CAP
1 *4703:A 0.00018784
2 *4702:Y 0.00018784
3 *4703:A *4705:A 2.524e-05
4 *4703:A *4707:A 0
5 *100:56 *4703:A 2.89016e-05
*RES
1 *4702:Y *4703:A 30.5241 
*END

*D_NET *334 0.000258962
*CONN
*I *4704:A I *D sky130_fd_sc_hd__inv_1
*I *4703:Y O *D sky130_fd_sc_hd__inv_1
*CAP
1 *4704:A 0.000109393
2 *4703:Y 0.000109393
3 *4704:A *4705:A 4.01768e-05
*RES
1 *4703:Y *4704:A 20.6536 
*END

*D_NET *335 0.000677787
*CONN
*I *4705:A I *D sky130_fd_sc_hd__inv_1
*I *4704:Y O *D sky130_fd_sc_hd__inv_1
*CAP
1 *4705:A 0.000238799
2 *4704:Y 0.000238799
3 *4705:A *4706:A 0.000134772
4 *4703:A *4705:A 2.524e-05
5 *4704:A *4705:A 4.01768e-05
*RES
1 *4704:Y *4705:A 23.3366 
*END

*D_NET *336 0.00022267
*CONN
*I *4706:A I *D sky130_fd_sc_hd__inv_1
*I *4705:Y O *D sky130_fd_sc_hd__inv_1
*CAP
1 *4706:A 3.69369e-05
2 *4705:Y 3.69369e-05
3 *4706:A *4707:A 1.4024e-05
4 *4705:A *4706:A 0.000134772
*RES
1 *4705:Y *4706:A 19.8634 
*END

*D_NET *337 0.000714322
*CONN
*I *4707:A I *D sky130_fd_sc_hd__inv_1
*I *4706:Y O *D sky130_fd_sc_hd__inv_1
*CAP
1 *4707:A 0.000184024
2 *4706:Y 0.000184024
3 *4707:A *4708:A 5.59013e-05
4 *4707:A *4719:B 7.77751e-05
5 *4703:A *4707:A 0
6 *4706:A *4707:A 1.4024e-05
7 *100:56 *4707:A 0.000198574
*RES
1 *4706:Y *4707:A 31.7563 
*END

*D_NET *338 0.00146214
*CONN
*I *4708:A I *D sky130_fd_sc_hd__inv_1
*I *4707:Y O *D sky130_fd_sc_hd__inv_1
*CAP
1 *4708:A 0.000297799
2 *4707:Y 0.000297799
3 *4708:A *4710:A 6.0562e-05
4 *4708:A *4719:B 0
5 *4418:C *4708:A 9.60875e-05
6 *4707:A *4708:A 5.59013e-05
7 *100:56 *4708:A 0.000205626
8 *100:78 *4708:A 0.000110942
9 *102:49 *4708:A 5.41794e-05
10 *175:35 *4708:A 0.000283245
*RES
1 *4707:Y *4708:A 35.1312 
*END

*D_NET *339 0.000751919
*CONN
*I *4710:A I *D sky130_fd_sc_hd__inv_1
*I *4708:Y O *D sky130_fd_sc_hd__inv_1
*CAP
1 *4710:A 0.000182043
2 *4708:Y 0.000182043
3 *4708:A *4710:A 6.0562e-05
4 *100:56 *4710:A 0.000245678
5 *100:78 *4710:A 7.71303e-05
6 *102:49 *4710:A 4.46186e-06
*RES
1 *4708:Y *4710:A 31.4973 
*END

*D_NET *340 0.000362975
*CONN
*I *4711:A I *D sky130_fd_sc_hd__inv_1
*I *4709:Y O *D sky130_fd_sc_hd__inv_1
*CAP
1 *4711:A 0.000153515
2 *4709:Y 0.000153515
3 *4711:A *4713:A 1.14548e-05
4 *4418:B *4711:A 9.25014e-06
5 *101:54 *4711:A 3.52408e-05
*RES
1 *4709:Y *4711:A 29.8098 
*END

*D_NET *341 0.000565826
*CONN
*I *4719:B I *D sky130_fd_sc_hd__nand2_1
*I *4710:Y O *D sky130_fd_sc_hd__inv_1
*CAP
1 *4719:B 0.000240994
2 *4710:Y 0.000240994
3 *4707:A *4719:B 7.77751e-05
4 *4708:A *4719:B 0
5 *100:56 *4719:B 6.06291e-06
*RES
1 *4710:Y *4719:B 30.8054 
*END

*D_NET *342 0.000245454
*CONN
*I *4712:A I *D sky130_fd_sc_hd__inv_1
*I *4711:Y O *D sky130_fd_sc_hd__inv_1
*CAP
1 *4712:A 0.000103334
2 *4711:Y 0.000103334
3 *4712:A *4713:A 3.8785e-05
*RES
1 *4711:Y *4712:A 20.7205 
*END

*D_NET *343 0.000463539
*CONN
*I *4713:A I *D sky130_fd_sc_hd__inv_1
*I *4712:Y O *D sky130_fd_sc_hd__inv_1
*CAP
1 *4713:A 0.00020665
2 *4712:Y 0.00020665
3 *4711:A *4713:A 1.14548e-05
4 *4712:A *4713:A 3.8785e-05
*RES
1 *4712:Y *4713:A 21.5866 
*END

*D_NET *344 0.000351448
*CONN
*I *4714:A I *D sky130_fd_sc_hd__inv_1
*I *4713:Y O *D sky130_fd_sc_hd__inv_1
*CAP
1 *4714:A 0.00015756
2 *4713:Y 0.00015756
3 *4714:A *4715:A 3.63281e-05
*RES
1 *4713:Y *4714:A 30.158 
*END

*D_NET *345 0.00037101
*CONN
*I *4715:A I *D sky130_fd_sc_hd__inv_1
*I *4714:Y O *D sky130_fd_sc_hd__inv_1
*CAP
1 *4715:A 0.000149173
2 *4714:Y 0.000149173
3 *4715:A *4716:A 3.6337e-05
4 *4714:A *4715:A 3.63281e-05
*RES
1 *4714:Y *4715:A 30.158 
*END

*D_NET *346 0.000360539
*CONN
*I *4716:A I *D sky130_fd_sc_hd__inv_1
*I *4715:Y O *D sky130_fd_sc_hd__inv_1
*CAP
1 *4716:A 0.000162101
2 *4715:Y 0.000162101
3 *4690:A *4716:A 0
4 *4715:A *4716:A 3.6337e-05
*RES
1 *4715:Y *4716:A 30.158 
*END

*D_NET *347 0.000107333
*CONN
*I *4717:A I *D sky130_fd_sc_hd__inv_1
*I *4716:Y O *D sky130_fd_sc_hd__inv_1
*CAP
1 *4717:A 5.36667e-05
2 *4716:Y 5.36667e-05
*RES
1 *4716:Y *4717:A 19.4973 
*END

*D_NET *348 0.000126333
*CONN
*I *4688:A I *D sky130_fd_sc_hd__inv_1
*I *4717:Y O *D sky130_fd_sc_hd__inv_1
*CAP
1 *4688:A 6.31666e-05
2 *4717:Y 6.31666e-05
*RES
1 *4717:Y *4688:A 19.4973 
*END

*D_NET *349 0.000334723
*CONN
*I *4390:A0 I *D sky130_fd_sc_hd__mux4_2
*I *4718:X O *D sky130_fd_sc_hd__buf_1
*CAP
1 *4390:A0 0.000157847
2 *4718:X 0.000157847
3 *4391:B1 *4390:A0 1.90303e-05
*RES
1 *4718:X *4390:A0 20.7964 
*END

*D_NET *350 0.000864656
*CONN
*I *4751:A I *D sky130_fd_sc_hd__nand2_1
*I *4419:X O *D sky130_fd_sc_hd__and3_2
*CAP
1 *4751:A 0.000326247
2 *4419:X 0.000326247
3 *4751:A *4730:A 3.8624e-05
4 *4751:A *4745:A 0
5 *4751:A *4746:A 0.000104974
6 *4751:A *4751:B 1.33343e-05
7 *4701:A *4751:A 0
8 *100:78 *4751:A 5.52302e-05
*RES
1 *4419:X *4751:A 33.7071 
*END

*D_NET *351 0.000229332
*CONN
*I *4730:A I *D sky130_fd_sc_hd__inv_1
*I *4751:Y O *D sky130_fd_sc_hd__nand2_1
*CAP
1 *4730:A 8.52868e-05
2 *4751:Y 8.52868e-05
3 *4730:A *4743:A 2.01345e-05
4 *4751:A *4730:A 3.8624e-05
*RES
1 *4751:Y *4730:A 20.2563 
*END

*D_NET *352 0.000551352
*CONN
*I *4721:A I *D sky130_fd_sc_hd__inv_1
*I *4720:Y O *D sky130_fd_sc_hd__inv_1
*CAP
1 *4721:A 0.000200206
2 *4720:Y 0.000200206
3 *4721:A *4720:A 1.4024e-05
4 *4721:A *4722:A 4.11274e-05
5 *4721:A *4724:A 6.62761e-06
6 *130:12 *4721:A 3.34672e-05
7 *177:12 *4721:A 5.56943e-05
*RES
1 *4720:Y *4721:A 31.6402 
*END

*D_NET *353 0.000141415
*CONN
*I *4722:A I *D sky130_fd_sc_hd__inv_1
*I *4721:Y O *D sky130_fd_sc_hd__inv_1
*CAP
1 *4722:A 2.34547e-05
2 *4721:Y 2.34547e-05
3 *4722:A *4724:A 5.33783e-05
4 *4721:A *4722:A 4.11274e-05
*RES
1 *4721:Y *4722:A 19.4973 
*END

*D_NET *354 0.000209558
*CONN
*I *4723:A I *D sky130_fd_sc_hd__inv_1
*I *4722:Y O *D sky130_fd_sc_hd__inv_1
*CAP
1 *4723:A 8.15186e-05
2 *4722:Y 8.15186e-05
3 *4723:A *4724:A 4.65213e-05
*RES
1 *4722:Y *4723:A 19.8634 
*END

*D_NET *355 0.000858029
*CONN
*I *4724:A I *D sky130_fd_sc_hd__inv_1
*I *4723:Y O *D sky130_fd_sc_hd__inv_1
*CAP
1 *4724:A 0.000266214
2 *4723:Y 0.000266214
3 *4721:A *4724:A 6.62761e-06
4 *4722:A *4724:A 5.33783e-05
5 *4723:A *4724:A 4.65213e-05
6 *100:80 *4724:A 2.79827e-05
7 *102:53 *4724:A 1.36161e-05
8 *130:12 *4724:A 0.000121573
9 *175:54 *4724:A 5.59013e-05
*RES
1 *4723:Y *4724:A 31.908 
*END

*D_NET *356 0.000751351
*CONN
*I *4725:A I *D sky130_fd_sc_hd__inv_1
*I *4724:Y O *D sky130_fd_sc_hd__inv_1
*CAP
1 *4725:A 0.000163717
2 *4724:Y 0.000163717
3 *4725:A *4783:A 7.16889e-05
4 *4374:B *4725:A 0.000136958
5 *100:80 *4725:A 7.56557e-05
6 *102:53 *4725:A 0.000139614
*RES
1 *4724:Y *4725:A 23.0688 
*END

*D_NET *357 0.00123073
*CONN
*I *4750:A I *D sky130_fd_sc_hd__buf_1
*I *4726:A I *D sky130_fd_sc_hd__inv_1
*I *4725:Y O *D sky130_fd_sc_hd__inv_1
*CAP
1 *4750:A 8.0547e-05
2 *4726:A 0.000217937
3 *4725:Y 5.92988e-05
4 *357:8 0.000357783
5 *4374:B *4726:A 5.35516e-05
6 *101:56 *4726:A 0.000246057
7 *101:56 *4750:A 0.000141375
8 *102:53 *357:8 7.41811e-05
9 *103:74 *4750:A 0
*RES
1 *4725:Y *357:8 14.5411 
2 *357:8 *4726:A 18.0634 
3 *357:8 *4750:A 15.7464 
*END

*D_NET *358 0.000106793
*CONN
*I *4727:A I *D sky130_fd_sc_hd__inv_1
*I *4726:Y O *D sky130_fd_sc_hd__inv_1
*CAP
1 *4727:A 5.33963e-05
2 *4726:Y 5.33963e-05
*RES
1 *4726:Y *4727:A 19.4973 
*END

*D_NET *359 0.000383947
*CONN
*I *4728:A I *D sky130_fd_sc_hd__inv_1
*I *4727:Y O *D sky130_fd_sc_hd__inv_1
*CAP
1 *4728:A 0.000191974
2 *4727:Y 0.000191974
3 *101:56 *4728:A 0
*RES
1 *4727:Y *4728:A 30.1134 
*END

*D_NET *360 0.000253654
*CONN
*I *4729:A I *D sky130_fd_sc_hd__inv_1
*I *4728:Y O *D sky130_fd_sc_hd__inv_1
*CAP
1 *4729:A 0.000112003
2 *4728:Y 0.000112003
3 *4729:A *4731:A 2.96481e-05
*RES
1 *4728:Y *4729:A 20.7205 
*END

*D_NET *361 0.000409457
*CONN
*I *4731:A I *D sky130_fd_sc_hd__inv_1
*I *4729:Y O *D sky130_fd_sc_hd__inv_1
*CAP
1 *4731:A 0.000189905
2 *4729:Y 0.000189905
3 *4729:A *4731:A 2.96481e-05
4 *101:56 *4731:A 0
*RES
1 *4729:Y *4731:A 30.2205 
*END

*D_NET *362 0.000164185
*CONN
*I *4741:A I *D sky130_fd_sc_hd__inv_1
*I *4730:Y O *D sky130_fd_sc_hd__inv_1
*CAP
1 *4741:A 5.4827e-05
2 *4730:Y 5.4827e-05
3 *4741:A *4743:A 5.45307e-05
*RES
1 *4730:Y *4741:A 19.8634 
*END

*D_NET *363 0.000351283
*CONN
*I *4732:A I *D sky130_fd_sc_hd__inv_1
*I *4731:Y O *D sky130_fd_sc_hd__inv_1
*CAP
1 *4732:A 0.000164126
2 *4731:Y 0.000164126
3 *4732:A *4733:A 2.30319e-05
*RES
1 *4731:Y *4732:A 21.1313 
*END

*D_NET *364 0.00049974
*CONN
*I *4733:A I *D sky130_fd_sc_hd__inv_1
*I *4732:Y O *D sky130_fd_sc_hd__inv_1
*CAP
1 *4733:A 0.000223353
2 *4732:Y 0.000223353
3 *4733:A *4735:A 0
4 *4733:A *5135:A 0
5 *4732:A *4733:A 2.30319e-05
6 *101:56 *4733:A 0
7 *129:14 *4733:A 3.00023e-05
*RES
1 *4732:Y *4733:A 30.9795 
*END

*D_NET *365 0.000156494
*CONN
*I *4734:A I *D sky130_fd_sc_hd__inv_1
*I *4733:Y O *D sky130_fd_sc_hd__inv_1
*CAP
1 *4734:A 3.03862e-05
2 *4733:Y 3.03862e-05
3 *129:14 *4734:A 9.57215e-05
*RES
1 *4733:Y *4734:A 19.4973 
*END

*D_NET *366 0.000338639
*CONN
*I *4735:A I *D sky130_fd_sc_hd__inv_1
*I *4734:Y O *D sky130_fd_sc_hd__inv_1
*CAP
1 *4735:A 0.000137218
2 *4734:Y 0.000137218
3 *4733:A *4735:A 0
4 *101:56 *4735:A 5.35423e-05
5 *129:14 *4735:A 1.06618e-05
*RES
1 *4734:Y *4735:A 30.1134 
*END

*D_NET *367 0.000226132
*CONN
*I *4736:A I *D sky130_fd_sc_hd__inv_1
*I *4735:Y O *D sky130_fd_sc_hd__inv_1
*CAP
1 *4736:A 0.000113066
2 *4735:Y 0.000113066
*RES
1 *4735:Y *4736:A 20.3545 
*END

*D_NET *368 0.000109281
*CONN
*I *4737:A I *D sky130_fd_sc_hd__inv_1
*I *4736:Y O *D sky130_fd_sc_hd__inv_1
*CAP
1 *4737:A 5.46406e-05
2 *4736:Y 5.46406e-05
*RES
1 *4736:Y *4737:A 19.4973 
*END

*D_NET *369 0.000205409
*CONN
*I *4738:A I *D sky130_fd_sc_hd__inv_1
*I *4737:Y O *D sky130_fd_sc_hd__inv_1
*CAP
1 *4738:A 0.000102704
2 *4737:Y 0.000102704
*RES
1 *4737:Y *4738:A 19.908 
*END

*D_NET *370 0.000156214
*CONN
*I *4739:A I *D sky130_fd_sc_hd__inv_1
*I *4738:Y O *D sky130_fd_sc_hd__inv_1
*CAP
1 *4739:A 7.8107e-05
2 *4738:Y 7.8107e-05
*RES
1 *4738:Y *4739:A 19.908 
*END

*D_NET *371 0.00063389
*CONN
*I *4740:A I *D sky130_fd_sc_hd__inv_1
*I *4739:Y O *D sky130_fd_sc_hd__inv_1
*CAP
1 *4740:A 0.000226114
2 *4739:Y 0.000226114
3 *4740:A *4746:A 0
4 *4740:A *4748:A 0.000181663
5 *130:12 *4740:A 0
*RES
1 *4739:Y *4740:A 31.8009 
*END

*D_NET *372 0.000155673
*CONN
*I *4742:A I *D sky130_fd_sc_hd__inv_1
*I *4740:Y O *D sky130_fd_sc_hd__inv_1
*CAP
1 *4742:A 7.78365e-05
2 *4740:Y 7.78365e-05
*RES
1 *4740:Y *4742:A 19.908 
*END

*D_NET *373 0.000570115
*CONN
*I *4743:A I *D sky130_fd_sc_hd__inv_1
*I *4741:Y O *D sky130_fd_sc_hd__inv_1
*CAP
1 *4743:A 0.000213974
2 *4741:Y 0.000213974
3 *4743:A *4746:A 6.75007e-05
4 *4730:A *4743:A 2.01345e-05
5 *4741:A *4743:A 5.45307e-05
*RES
1 *4741:Y *4743:A 31.042 
*END

*D_NET *374 9.60031e-05
*CONN
*I *4751:B I *D sky130_fd_sc_hd__nand2_1
*I *4742:Y O *D sky130_fd_sc_hd__inv_1
*CAP
1 *4751:B 4.13344e-05
2 *4742:Y 4.13344e-05
3 *4751:A *4751:B 1.33343e-05
*RES
1 *4742:Y *4751:B 19.3411 
*END

*D_NET *375 0.000750874
*CONN
*I *4744:A I *D sky130_fd_sc_hd__inv_1
*I *4743:Y O *D sky130_fd_sc_hd__inv_1
*CAP
1 *4744:A 0.000370264
2 *4743:Y 0.000370264
3 *4744:A *4745:A 1.03449e-05
4 *4744:A *4746:A 0
*RES
1 *4743:Y *4744:A 32.2741 
*END

*D_NET *376 0.000672608
*CONN
*I *4745:A I *D sky130_fd_sc_hd__inv_1
*I *4744:Y O *D sky130_fd_sc_hd__inv_1
*CAP
1 *4745:A 0.000326576
2 *4744:Y 0.000326576
3 *4745:A *4746:A 0
4 *4701:A *4745:A 9.11048e-06
5 *4744:A *4745:A 1.03449e-05
6 *4751:A *4745:A 0
*RES
1 *4744:Y *4745:A 32.6223 
*END

*D_NET *377 0.000697998
*CONN
*I *4746:A I *D sky130_fd_sc_hd__inv_1
*I *4745:Y O *D sky130_fd_sc_hd__inv_1
*CAP
1 *4746:A 0.000262761
2 *4745:Y 0.000262761
3 *4740:A *4746:A 0
4 *4743:A *4746:A 6.75007e-05
5 *4744:A *4746:A 0
6 *4745:A *4746:A 0
7 *4751:A *4746:A 0.000104974
*RES
1 *4745:Y *4746:A 32.283 
*END

*D_NET *378 0.000155673
*CONN
*I *4747:A I *D sky130_fd_sc_hd__inv_1
*I *4746:Y O *D sky130_fd_sc_hd__inv_1
*CAP
1 *4747:A 7.78365e-05
2 *4746:Y 7.78365e-05
*RES
1 *4746:Y *4747:A 19.908 
*END

*D_NET *379 0.000623275
*CONN
*I *4748:A I *D sky130_fd_sc_hd__inv_1
*I *4747:Y O *D sky130_fd_sc_hd__inv_1
*CAP
1 *4748:A 0.000220806
2 *4747:Y 0.000220806
3 *4740:A *4748:A 0.000181663
4 *130:12 *4748:A 0
*RES
1 *4747:Y *4748:A 31.0866 
*END

*D_NET *380 0.000172227
*CONN
*I *4749:A I *D sky130_fd_sc_hd__inv_1
*I *4748:Y O *D sky130_fd_sc_hd__inv_1
*CAP
1 *4749:A 8.61137e-05
2 *4748:Y 8.61137e-05
*RES
1 *4748:Y *4749:A 19.908 
*END

*D_NET *381 0.000152692
*CONN
*I *4720:A I *D sky130_fd_sc_hd__inv_1
*I *4749:Y O *D sky130_fd_sc_hd__inv_1
*CAP
1 *4720:A 6.93342e-05
2 *4749:Y 6.93342e-05
3 *4721:A *4720:A 1.4024e-05
*RES
1 *4749:Y *4720:A 19.8634 
*END

*D_NET *382 0.000176307
*CONN
*I *4390:A1 I *D sky130_fd_sc_hd__mux4_2
*I *4750:X O *D sky130_fd_sc_hd__buf_1
*CAP
1 *4390:A1 4.13328e-05
2 *4750:X 4.13328e-05
3 *101:78 *4390:A1 3.79467e-05
4 *103:74 *4390:A1 5.56943e-05
*RES
1 *4750:X *4390:A1 28.9393 
*END

*D_NET *383 0.000746501
*CONN
*I *4783:A I *D sky130_fd_sc_hd__nand2_1
*I *4420:X O *D sky130_fd_sc_hd__and3_2
*CAP
1 *4783:A 0.000158433
2 *4420:X 0.000158433
3 *4783:A *4774:A 0
4 *4725:A *4783:A 7.16889e-05
5 *102:53 *4783:A 0.000357945
*RES
1 *4420:X *4783:A 22.8679 
*END

*D_NET *384 0.00047849
*CONN
*I *4762:A I *D sky130_fd_sc_hd__inv_1
*I *4783:Y O *D sky130_fd_sc_hd__nand2_1
*CAP
1 *4762:A 0.000239245
2 *4783:Y 0.000239245
3 *101:56 *4762:A 0
*RES
1 *4783:Y *4762:A 31.5777 
*END

*D_NET *385 0.000716817
*CONN
*I *4753:A I *D sky130_fd_sc_hd__inv_1
*I *4752:Y O *D sky130_fd_sc_hd__inv_1
*CAP
1 *4753:A 0.000351526
2 *4752:Y 0.000351526
3 *4753:A *4752:A 0
4 *102:53 *4753:A 1.37644e-05
*RES
1 *4752:Y *4753:A 33.1045 
*END

*D_NET *386 0.000125096
*CONN
*I *4754:A I *D sky130_fd_sc_hd__inv_1
*I *4753:Y O *D sky130_fd_sc_hd__inv_1
*CAP
1 *4754:A 3.58591e-05
2 *4753:Y 3.58591e-05
3 *102:53 *4754:A 5.33783e-05
*RES
1 *4753:Y *4754:A 19.4973 
*END

*D_NET *387 0.000233389
*CONN
*I *4755:A I *D sky130_fd_sc_hd__inv_1
*I *4754:Y O *D sky130_fd_sc_hd__inv_1
*CAP
1 *4755:A 6.69013e-05
2 *4754:Y 6.69013e-05
3 *102:53 *4755:A 9.95863e-05
*RES
1 *4754:Y *4755:A 20.2741 
*END

*D_NET *388 0.000388412
*CONN
*I *4756:A I *D sky130_fd_sc_hd__inv_1
*I *4755:Y O *D sky130_fd_sc_hd__inv_1
*CAP
1 *4756:A 0.000162543
2 *4755:Y 0.000162543
3 *98:65 *4756:A 2.80853e-05
4 *102:53 *4756:A 3.52408e-05
*RES
1 *4755:Y *4756:A 30.158 
*END

*D_NET *389 0.00016283
*CONN
*I *4757:A I *D sky130_fd_sc_hd__inv_1
*I *4756:Y O *D sky130_fd_sc_hd__inv_1
*CAP
1 *4757:A 3.3554e-05
2 *4756:Y 3.3554e-05
3 *98:65 *4757:A 9.57215e-05
*RES
1 *4756:Y *4757:A 19.4973 
*END

*D_NET *390 0.00178622
*CONN
*I *4782:A I *D sky130_fd_sc_hd__buf_1
*I *4758:A I *D sky130_fd_sc_hd__inv_1
*I *4757:Y O *D sky130_fd_sc_hd__inv_1
*CAP
1 *4782:A 0.000449785
2 *4758:A 0
3 *4757:Y 4.49619e-05
4 *390:6 0.000494747
5 *4782:A *4767:A 2.80853e-05
6 *4782:A *4768:A 9.57215e-05
7 *4782:A *4769:A 9.57215e-05
8 *4782:A *4770:A 9.57215e-05
9 *4782:A *4771:A 9.57215e-05
10 *390:6 *4759:A 1.96517e-05
11 *98:65 *4782:A 0.000216096
12 *98:65 *390:6 0.000150011
*RES
1 *4757:Y *390:6 10.7063 
2 *390:6 *4758:A 9.3 
3 *390:6 *4782:A 27.7777 
*END

*D_NET *391 0.000837388
*CONN
*I *4759:A I *D sky130_fd_sc_hd__inv_1
*I *4758:Y O *D sky130_fd_sc_hd__inv_1
*CAP
1 *4759:A 0.000329847
2 *4758:Y 0.000329847
3 *4759:A *4761:A 1.67305e-05
4 *4759:A *4763:A 5.323e-05
5 *174:55 *4759:A 8.80821e-05
6 *390:6 *4759:A 1.96517e-05
*RES
1 *4758:Y *4759:A 32.9348 
*END

*D_NET *392 0.000574012
*CONN
*I *4760:A I *D sky130_fd_sc_hd__inv_1
*I *4759:Y O *D sky130_fd_sc_hd__inv_1
*CAP
1 *4760:A 0.000235739
2 *4759:Y 0.000235739
3 *4760:A *4761:A 6.72935e-05
4 *4760:A *5487:B 0
5 *174:55 *4760:A 3.52408e-05
*RES
1 *4759:Y *4760:A 31.7563 
*END

*D_NET *393 0.000456522
*CONN
*I *4761:A I *D sky130_fd_sc_hd__inv_1
*I *4760:Y O *D sky130_fd_sc_hd__inv_1
*CAP
1 *4761:A 0.000179362
2 *4760:Y 0.000179362
3 *4759:A *4761:A 1.67305e-05
4 *4760:A *4761:A 6.72935e-05
5 *174:55 *4761:A 1.37743e-05
*RES
1 *4760:Y *4761:A 30.5688 
*END

*D_NET *394 0.000137289
*CONN
*I *4763:A I *D sky130_fd_sc_hd__inv_1
*I *4761:Y O *D sky130_fd_sc_hd__inv_1
*CAP
1 *4763:A 1.53402e-05
2 *4761:Y 1.53402e-05
3 *4759:A *4763:A 5.323e-05
4 *174:55 *4763:A 5.33783e-05
*RES
1 *4761:Y *4763:A 19.4973 
*END

*D_NET *395 0.000106793
*CONN
*I *4773:A I *D sky130_fd_sc_hd__inv_1
*I *4762:Y O *D sky130_fd_sc_hd__inv_1
*CAP
1 *4773:A 5.33963e-05
2 *4762:Y 5.33963e-05
*RES
1 *4762:Y *4773:A 19.4973 
*END

*D_NET *396 0.000126258
*CONN
*I *4764:A I *D sky130_fd_sc_hd__inv_1
*I *4763:Y O *D sky130_fd_sc_hd__inv_1
*CAP
1 *4764:A 3.64401e-05
2 *4763:Y 3.64401e-05
3 *174:55 *4764:A 5.33783e-05
*RES
1 *4763:Y *4764:A 19.4973 
*END

*D_NET *397 0.000136004
*CONN
*I *4765:A I *D sky130_fd_sc_hd__inv_1
*I *4764:Y O *D sky130_fd_sc_hd__inv_1
*CAP
1 *4765:A 3.44255e-05
2 *4764:Y 3.44255e-05
3 *4765:A *4767:A 1.37743e-05
4 *174:55 *4765:A 5.33783e-05
*RES
1 *4764:Y *4765:A 19.4973 
*END

*D_NET *398 0.000162983
*CONN
*I *4766:A I *D sky130_fd_sc_hd__inv_1
*I *4765:Y O *D sky130_fd_sc_hd__inv_1
*CAP
1 *4766:A 5.33418e-05
2 *4765:Y 5.33418e-05
3 *4766:A *4767:A 5.62995e-05
*RES
1 *4765:Y *4766:A 19.8634 
*END

*D_NET *399 0.000627514
*CONN
*I *4767:A I *D sky130_fd_sc_hd__inv_1
*I *4766:Y O *D sky130_fd_sc_hd__inv_1
*CAP
1 *4767:A 0.00024557
2 *4766:Y 0.00024557
3 *4765:A *4767:A 1.37743e-05
4 *4766:A *4767:A 5.62995e-05
5 *4782:A *4767:A 2.80853e-05
6 *98:65 *4767:A 3.00023e-05
7 *174:55 *4767:A 8.21248e-06
*RES
1 *4766:Y *4767:A 31.0866 
*END

*D_NET *400 0.000212531
*CONN
*I *4768:A I *D sky130_fd_sc_hd__inv_1
*I *4767:Y O *D sky130_fd_sc_hd__inv_1
*CAP
1 *4768:A 1.05439e-05
2 *4767:Y 1.05439e-05
3 *4782:A *4768:A 9.57215e-05
4 *98:65 *4768:A 9.57215e-05
*RES
1 *4767:Y *4768:A 19.4973 
*END

*D_NET *401 0.000212531
*CONN
*I *4769:A I *D sky130_fd_sc_hd__inv_1
*I *4768:Y O *D sky130_fd_sc_hd__inv_1
*CAP
1 *4769:A 1.05439e-05
2 *4768:Y 1.05439e-05
3 *4782:A *4769:A 9.57215e-05
4 *98:65 *4769:A 9.57215e-05
*RES
1 *4768:Y *4769:A 19.4973 
*END

*D_NET *402 0.000212531
*CONN
*I *4770:A I *D sky130_fd_sc_hd__inv_1
*I *4769:Y O *D sky130_fd_sc_hd__inv_1
*CAP
1 *4770:A 1.05439e-05
2 *4769:Y 1.05439e-05
3 *4782:A *4770:A 9.57215e-05
4 *98:65 *4770:A 9.57215e-05
*RES
1 *4769:Y *4770:A 19.4973 
*END

*D_NET *403 0.000212531
*CONN
*I *4771:A I *D sky130_fd_sc_hd__inv_1
*I *4770:Y O *D sky130_fd_sc_hd__inv_1
*CAP
1 *4771:A 1.05439e-05
2 *4770:Y 1.05439e-05
3 *4782:A *4771:A 9.57215e-05
4 *98:65 *4771:A 9.57215e-05
*RES
1 *4770:Y *4771:A 19.4973 
*END

*D_NET *404 0.000362805
*CONN
*I *4772:A I *D sky130_fd_sc_hd__inv_1
*I *4771:Y O *D sky130_fd_sc_hd__inv_1
*CAP
1 *4772:A 0.000167332
2 *4771:Y 0.000167332
3 *98:65 *4772:A 1.66856e-05
4 *102:53 *4772:A 1.14548e-05
*RES
1 *4771:Y *4772:A 30.1134 
*END

*D_NET *405 0.000232171
*CONN
*I *4774:A I *D sky130_fd_sc_hd__inv_1
*I *4772:Y O *D sky130_fd_sc_hd__inv_1
*CAP
1 *4774:A 9.77789e-05
2 *4772:Y 9.77789e-05
3 *4783:A *4774:A 0
4 *102:53 *4774:A 3.66133e-05
*RES
1 *4772:Y *4774:A 20.3545 
*END

*D_NET *406 0.000106793
*CONN
*I *4775:A I *D sky130_fd_sc_hd__inv_1
*I *4773:Y O *D sky130_fd_sc_hd__inv_1
*CAP
1 *4775:A 5.33963e-05
2 *4773:Y 5.33963e-05
*RES
1 *4773:Y *4775:A 19.4973 
*END

*D_NET *407 0.000103314
*CONN
*I *4783:B I *D sky130_fd_sc_hd__nand2_1
*I *4774:Y O *D sky130_fd_sc_hd__inv_1
*CAP
1 *4783:B 2.9615e-05
2 *4774:Y 2.9615e-05
3 *102:53 *4783:B 4.40835e-05
*RES
1 *4774:Y *4783:B 19.3411 
*END

*D_NET *408 0.000106793
*CONN
*I *4776:A I *D sky130_fd_sc_hd__inv_1
*I *4775:Y O *D sky130_fd_sc_hd__inv_1
*CAP
1 *4776:A 5.33963e-05
2 *4775:Y 5.33963e-05
*RES
1 *4775:Y *4776:A 19.4973 
*END

*D_NET *409 0.000106793
*CONN
*I *4777:A I *D sky130_fd_sc_hd__inv_1
*I *4776:Y O *D sky130_fd_sc_hd__inv_1
*CAP
1 *4777:A 5.33963e-05
2 *4776:Y 5.33963e-05
*RES
1 *4776:Y *4777:A 19.4973 
*END

*D_NET *410 0.000106793
*CONN
*I *4778:A I *D sky130_fd_sc_hd__inv_1
*I *4777:Y O *D sky130_fd_sc_hd__inv_1
*CAP
1 *4778:A 5.33963e-05
2 *4777:Y 5.33963e-05
*RES
1 *4777:Y *4778:A 19.4973 
*END

*D_NET *411 0.000107298
*CONN
*I *4779:A I *D sky130_fd_sc_hd__inv_1
*I *4778:Y O *D sky130_fd_sc_hd__inv_1
*CAP
1 *4779:A 5.36488e-05
2 *4778:Y 5.36488e-05
*RES
1 *4778:Y *4779:A 19.4973 
*END

*D_NET *412 0.000109317
*CONN
*I *4780:A I *D sky130_fd_sc_hd__inv_1
*I *4779:Y O *D sky130_fd_sc_hd__inv_1
*CAP
1 *4780:A 5.46587e-05
2 *4779:Y 5.46587e-05
*RES
1 *4779:Y *4780:A 19.4973 
*END

*D_NET *413 0.000163701
*CONN
*I *4781:A I *D sky130_fd_sc_hd__inv_1
*I *4780:Y O *D sky130_fd_sc_hd__inv_1
*CAP
1 *4781:A 6.78524e-05
2 *4780:Y 6.78524e-05
3 *4781:A *4752:A 2.79966e-05
*RES
1 *4780:Y *4781:A 19.8634 
*END

*D_NET *414 0.000416562
*CONN
*I *4752:A I *D sky130_fd_sc_hd__inv_1
*I *4781:Y O *D sky130_fd_sc_hd__inv_1
*CAP
1 *4752:A 0.000194283
2 *4781:Y 0.000194283
3 *4753:A *4752:A 0
4 *4781:A *4752:A 2.79966e-05
*RES
1 *4781:Y *4752:A 30.5688 
*END

*D_NET *415 0.000511974
*CONN
*I *4390:A2 I *D sky130_fd_sc_hd__mux4_2
*I *4782:X O *D sky130_fd_sc_hd__buf_1
*CAP
1 *4390:A2 0.000255987
2 *4782:X 0.000255987
*RES
1 *4782:X *4390:A2 21.6 
*END

*D_NET *416 0.000433454
*CONN
*I *4815:A I *D sky130_fd_sc_hd__nand2_1
*I *4421:X O *D sky130_fd_sc_hd__and3_2
*CAP
1 *4815:A 8.85737e-05
2 *4421:X 8.85737e-05
3 *175:54 *4815:A 9.25014e-06
4 *175:63 *4815:A 0.000118903
5 *177:12 *4815:A 0.000128154
*RES
1 *4421:X *4815:A 29.7786 
*END

*D_NET *417 0.000319381
*CONN
*I *4794:A I *D sky130_fd_sc_hd__inv_1
*I *4815:Y O *D sky130_fd_sc_hd__nand2_1
*CAP
1 *4794:A 9.63811e-05
2 *4815:Y 9.63811e-05
3 *178:48 *4794:A 0.000126619
*RES
1 *4815:Y *4794:A 20.6223 
*END

*D_NET *418 0.000614212
*CONN
*I *4785:A I *D sky130_fd_sc_hd__inv_1
*I *4784:Y O *D sky130_fd_sc_hd__inv_1
*CAP
1 *4785:A 0.000224728
2 *4784:Y 0.000224728
3 *4785:A *4811:A 0
4 *103:70 *4785:A 0.000164756
5 *179:79 *4785:A 0
*RES
1 *4784:Y *4785:A 31.042 
*END

*D_NET *419 0.000480859
*CONN
*I *4786:A I *D sky130_fd_sc_hd__inv_1
*I *4785:Y O *D sky130_fd_sc_hd__inv_1
*CAP
1 *4786:A 0.000164284
2 *4785:Y 0.000164284
3 *4786:A *4787:A 7.51545e-05
4 *4786:A *4788:A 7.71367e-05
*RES
1 *4785:Y *4786:A 21.9348 
*END

*D_NET *420 0.000176131
*CONN
*I *4787:A I *D sky130_fd_sc_hd__inv_1
*I *4786:Y O *D sky130_fd_sc_hd__inv_1
*CAP
1 *4787:A 5.04882e-05
2 *4786:Y 5.04882e-05
3 *4786:A *4787:A 7.51545e-05
*RES
1 *4786:Y *4787:A 19.8634 
*END

*D_NET *421 0.000490277
*CONN
*I *4788:A I *D sky130_fd_sc_hd__inv_1
*I *4787:Y O *D sky130_fd_sc_hd__inv_1
*CAP
1 *4788:A 0.0001948
2 *4787:Y 0.0001948
3 *4788:A *4801:A 2.3541e-05
4 *4786:A *4788:A 7.71367e-05
5 *174:55 *4788:A 0
*RES
1 *4787:Y *4788:A 30.5241 
*END

*D_NET *422 0.000339121
*CONN
*I *4789:A I *D sky130_fd_sc_hd__inv_1
*I *4788:Y O *D sky130_fd_sc_hd__inv_1
*CAP
1 *4789:A 0.000126346
2 *4788:Y 0.000126346
3 *4789:A *4790:A 3.00023e-05
4 *4789:A *4801:A 1.29225e-05
5 *4789:A *4802:A 4.35048e-05
6 *174:55 *4789:A 0
*RES
1 *4788:Y *4789:A 29.8545 
*END

*D_NET *423 0.000864036
*CONN
*I *4814:A I *D sky130_fd_sc_hd__buf_1
*I *4790:A I *D sky130_fd_sc_hd__inv_1
*I *4789:Y O *D sky130_fd_sc_hd__inv_1
*CAP
1 *4814:A 0.000101767
2 *4790:A 0.000274536
3 *4789:Y 0
4 *423:4 0.000376303
5 *4814:A *4802:A 3.00023e-05
6 *4814:A *4803:A 5.14254e-05
7 *4789:A *4790:A 3.00023e-05
*RES
1 *4789:Y *423:4 9.3 
2 *423:4 *4790:A 14.0366 
3 *423:4 *4814:A 11.7018 
*END

*D_NET *424 0.000155673
*CONN
*I *4791:A I *D sky130_fd_sc_hd__inv_1
*I *4790:Y O *D sky130_fd_sc_hd__inv_1
*CAP
1 *4791:A 7.78365e-05
2 *4790:Y 7.78365e-05
*RES
1 *4790:Y *4791:A 19.908 
*END

*D_NET *425 0.000309849
*CONN
*I *4792:A I *D sky130_fd_sc_hd__inv_1
*I *4791:Y O *D sky130_fd_sc_hd__inv_1
*CAP
1 *4792:A 0.000152694
2 *4791:Y 0.000152694
3 *4792:A *4798:A 4.46186e-06
4 *174:55 *4792:A 0
*RES
1 *4791:Y *4792:A 29.8545 
*END

*D_NET *426 0.000347905
*CONN
*I *4793:A I *D sky130_fd_sc_hd__inv_1
*I *4792:Y O *D sky130_fd_sc_hd__inv_1
*CAP
1 *4793:A 9.97276e-05
2 *4792:Y 9.97276e-05
3 *4793:A *4797:A 0.00014845
*RES
1 *4792:Y *4793:A 21.0955 
*END

*D_NET *427 0.000597111
*CONN
*I *4795:A I *D sky130_fd_sc_hd__inv_1
*I *4793:Y O *D sky130_fd_sc_hd__inv_1
*CAP
1 *4795:A 0.000180833
2 *4793:Y 0.000180833
3 *4795:A *4796:A 4.54433e-05
4 *4795:A *4797:A 3.52408e-05
5 *103:18 *4795:A 0.000154762
*RES
1 *4793:Y *4795:A 31.3455 
*END

*D_NET *428 0.000878471
*CONN
*I *4805:A I *D sky130_fd_sc_hd__inv_1
*I *4794:Y O *D sky130_fd_sc_hd__inv_1
*CAP
1 *4805:A 0.000252995
2 *4794:Y 0.000252995
3 *4805:A *4808:A 1.36161e-05
4 *101:78 *4805:A 0
5 *103:74 *4805:A 0.000148903
6 *178:48 *4805:A 0.000201658
7 *179:66 *4805:A 8.30355e-06
*RES
1 *4794:Y *4805:A 31.8009 
*END

*D_NET *429 0.000787211
*CONN
*I *4796:A I *D sky130_fd_sc_hd__inv_1
*I *4795:Y O *D sky130_fd_sc_hd__inv_1
*CAP
1 *4796:A 0.000346867
2 *4795:Y 0.000346867
3 *4796:A *4797:A 0
4 *4795:A *4796:A 4.54433e-05
5 *103:18 *4796:A 4.8035e-05
*RES
1 *4795:Y *4796:A 32.5777 
*END

*D_NET *430 0.000878069
*CONN
*I *4797:A I *D sky130_fd_sc_hd__inv_1
*I *4796:Y O *D sky130_fd_sc_hd__inv_1
*CAP
1 *4797:A 0.000315288
2 *4796:Y 0.000315288
3 *4797:A *4798:A 3.57163e-05
4 *4793:A *4797:A 0.00014845
5 *4795:A *4797:A 3.52408e-05
6 *4796:A *4797:A 0
7 *103:18 *4797:A 2.80853e-05
8 *174:55 *4797:A 0
*RES
1 *4796:Y *4797:A 33.7473 
*END

*D_NET *431 0.000415692
*CONN
*I *4798:A I *D sky130_fd_sc_hd__inv_1
*I *4797:Y O *D sky130_fd_sc_hd__inv_1
*CAP
1 *4798:A 0.000182426
2 *4797:Y 0.000182426
3 *4792:A *4798:A 4.46186e-06
4 *4797:A *4798:A 3.57163e-05
5 *103:18 *4798:A 1.06618e-05
6 *174:55 *4798:A 0
*RES
1 *4797:Y *4798:A 30.5688 
*END

*D_NET *432 0.000107334
*CONN
*I *4799:A I *D sky130_fd_sc_hd__inv_1
*I *4798:Y O *D sky130_fd_sc_hd__inv_1
*CAP
1 *4799:A 5.36668e-05
2 *4798:Y 5.36668e-05
*RES
1 *4798:Y *4799:A 19.4973 
*END

*D_NET *433 0.000158162
*CONN
*I *4800:A I *D sky130_fd_sc_hd__inv_1
*I *4799:Y O *D sky130_fd_sc_hd__inv_1
*CAP
1 *4800:A 7.90808e-05
2 *4799:Y 7.90808e-05
*RES
1 *4799:Y *4800:A 19.908 
*END

*D_NET *434 0.000336648
*CONN
*I *4801:A I *D sky130_fd_sc_hd__inv_1
*I *4800:Y O *D sky130_fd_sc_hd__inv_1
*CAP
1 *4801:A 0.000150092
2 *4800:Y 0.000150092
3 *4788:A *4801:A 2.3541e-05
4 *4789:A *4801:A 1.29225e-05
*RES
1 *4800:Y *4801:A 21.283 
*END

*D_NET *435 0.000333506
*CONN
*I *4802:A I *D sky130_fd_sc_hd__inv_1
*I *4801:Y O *D sky130_fd_sc_hd__inv_1
*CAP
1 *4802:A 0.00013
2 *4801:Y 0.00013
3 *4390:S0 *4802:A 0
4 *4789:A *4802:A 4.35048e-05
5 *4814:A *4802:A 3.00023e-05
*RES
1 *4801:Y *4802:A 29.8545 
*END

*D_NET *436 0.000391136
*CONN
*I *4803:A I *D sky130_fd_sc_hd__inv_1
*I *4802:Y O *D sky130_fd_sc_hd__inv_1
*CAP
1 *4803:A 0.00014645
2 *4802:Y 0.00014645
3 *4803:A *4390:A3 4.68098e-05
4 *4814:A *4803:A 5.14254e-05
*RES
1 *4802:Y *4803:A 21.6938 
*END

*D_NET *437 0.000566796
*CONN
*I *4804:A I *D sky130_fd_sc_hd__inv_1
*I *4803:Y O *D sky130_fd_sc_hd__inv_1
*CAP
1 *4804:A 0.000208234
2 *4803:Y 0.000208234
3 *4804:A *4390:A3 1.76516e-05
4 *4390:S0 *4804:A 6.74911e-05
5 *4390:S1 *4804:A 6.5185e-05
*RES
1 *4803:Y *4804:A 31.0866 
*END

*D_NET *438 0.000208043
*CONN
*I *4806:A I *D sky130_fd_sc_hd__inv_1
*I *4804:Y O *D sky130_fd_sc_hd__inv_1
*CAP
1 *4806:A 7.49766e-05
2 *4804:Y 7.49766e-05
3 *178:48 *4806:A 5.809e-05
*RES
1 *4804:Y *4806:A 19.908 
*END

*D_NET *439 0.000202885
*CONN
*I *4807:A I *D sky130_fd_sc_hd__inv_1
*I *4805:Y O *D sky130_fd_sc_hd__inv_1
*CAP
1 *4807:A 5.49434e-05
2 *4805:Y 5.49434e-05
3 *4807:A *4808:A 5.03772e-05
4 *179:66 *4807:A 4.2621e-05
*RES
1 *4805:Y *4807:A 19.8634 
*END

*D_NET *440 0.0001701
*CONN
*I *4815:B I *D sky130_fd_sc_hd__nand2_1
*I *4806:Y O *D sky130_fd_sc_hd__inv_1
*CAP
1 *4815:B 5.22754e-05
2 *4806:Y 5.22754e-05
3 *178:48 *4815:B 6.55493e-05
*RES
1 *4806:Y *4815:B 19.7518 
*END

*D_NET *441 0.000554324
*CONN
*I *4808:A I *D sky130_fd_sc_hd__inv_1
*I *4807:Y O *D sky130_fd_sc_hd__inv_1
*CAP
1 *4808:A 0.00022779
2 *4807:Y 0.00022779
3 *4805:A *4808:A 1.36161e-05
4 *4807:A *4808:A 5.03772e-05
5 *179:66 *4808:A 3.47518e-05
*RES
1 *4807:Y *4808:A 21.9973 
*END

*D_NET *442 0.000144081
*CONN
*I *4809:A I *D sky130_fd_sc_hd__inv_1
*I *4808:Y O *D sky130_fd_sc_hd__inv_1
*CAP
1 *4809:A 5.8298e-05
2 *4808:Y 5.8298e-05
3 *179:66 *4809:A 2.74849e-05
*RES
1 *4808:Y *4809:A 19.4973 
*END

*D_NET *443 0.0001136
*CONN
*I *4810:A I *D sky130_fd_sc_hd__inv_1
*I *4809:Y O *D sky130_fd_sc_hd__inv_1
*CAP
1 *4810:A 3.78346e-05
2 *4809:Y 3.78346e-05
3 *179:66 *4810:A 3.79306e-05
*RES
1 *4809:Y *4810:A 19.4973 
*END

*D_NET *444 0.000512319
*CONN
*I *4811:A I *D sky130_fd_sc_hd__inv_1
*I *4810:Y O *D sky130_fd_sc_hd__inv_1
*CAP
1 *4811:A 0.000122263
2 *4810:Y 0.000122263
3 *4785:A *4811:A 0
4 *103:70 *4811:A 7.18918e-05
5 *179:79 *4811:A 0.000195901
*RES
1 *4810:Y *4811:A 30.2652 
*END

*D_NET *445 0.000309809
*CONN
*I *4812:A I *D sky130_fd_sc_hd__inv_1
*I *4811:Y O *D sky130_fd_sc_hd__inv_1
*CAP
1 *4812:A 1.537e-05
2 *4811:Y 1.537e-05
3 *103:70 *4812:A 0.000139534
4 *179:79 *4812:A 0.000139534
*RES
1 *4811:Y *4812:A 19.908 
*END

*D_NET *446 0.000212531
*CONN
*I *4813:A I *D sky130_fd_sc_hd__inv_1
*I *4812:Y O *D sky130_fd_sc_hd__inv_1
*CAP
1 *4813:A 1.05439e-05
2 *4812:Y 1.05439e-05
3 *103:70 *4813:A 9.57215e-05
4 *179:79 *4813:A 9.57215e-05
*RES
1 *4812:Y *4813:A 19.4973 
*END

*D_NET *447 0.000299235
*CONN
*I *4784:A I *D sky130_fd_sc_hd__inv_1
*I *4813:Y O *D sky130_fd_sc_hd__inv_1
*CAP
1 *4784:A 1.48454e-05
2 *4813:Y 1.48454e-05
3 *103:70 *4784:A 0.000134772
4 *179:79 *4784:A 0.000134772
*RES
1 *4813:Y *4784:A 19.8634 
*END

*D_NET *448 0.000930357
*CONN
*I *4390:A3 I *D sky130_fd_sc_hd__mux4_2
*I *4814:X O *D sky130_fd_sc_hd__buf_1
*CAP
1 *4390:A3 0.00033356
2 *4814:X 0.00033356
3 *4390:S0 *4390:A3 4.57352e-05
4 *4390:S1 *4390:A3 0.00015304
5 *4803:A *4390:A3 4.68098e-05
6 *4804:A *4390:A3 1.76516e-05
*RES
1 *4814:X *4390:A3 32.9571 
*END

*D_NET *449 0.000308158
*CONN
*I *4847:A I *D sky130_fd_sc_hd__nand2_1
*I *4422:X O *D sky130_fd_sc_hd__and3_2
*CAP
1 *4847:A 0.000154079
2 *4422:X 0.000154079
*RES
1 *4422:X *4847:A 21.1893 
*END

*D_NET *450 0.00018718
*CONN
*I *4826:A I *D sky130_fd_sc_hd__inv_1
*I *4847:Y O *D sky130_fd_sc_hd__nand2_1
*CAP
1 *4826:A 9.35899e-05
2 *4847:Y 9.35899e-05
*RES
1 *4847:Y *4826:A 20.2563 
*END

*D_NET *451 0.000561994
*CONN
*I *4817:A I *D sky130_fd_sc_hd__inv_1
*I *4816:Y O *D sky130_fd_sc_hd__inv_1
*CAP
1 *4817:A 0.000256664
2 *4816:Y 0.000256664
3 *4817:A *4816:A 4.01768e-05
4 *4817:A *4845:A 8.48822e-06
*RES
1 *4816:Y *4817:A 31.3902 
*END

*D_NET *452 0.000167398
*CONN
*I *4818:A I *D sky130_fd_sc_hd__inv_1
*I *4817:Y O *D sky130_fd_sc_hd__inv_1
*CAP
1 *4818:A 6.31403e-05
2 *4817:Y 6.31403e-05
3 *4818:A *4819:A 4.11175e-05
*RES
1 *4817:Y *4818:A 19.8634 
*END

*D_NET *453 0.00040692
*CONN
*I *4819:A I *D sky130_fd_sc_hd__inv_1
*I *4818:Y O *D sky130_fd_sc_hd__inv_1
*CAP
1 *4819:A 0.000174536
2 *4818:Y 0.000174536
3 *4819:A *4821:A 1.67305e-05
4 *4818:A *4819:A 4.11175e-05
*RES
1 *4818:Y *4819:A 30.2652 
*END

*D_NET *454 0.000169665
*CONN
*I *4820:A I *D sky130_fd_sc_hd__inv_1
*I *4819:Y O *D sky130_fd_sc_hd__inv_1
*CAP
1 *4820:A 5.66829e-05
2 *4819:Y 5.66829e-05
3 *4820:A *4821:A 5.62995e-05
*RES
1 *4819:Y *4820:A 19.8634 
*END

*D_NET *455 0.000379776
*CONN
*I *4821:A I *D sky130_fd_sc_hd__inv_1
*I *4820:Y O *D sky130_fd_sc_hd__inv_1
*CAP
1 *4821:A 0.000153373
2 *4820:Y 0.000153373
3 *4819:A *4821:A 1.67305e-05
4 *4820:A *4821:A 5.62995e-05
*RES
1 *4820:Y *4821:A 21.5509 
*END

*D_NET *456 0.000616568
*CONN
*I *4822:A I *D sky130_fd_sc_hd__inv_1
*I *4846:A I *D sky130_fd_sc_hd__buf_1
*I *4821:Y O *D sky130_fd_sc_hd__inv_1
*CAP
1 *4822:A 0.000198843
2 *4846:A 3.73289e-05
3 *4821:Y 6.90862e-05
4 *456:6 0.000305258
5 *4822:A *4828:A 6.05161e-06
6 *4822:A *4830:A 0
*RES
1 *4821:Y *456:6 10.4518 
2 *456:6 *4846:A 9.83571 
3 *456:6 *4822:A 21.4384 
*END

*D_NET *457 0.000123178
*CONN
*I *4823:A I *D sky130_fd_sc_hd__inv_1
*I *4822:Y O *D sky130_fd_sc_hd__inv_1
*CAP
1 *4823:A 4.24858e-05
2 *4822:Y 4.24858e-05
3 *4823:A *4825:A 3.82062e-05
*RES
1 *4822:Y *4823:A 19.4973 
*END

*D_NET *458 0.000162983
*CONN
*I *4824:A I *D sky130_fd_sc_hd__inv_1
*I *4823:Y O *D sky130_fd_sc_hd__inv_1
*CAP
1 *4824:A 5.33418e-05
2 *4823:Y 5.33418e-05
3 *4824:A *4825:A 5.62995e-05
*RES
1 *4823:Y *4824:A 19.8634 
*END

*D_NET *459 0.000640908
*CONN
*I *4825:A I *D sky130_fd_sc_hd__inv_1
*I *4824:Y O *D sky130_fd_sc_hd__inv_1
*CAP
1 *4825:A 0.000254716
2 *4824:Y 0.000254716
3 *4825:A *4828:A 3.69697e-05
4 *4823:A *4825:A 3.82062e-05
5 *4824:A *4825:A 5.62995e-05
*RES
1 *4824:Y *4825:A 31.4973 
*END

*D_NET *460 0.000116516
*CONN
*I *4827:A I *D sky130_fd_sc_hd__inv_1
*I *4825:Y O *D sky130_fd_sc_hd__inv_1
*CAP
1 *4827:A 3.80724e-05
2 *4825:Y 3.80724e-05
3 *4827:A *4828:A 4.03714e-05
*RES
1 *4825:Y *4827:A 19.4973 
*END

*D_NET *461 0.000106921
*CONN
*I *4837:A I *D sky130_fd_sc_hd__inv_1
*I *4826:Y O *D sky130_fd_sc_hd__inv_1
*CAP
1 *4837:A 5.34607e-05
2 *4826:Y 5.34607e-05
*RES
1 *4826:Y *4837:A 19.4973 
*END

*D_NET *462 0.000705072
*CONN
*I *4828:A I *D sky130_fd_sc_hd__inv_1
*I *4827:Y O *D sky130_fd_sc_hd__inv_1
*CAP
1 *4828:A 0.00031084
2 *4827:Y 0.00031084
3 *4822:A *4828:A 6.05161e-06
4 *4825:A *4828:A 3.69697e-05
5 *4827:A *4828:A 4.03714e-05
*RES
1 *4827:Y *4828:A 32.158 
*END

*D_NET *463 0.000156901
*CONN
*I *4829:A I *D sky130_fd_sc_hd__inv_1
*I *4828:Y O *D sky130_fd_sc_hd__inv_1
*CAP
1 *4829:A 6.28332e-05
2 *4828:Y 6.28332e-05
3 *4829:A *4830:A 3.12345e-05
*RES
1 *4828:Y *4829:A 19.8634 
*END

*D_NET *464 0.000433957
*CONN
*I *4830:A I *D sky130_fd_sc_hd__inv_1
*I *4829:Y O *D sky130_fd_sc_hd__inv_1
*CAP
1 *4830:A 0.000194479
2 *4829:Y 0.000194479
3 *4830:A *4398:A0 1.37644e-05
4 *4822:A *4830:A 0
5 *4829:A *4830:A 3.12345e-05
*RES
1 *4829:Y *4830:A 30.5688 
*END

*D_NET *465 0.000126223
*CONN
*I *4831:A I *D sky130_fd_sc_hd__inv_1
*I *4830:Y O *D sky130_fd_sc_hd__inv_1
*CAP
1 *4831:A 3.72016e-05
2 *4830:Y 3.72016e-05
3 *4831:A *4398:A0 5.18198e-05
*RES
1 *4830:Y *4831:A 19.4973 
*END

*D_NET *466 0.000182529
*CONN
*I *4832:A I *D sky130_fd_sc_hd__inv_1
*I *4831:Y O *D sky130_fd_sc_hd__inv_1
*CAP
1 *4832:A 4.53508e-05
2 *4831:Y 4.53508e-05
3 *4832:A *4398:A0 7.27934e-05
4 *4832:A *4833:A 1.90343e-05
*RES
1 *4831:Y *4832:A 19.8634 
*END

*D_NET *467 0.000328509
*CONN
*I *4833:A I *D sky130_fd_sc_hd__inv_1
*I *4832:Y O *D sky130_fd_sc_hd__inv_1
*CAP
1 *4833:A 0.000154737
2 *4832:Y 0.000154737
3 *4832:A *4833:A 1.90343e-05
*RES
1 *4832:Y *4833:A 29.8098 
*END

*D_NET *468 0.000584194
*CONN
*I *4834:A I *D sky130_fd_sc_hd__inv_1
*I *4833:Y O *D sky130_fd_sc_hd__inv_1
*CAP
1 *4834:A 0.000261032
2 *4833:Y 0.000261032
3 *4834:A *4835:A 5.33783e-05
4 *4834:A *4836:A 8.75238e-06
*RES
1 *4833:Y *4834:A 22.408 
*END

*D_NET *469 0.000118761
*CONN
*I *4835:A I *D sky130_fd_sc_hd__inv_1
*I *4834:Y O *D sky130_fd_sc_hd__inv_1
*CAP
1 *4835:A 3.26913e-05
2 *4834:Y 3.26913e-05
3 *4834:A *4835:A 5.33783e-05
*RES
1 *4834:Y *4835:A 19.4973 
*END

*D_NET *470 0.000414724
*CONN
*I *4836:A I *D sky130_fd_sc_hd__inv_1
*I *4835:Y O *D sky130_fd_sc_hd__inv_1
*CAP
1 *4836:A 0.000202986
2 *4835:Y 0.000202986
3 *4834:A *4836:A 8.75238e-06
*RES
1 *4835:Y *4836:A 30.5688 
*END

*D_NET *471 0.000106793
*CONN
*I *4838:A I *D sky130_fd_sc_hd__inv_1
*I *4836:Y O *D sky130_fd_sc_hd__inv_1
*CAP
1 *4838:A 5.33963e-05
2 *4836:Y 5.33963e-05
*RES
1 *4836:Y *4838:A 19.4973 
*END

*D_NET *472 0.000107065
*CONN
*I *4839:A I *D sky130_fd_sc_hd__inv_1
*I *4837:Y O *D sky130_fd_sc_hd__inv_1
*CAP
1 *4839:A 5.35325e-05
2 *4837:Y 5.35325e-05
*RES
1 *4837:Y *4839:A 19.4973 
*END

*D_NET *473 0.000264215
*CONN
*I *4847:B I *D sky130_fd_sc_hd__nand2_1
*I *4838:Y O *D sky130_fd_sc_hd__inv_1
*CAP
1 *4847:B 0.000132107
2 *4838:Y 0.000132107
*RES
1 *4838:Y *4847:B 29.5732 
*END

*D_NET *474 0.000106936
*CONN
*I *4840:A I *D sky130_fd_sc_hd__inv_1
*I *4839:Y O *D sky130_fd_sc_hd__inv_1
*CAP
1 *4840:A 5.3468e-05
2 *4839:Y 5.3468e-05
*RES
1 *4839:Y *4840:A 19.4973 
*END

*D_NET *475 0.000859762
*CONN
*I *4841:A I *D sky130_fd_sc_hd__inv_1
*I *4840:Y O *D sky130_fd_sc_hd__inv_1
*CAP
1 *4841:A 0.000390611
2 *4840:Y 0.000390611
3 *4841:A *4842:A 5.90031e-05
4 *4841:A *4843:A 1.95366e-05
*RES
1 *4840:Y *4841:A 33.3455 
*END

*D_NET *476 0.000219842
*CONN
*I *4842:A I *D sky130_fd_sc_hd__inv_1
*I *4841:Y O *D sky130_fd_sc_hd__inv_1
*CAP
1 *4842:A 7.65553e-05
2 *4841:Y 7.65553e-05
3 *4842:A *4843:A 7.72844e-06
4 *4841:A *4842:A 5.90031e-05
*RES
1 *4841:Y *4842:A 20.3545 
*END

*D_NET *477 0.000164333
*CONN
*I *4843:A I *D sky130_fd_sc_hd__inv_1
*I *4842:Y O *D sky130_fd_sc_hd__inv_1
*CAP
1 *4843:A 6.85342e-05
2 *4842:Y 6.85342e-05
3 *4841:A *4843:A 1.95366e-05
4 *4842:A *4843:A 7.72844e-06
*RES
1 *4842:Y *4843:A 19.9705 
*END

*D_NET *478 0.000106793
*CONN
*I *4844:A I *D sky130_fd_sc_hd__inv_1
*I *4843:Y O *D sky130_fd_sc_hd__inv_1
*CAP
1 *4844:A 5.33963e-05
2 *4843:Y 5.33963e-05
*RES
1 *4843:Y *4844:A 19.4973 
*END

*D_NET *479 0.00011689
*CONN
*I *4845:A I *D sky130_fd_sc_hd__inv_1
*I *4844:Y O *D sky130_fd_sc_hd__inv_1
*CAP
1 *4845:A 5.42009e-05
2 *4844:Y 5.42009e-05
3 *4817:A *4845:A 8.48822e-06
*RES
1 *4844:Y *4845:A 19.4973 
*END

*D_NET *480 0.000157042
*CONN
*I *4816:A I *D sky130_fd_sc_hd__inv_1
*I *4845:Y O *D sky130_fd_sc_hd__inv_1
*CAP
1 *4816:A 5.84327e-05
2 *4845:Y 5.84327e-05
3 *4817:A *4816:A 4.01768e-05
*RES
1 *4845:Y *4816:A 19.8634 
*END

*D_NET *481 0.00363219
*CONN
*I *4398:A0 I *D sky130_fd_sc_hd__mux4_2
*I *4846:X O *D sky130_fd_sc_hd__buf_1
*CAP
1 *4398:A0 0.00129463
2 *4846:X 0.00129463
3 *4398:A0 *4398:A1 0
4 *4398:A0 *4863:A 6.98553e-06
5 *4398:A0 *4864:A 0.000294616
6 *4398:A0 *4872:A 1.40749e-05
7 *4398:A0 *4873:A 5.83895e-05
8 *4398:A0 *4874:A 0.000208569
9 *4398:S0 *4398:A0 0.000266027
10 *4399:B1 *4398:A0 5.58941e-05
11 *4830:A *4398:A0 1.37644e-05
12 *4831:A *4398:A0 5.18198e-05
13 *4832:A *4398:A0 7.27934e-05
*RES
1 *4846:X *4398:A0 49.5821 
*END

*D_NET *482 0.000441785
*CONN
*I *4879:A I *D sky130_fd_sc_hd__nand2_1
*I *4423:X O *D sky130_fd_sc_hd__and3_2
*CAP
1 *4879:A 0.000176907
2 *4423:X 0.000176907
3 *4879:A *4858:A 1.33343e-05
4 *4398:S0 *4879:A 4.57352e-05
5 *4422:C *4879:A 2.89016e-05
*RES
1 *4423:X *4879:A 30.3143 
*END

*D_NET *483 0.000230434
*CONN
*I *4858:A I *D sky130_fd_sc_hd__inv_1
*I *4879:Y O *D sky130_fd_sc_hd__nand2_1
*CAP
1 *4858:A 0.000103263
2 *4879:Y 0.000103263
3 *4858:A *4869:A 1.05729e-05
4 *4879:A *4858:A 1.33343e-05
*RES
1 *4879:Y *4858:A 20.6402 
*END

*D_NET *484 0.00055711
*CONN
*I *4849:A I *D sky130_fd_sc_hd__inv_1
*I *4848:Y O *D sky130_fd_sc_hd__inv_1
*CAP
1 *4849:A 0.000177347
2 *4848:Y 0.000177347
3 *4849:A *4877:A 0.000202416
*RES
1 *4848:Y *4849:A 21.5866 
*END

*D_NET *485 0.000106793
*CONN
*I *4850:A I *D sky130_fd_sc_hd__inv_1
*I *4849:Y O *D sky130_fd_sc_hd__inv_1
*CAP
1 *4850:A 5.33963e-05
2 *4849:Y 5.33963e-05
*RES
1 *4849:Y *4850:A 19.4973 
*END

*D_NET *486 0.000106793
*CONN
*I *4851:A I *D sky130_fd_sc_hd__inv_1
*I *4850:Y O *D sky130_fd_sc_hd__inv_1
*CAP
1 *4851:A 5.33963e-05
2 *4850:Y 5.33963e-05
*RES
1 *4850:Y *4851:A 19.4973 
*END

*D_NET *487 0.000106793
*CONN
*I *4852:A I *D sky130_fd_sc_hd__inv_1
*I *4851:Y O *D sky130_fd_sc_hd__inv_1
*CAP
1 *4852:A 5.33963e-05
2 *4851:Y 5.33963e-05
*RES
1 *4851:Y *4852:A 19.4973 
*END

*D_NET *488 0.000106793
*CONN
*I *4853:A I *D sky130_fd_sc_hd__inv_1
*I *4852:Y O *D sky130_fd_sc_hd__inv_1
*CAP
1 *4853:A 5.33963e-05
2 *4852:Y 5.33963e-05
*RES
1 *4852:Y *4853:A 19.4973 
*END

*D_NET *489 0.00121195
*CONN
*I *4878:A I *D sky130_fd_sc_hd__buf_1
*I *4854:A I *D sky130_fd_sc_hd__inv_1
*I *4853:Y O *D sky130_fd_sc_hd__inv_1
*CAP
1 *4878:A 0.000204846
2 *4854:A 1.04692e-05
3 *4853:Y 0.000200999
4 *489:8 0.000416315
5 *4854:A *4856:A 1.37644e-05
6 *4878:A *4861:A 0
7 *489:8 *4856:A 5.25543e-05
8 *489:8 *4857:A 9.57215e-05
9 *489:8 *4859:A 0.000131829
10 *489:8 *4860:A 8.5453e-05
*RES
1 *4853:Y *489:8 14.1661 
2 *489:8 *4854:A 9.58125 
3 *489:8 *4878:A 21.0857 
*END

*D_NET *490 0.000162983
*CONN
*I *4855:A I *D sky130_fd_sc_hd__inv_1
*I *4854:Y O *D sky130_fd_sc_hd__inv_1
*CAP
1 *4855:A 5.33418e-05
2 *4854:Y 5.33418e-05
3 *4855:A *4856:A 5.62995e-05
*RES
1 *4854:Y *4855:A 19.8634 
*END

*D_NET *491 0.000500003
*CONN
*I *4856:A I *D sky130_fd_sc_hd__inv_1
*I *4855:Y O *D sky130_fd_sc_hd__inv_1
*CAP
1 *4856:A 0.000188692
2 *4855:Y 0.000188692
3 *4854:A *4856:A 1.37644e-05
4 *4855:A *4856:A 5.62995e-05
5 *489:8 *4856:A 5.25543e-05
*RES
1 *4855:Y *4856:A 21.5866 
*END

*D_NET *492 0.00016283
*CONN
*I *4857:A I *D sky130_fd_sc_hd__inv_1
*I *4856:Y O *D sky130_fd_sc_hd__inv_1
*CAP
1 *4857:A 3.3554e-05
2 *4856:Y 3.3554e-05
3 *489:8 *4857:A 9.57215e-05
*RES
1 *4856:Y *4857:A 19.4973 
*END

*D_NET *493 0.000242198
*CONN
*I *4859:A I *D sky130_fd_sc_hd__inv_1
*I *4857:Y O *D sky130_fd_sc_hd__inv_1
*CAP
1 *4859:A 5.51844e-05
2 *4857:Y 5.51844e-05
3 *489:8 *4859:A 0.000131829
*RES
1 *4857:Y *4859:A 19.8634 
*END

*D_NET *494 0.000375236
*CONN
*I *4869:A I *D sky130_fd_sc_hd__inv_1
*I *4858:Y O *D sky130_fd_sc_hd__inv_1
*CAP
1 *4869:A 0.000182332
2 *4858:Y 0.000182332
3 *4398:S0 *4869:A 0
4 *4858:A *4869:A 1.05729e-05
*RES
1 *4858:Y *4869:A 30.1134 
*END

*D_NET *495 0.000602074
*CONN
*I *4860:A I *D sky130_fd_sc_hd__inv_1
*I *4859:Y O *D sky130_fd_sc_hd__inv_1
*CAP
1 *4860:A 0.000238672
2 *4859:Y 0.000238672
3 *4860:A *4861:A 3.92757e-05
4 *489:8 *4860:A 8.5453e-05
*RES
1 *4859:Y *4860:A 31.3455 
*END

*D_NET *496 0.000742534
*CONN
*I *4861:A I *D sky130_fd_sc_hd__inv_1
*I *4860:Y O *D sky130_fd_sc_hd__inv_1
*CAP
1 *4861:A 0.000351629
2 *4860:Y 0.000351629
3 *4860:A *4861:A 3.92757e-05
4 *4878:A *4861:A 0
*RES
1 *4860:Y *4861:A 33.1045 
*END

*D_NET *497 0.000106793
*CONN
*I *4862:A I *D sky130_fd_sc_hd__inv_1
*I *4861:Y O *D sky130_fd_sc_hd__inv_1
*CAP
1 *4862:A 5.33963e-05
2 *4861:Y 5.33963e-05
*RES
1 *4861:Y *4862:A 19.4973 
*END

*D_NET *498 0.000378912
*CONN
*I *4863:A I *D sky130_fd_sc_hd__inv_1
*I *4862:Y O *D sky130_fd_sc_hd__inv_1
*CAP
1 *4863:A 0.000174193
2 *4862:Y 0.000174193
3 *4398:A0 *4863:A 6.98553e-06
4 *4398:S0 *4863:A 2.3541e-05
5 *4399:B1 *4863:A 0
*RES
1 *4862:Y *4863:A 30.1134 
*END

*D_NET *499 0.000616603
*CONN
*I *4864:A I *D sky130_fd_sc_hd__inv_1
*I *4863:Y O *D sky130_fd_sc_hd__inv_1
*CAP
1 *4864:A 8.32318e-05
2 *4863:Y 8.32318e-05
3 *4864:A *4865:A 5.33783e-05
4 *4864:A *4873:A 0
5 *4398:A0 *4864:A 0.000294616
6 *4398:S0 *4864:A 0.000102145
*RES
1 *4863:Y *4864:A 22.658 
*END

*D_NET *500 0.000174798
*CONN
*I *4865:A I *D sky130_fd_sc_hd__inv_1
*I *4864:Y O *D sky130_fd_sc_hd__inv_1
*CAP
1 *4865:A 1.2849e-05
2 *4864:Y 1.2849e-05
3 *4398:S0 *4865:A 9.57215e-05
4 *4864:A *4865:A 5.33783e-05
*RES
1 *4864:Y *4865:A 19.4973 
*END

*D_NET *501 0.000382693
*CONN
*I *4866:A I *D sky130_fd_sc_hd__inv_1
*I *4865:Y O *D sky130_fd_sc_hd__inv_1
*CAP
1 *4866:A 0.000173726
2 *4865:Y 0.000173726
3 *4398:S0 *4866:A 3.52408e-05
*RES
1 *4865:Y *4866:A 29.8098 
*END

*D_NET *502 0.000193713
*CONN
*I *4867:A I *D sky130_fd_sc_hd__inv_1
*I *4866:Y O *D sky130_fd_sc_hd__inv_1
*CAP
1 *4867:A 9.68567e-05
2 *4866:Y 9.68567e-05
*RES
1 *4866:Y *4867:A 20.4795 
*END

*D_NET *503 0.000171052
*CONN
*I *4868:A I *D sky130_fd_sc_hd__inv_1
*I *4867:Y O *D sky130_fd_sc_hd__inv_1
*CAP
1 *4868:A 7.24452e-05
2 *4867:Y 7.24452e-05
3 *4868:A *4870:A 2.61613e-05
*RES
1 *4867:Y *4868:A 19.8634 
*END

*D_NET *504 0.000508446
*CONN
*I *4870:A I *D sky130_fd_sc_hd__inv_1
*I *4868:Y O *D sky130_fd_sc_hd__inv_1
*CAP
1 *4870:A 0.000165476
2 *4868:Y 0.000165476
3 *4398:S0 *4870:A 0.000151333
4 *4868:A *4870:A 2.61613e-05
*RES
1 *4868:Y *4870:A 30.5688 
*END

*D_NET *505 0.000251218
*CONN
*I *4871:A I *D sky130_fd_sc_hd__inv_1
*I *4869:Y O *D sky130_fd_sc_hd__inv_1
*CAP
1 *4871:A 0.000117261
2 *4869:Y 0.000117261
3 *4871:A *4872:A 1.66955e-05
*RES
1 *4869:Y *4871:A 20.7205 
*END

*D_NET *506 9.06855e-05
*CONN
*I *4879:B I *D sky130_fd_sc_hd__nand2_1
*I *4870:Y O *D sky130_fd_sc_hd__inv_1
*CAP
1 *4879:B 4.53428e-05
2 *4870:Y 4.53428e-05
*RES
1 *4870:Y *4879:B 19.3411 
*END

*D_NET *507 0.000348456
*CONN
*I *4872:A I *D sky130_fd_sc_hd__inv_1
*I *4871:Y O *D sky130_fd_sc_hd__inv_1
*CAP
1 *4872:A 0.000158843
2 *4871:Y 0.000158843
3 *4398:A0 *4872:A 1.40749e-05
4 *4398:S0 *4872:A 0
5 *4871:A *4872:A 1.66955e-05
*RES
1 *4871:Y *4872:A 29.8098 
*END

*D_NET *508 0.000284
*CONN
*I *4873:A I *D sky130_fd_sc_hd__inv_1
*I *4872:Y O *D sky130_fd_sc_hd__inv_1
*CAP
1 *4873:A 0.000112805
2 *4872:Y 0.000112805
3 *4398:A0 *4873:A 5.83895e-05
4 *4864:A *4873:A 0
*RES
1 *4872:Y *4873:A 20.7205 
*END

*D_NET *509 0.00081682
*CONN
*I *4874:A I *D sky130_fd_sc_hd__inv_1
*I *4873:Y O *D sky130_fd_sc_hd__inv_1
*CAP
1 *4874:A 0.000297243
2 *4873:Y 0.000297243
3 *4874:A *4876:A 1.37644e-05
4 *4398:A0 *4874:A 0.000208569
*RES
1 *4873:Y *4874:A 31.8009 
*END

*D_NET *510 0.000169665
*CONN
*I *4875:A I *D sky130_fd_sc_hd__inv_1
*I *4874:Y O *D sky130_fd_sc_hd__inv_1
*CAP
1 *4875:A 5.66829e-05
2 *4874:Y 5.66829e-05
3 *4875:A *4876:A 5.62995e-05
*RES
1 *4874:Y *4875:A 19.8634 
*END

*D_NET *511 0.000448435
*CONN
*I *4876:A I *D sky130_fd_sc_hd__inv_1
*I *4875:Y O *D sky130_fd_sc_hd__inv_1
*CAP
1 *4876:A 0.000180843
2 *4875:Y 0.000180843
3 *4876:A *4877:A 1.66856e-05
4 *4874:A *4876:A 1.37644e-05
5 *4875:A *4876:A 5.62995e-05
*RES
1 *4875:Y *4876:A 21.9527 
*END

*D_NET *512 0.000750674
*CONN
*I *4877:A I *D sky130_fd_sc_hd__inv_1
*I *4876:Y O *D sky130_fd_sc_hd__inv_1
*CAP
1 *4877:A 0.0001984
2 *4876:Y 0.0001984
3 *4877:A *4848:A 0.000134772
4 *4849:A *4877:A 0.000202416
5 *4876:A *4877:A 1.66856e-05
*RES
1 *4876:Y *4877:A 32.283 
*END

*D_NET *513 0.000220337
*CONN
*I *4848:A I *D sky130_fd_sc_hd__inv_1
*I *4877:Y O *D sky130_fd_sc_hd__inv_1
*CAP
1 *4848:A 4.27826e-05
2 *4877:Y 4.27826e-05
3 *4877:A *4848:A 0.000134772
*RES
1 *4877:Y *4848:A 19.8634 
*END

*D_NET *514 0.000222656
*CONN
*I *4398:A1 I *D sky130_fd_sc_hd__mux4_2
*I *4878:X O *D sky130_fd_sc_hd__buf_1
*CAP
1 *4398:A1 0.000111328
2 *4878:X 0.000111328
3 *4398:A1 *4398:A3 0
4 *4398:A0 *4398:A1 0
5 *194:63 *4398:A1 0
*RES
1 *4878:X *4398:A1 29.5464 
*END

*D_NET *515 0.000531581
*CONN
*I *4911:A I *D sky130_fd_sc_hd__nand2_1
*I *4424:X O *D sky130_fd_sc_hd__and3_2
*CAP
1 *4911:A 0.000262887
2 *4424:X 0.000262887
3 *4911:A *4911:B 5.80706e-06
4 *4911:A *5341:A 0
*RES
1 *4424:X *4911:A 31.975 
*END

*D_NET *516 0.000332978
*CONN
*I *4890:A I *D sky130_fd_sc_hd__inv_1
*I *4911:Y O *D sky130_fd_sc_hd__nand2_1
*CAP
1 *4890:A 0.000166489
2 *4911:Y 0.000166489
*RES
1 *4911:Y *4890:A 21.4884 
*END

*D_NET *517 0.000515776
*CONN
*I *4881:A I *D sky130_fd_sc_hd__inv_1
*I *4880:Y O *D sky130_fd_sc_hd__inv_1
*CAP
1 *4881:A 0.000223197
2 *4880:Y 0.000223197
3 *4881:A *4880:A 3.93804e-05
4 *4881:A *4886:A 3.00023e-05
*RES
1 *4880:Y *4881:A 30.9795 
*END

*D_NET *518 0.000156494
*CONN
*I *4882:A I *D sky130_fd_sc_hd__inv_1
*I *4881:Y O *D sky130_fd_sc_hd__inv_1
*CAP
1 *4882:A 3.03862e-05
2 *4881:Y 3.03862e-05
3 *4882:A *4886:A 9.57215e-05
*RES
1 *4881:Y *4882:A 19.4973 
*END

*D_NET *519 0.000156494
*CONN
*I *4883:A I *D sky130_fd_sc_hd__inv_1
*I *4882:Y O *D sky130_fd_sc_hd__inv_1
*CAP
1 *4883:A 3.03862e-05
2 *4882:Y 3.03862e-05
3 *4883:A *4886:A 9.57215e-05
*RES
1 *4882:Y *4883:A 19.4973 
*END

*D_NET *520 0.000156494
*CONN
*I *4884:A I *D sky130_fd_sc_hd__inv_1
*I *4883:Y O *D sky130_fd_sc_hd__inv_1
*CAP
1 *4884:A 3.03862e-05
2 *4883:Y 3.03862e-05
3 *4884:A *4886:A 9.57215e-05
*RES
1 *4883:Y *4884:A 19.4973 
*END

*D_NET *521 0.000156494
*CONN
*I *4885:A I *D sky130_fd_sc_hd__inv_1
*I *4884:Y O *D sky130_fd_sc_hd__inv_1
*CAP
1 *4885:A 3.03862e-05
2 *4884:Y 3.03862e-05
3 *4885:A *4886:A 9.57215e-05
*RES
1 *4884:Y *4885:A 19.4973 
*END

*D_NET *522 0.00123701
*CONN
*I *4910:A I *D sky130_fd_sc_hd__buf_1
*I *4886:A I *D sky130_fd_sc_hd__inv_1
*I *4885:Y O *D sky130_fd_sc_hd__inv_1
*CAP
1 *4910:A 6.56282e-05
2 *4886:A 0.000346434
3 *4885:Y 0
4 *522:4 0.000412062
5 *4881:A *4886:A 3.00023e-05
6 *4882:A *4886:A 9.57215e-05
7 *4883:A *4886:A 9.57215e-05
8 *4884:A *4886:A 9.57215e-05
9 *4885:A *4886:A 9.57215e-05
*RES
1 *4885:Y *522:4 9.3 
2 *522:4 *4886:A 16.0902 
3 *522:4 *4910:A 10.4696 
*END

*D_NET *523 0.000336802
*CONN
*I *4887:A I *D sky130_fd_sc_hd__inv_1
*I *4886:Y O *D sky130_fd_sc_hd__inv_1
*CAP
1 *4887:A 0.000168401
2 *4886:Y 0.000168401
*RES
1 *4886:Y *4887:A 29.8098 
*END

*D_NET *524 0.000230337
*CONN
*I *4888:A I *D sky130_fd_sc_hd__inv_1
*I *4887:Y O *D sky130_fd_sc_hd__inv_1
*CAP
1 *4888:A 0.000115169
2 *4887:Y 0.000115169
*RES
1 *4887:Y *4888:A 20.2027 
*END

*D_NET *525 0.000107065
*CONN
*I *4889:A I *D sky130_fd_sc_hd__inv_1
*I *4888:Y O *D sky130_fd_sc_hd__inv_1
*CAP
1 *4889:A 5.35325e-05
2 *4888:Y 5.35325e-05
*RES
1 *4888:Y *4889:A 19.4973 
*END

*D_NET *526 0.000116153
*CONN
*I *4891:A I *D sky130_fd_sc_hd__inv_1
*I *4889:Y O *D sky130_fd_sc_hd__inv_1
*CAP
1 *4891:A 5.80763e-05
2 *4889:Y 5.80763e-05
*RES
1 *4889:Y *4891:A 19.4973 
*END

*D_NET *527 0.000164013
*CONN
*I *4901:A I *D sky130_fd_sc_hd__inv_1
*I *4890:Y O *D sky130_fd_sc_hd__inv_1
*CAP
1 *4901:A 5.41977e-05
2 *4890:Y 5.41977e-05
3 *4901:A *4903:A 5.56173e-05
*RES
1 *4890:Y *4901:A 19.8634 
*END

*D_NET *528 0.000126333
*CONN
*I *4892:A I *D sky130_fd_sc_hd__inv_1
*I *4891:Y O *D sky130_fd_sc_hd__inv_1
*CAP
1 *4892:A 6.31666e-05
2 *4891:Y 6.31666e-05
*RES
1 *4891:Y *4892:A 19.4973 
*END

*D_NET *529 0.000108154
*CONN
*I *4893:A I *D sky130_fd_sc_hd__inv_1
*I *4892:Y O *D sky130_fd_sc_hd__inv_1
*CAP
1 *4893:A 5.40769e-05
2 *4892:Y 5.40769e-05
*RES
1 *4892:Y *4893:A 19.4973 
*END

*D_NET *530 0.000106793
*CONN
*I *4894:A I *D sky130_fd_sc_hd__inv_1
*I *4893:Y O *D sky130_fd_sc_hd__inv_1
*CAP
1 *4894:A 5.33963e-05
2 *4893:Y 5.33963e-05
*RES
1 *4893:Y *4894:A 19.4973 
*END

*D_NET *531 0.000160244
*CONN
*I *4895:A I *D sky130_fd_sc_hd__inv_1
*I *4894:Y O *D sky130_fd_sc_hd__inv_1
*CAP
1 *4895:A 5.80803e-05
2 *4894:Y 5.80803e-05
3 *4895:A *4896:A 4.40835e-05
*RES
1 *4894:Y *4895:A 19.8634 
*END

*D_NET *532 0.000396759
*CONN
*I *4896:A I *D sky130_fd_sc_hd__inv_1
*I *4895:Y O *D sky130_fd_sc_hd__inv_1
*CAP
1 *4896:A 0.000176338
2 *4895:Y 0.000176338
3 *4895:A *4896:A 4.40835e-05
*RES
1 *4895:Y *4896:A 30.2652 
*END

*D_NET *533 0.000106793
*CONN
*I *4897:A I *D sky130_fd_sc_hd__inv_1
*I *4896:Y O *D sky130_fd_sc_hd__inv_1
*CAP
1 *4897:A 5.33963e-05
2 *4896:Y 5.33963e-05
*RES
1 *4896:Y *4897:A 19.4973 
*END

*D_NET *534 0.000106793
*CONN
*I *4898:A I *D sky130_fd_sc_hd__inv_1
*I *4897:Y O *D sky130_fd_sc_hd__inv_1
*CAP
1 *4898:A 5.33963e-05
2 *4897:Y 5.33963e-05
*RES
1 *4897:Y *4898:A 19.4973 
*END

*D_NET *535 0.000688894
*CONN
*I *4899:A I *D sky130_fd_sc_hd__inv_1
*I *4898:Y O *D sky130_fd_sc_hd__inv_1
*CAP
1 *4899:A 0.000344447
2 *4898:Y 0.000344447
*RES
1 *4898:Y *4899:A 32.2116 
*END

*D_NET *536 0.000106793
*CONN
*I *4900:A I *D sky130_fd_sc_hd__inv_1
*I *4899:Y O *D sky130_fd_sc_hd__inv_1
*CAP
1 *4900:A 5.33963e-05
2 *4899:Y 5.33963e-05
*RES
1 *4899:Y *4900:A 19.4973 
*END

*D_NET *537 0.000106793
*CONN
*I *4902:A I *D sky130_fd_sc_hd__inv_1
*I *4900:Y O *D sky130_fd_sc_hd__inv_1
*CAP
1 *4902:A 5.33963e-05
2 *4900:Y 5.33963e-05
*RES
1 *4900:Y *4902:A 19.4973 
*END

*D_NET *538 0.000466015
*CONN
*I *4903:A I *D sky130_fd_sc_hd__inv_1
*I *4901:Y O *D sky130_fd_sc_hd__inv_1
*CAP
1 *4903:A 0.000205199
2 *4901:Y 0.000205199
3 *4903:A *4905:A 0
4 *4903:A *4911:B 0
5 *4901:A *4903:A 5.56173e-05
*RES
1 *4901:Y *4903:A 30.6313 
*END

*D_NET *539 0.000327228
*CONN
*I *4911:B I *D sky130_fd_sc_hd__nand2_1
*I *4902:Y O *D sky130_fd_sc_hd__inv_1
*CAP
1 *4911:B 0.000160711
2 *4902:Y 0.000160711
3 *4903:A *4911:B 0
4 *4911:A *4911:B 5.80706e-06
*RES
1 *4902:Y *4911:B 29.9839 
*END

*D_NET *540 0.0012559
*CONN
*I *4904:A I *D sky130_fd_sc_hd__inv_1
*I *4903:Y O *D sky130_fd_sc_hd__inv_1
*CAP
1 *4904:A 0.000547158
2 *4903:Y 0.000547158
3 *4904:A *4905:A 8.53843e-05
4 *4904:A *4906:A 7.62036e-05
*RES
1 *4903:Y *4904:A 35.0241 
*END

*D_NET *541 0.000331946
*CONN
*I *4905:A I *D sky130_fd_sc_hd__inv_1
*I *4904:Y O *D sky130_fd_sc_hd__inv_1
*CAP
1 *4905:A 0.000123281
2 *4904:Y 0.000123281
3 *4903:A *4905:A 0
4 *4904:A *4905:A 8.53843e-05
*RES
1 *4904:Y *4905:A 29.8098 
*END

*D_NET *542 0.000244446
*CONN
*I *4906:A I *D sky130_fd_sc_hd__inv_1
*I *4905:Y O *D sky130_fd_sc_hd__inv_1
*CAP
1 *4906:A 8.41213e-05
2 *4905:Y 8.41213e-05
3 *4904:A *4906:A 7.62036e-05
*RES
1 *4905:Y *4906:A 20.3545 
*END

*D_NET *543 0.000107065
*CONN
*I *4907:A I *D sky130_fd_sc_hd__inv_1
*I *4906:Y O *D sky130_fd_sc_hd__inv_1
*CAP
1 *4907:A 5.35325e-05
2 *4906:Y 5.35325e-05
*RES
1 *4906:Y *4907:A 19.4973 
*END

*D_NET *544 0.000107065
*CONN
*I *4908:A I *D sky130_fd_sc_hd__inv_1
*I *4907:Y O *D sky130_fd_sc_hd__inv_1
*CAP
1 *4908:A 5.35325e-05
2 *4907:Y 5.35325e-05
*RES
1 *4907:Y *4908:A 19.4973 
*END

*D_NET *545 0.0001071
*CONN
*I *4909:A I *D sky130_fd_sc_hd__inv_1
*I *4908:Y O *D sky130_fd_sc_hd__inv_1
*CAP
1 *4909:A 5.35499e-05
2 *4908:Y 5.35499e-05
*RES
1 *4908:Y *4909:A 19.4973 
*END

*D_NET *546 0.000158204
*CONN
*I *4880:A I *D sky130_fd_sc_hd__inv_1
*I *4909:Y O *D sky130_fd_sc_hd__inv_1
*CAP
1 *4880:A 5.94119e-05
2 *4909:Y 5.94119e-05
3 *4881:A *4880:A 3.93804e-05
*RES
1 *4909:Y *4880:A 19.8634 
*END

*D_NET *547 0.000485826
*CONN
*I *4398:A2 I *D sky130_fd_sc_hd__mux4_2
*I *4910:X O *D sky130_fd_sc_hd__buf_1
*CAP
1 *4398:A2 0.0001978
2 *4910:X 0.0001978
3 *4398:A2 *4398:A3 7.26117e-05
4 *4398:A2 *4942:A 1.76135e-05
5 *194:63 *4398:A2 0
*RES
1 *4910:X *4398:A2 30.9214 
*END

*D_NET *548 0.000378087
*CONN
*I *4943:A I *D sky130_fd_sc_hd__nand2_1
*I *4425:X O *D sky130_fd_sc_hd__and3_2
*CAP
1 *4943:A 5.38672e-05
2 *4425:X 5.38672e-05
3 *4943:A *4922:A 3.93247e-05
4 *4943:A *4943:B 8.08275e-05
5 *4943:A *5358:A 1.02936e-05
6 *176:22 *4943:A 0.000139907
*RES
1 *4425:X *4943:A 20.8143 
*END

*D_NET *549 0.000269735
*CONN
*I *4922:A I *D sky130_fd_sc_hd__inv_1
*I *4943:Y O *D sky130_fd_sc_hd__nand2_1
*CAP
1 *4922:A 4.31848e-05
2 *4943:Y 4.31848e-05
3 *4922:A *4943:B 9.7049e-06
4 *4922:A *5358:A 0.000107312
5 *4943:A *4922:A 3.93247e-05
6 *176:22 *4922:A 2.70241e-05
*RES
1 *4943:Y *4922:A 20.2563 
*END

*D_NET *550 0.000342784
*CONN
*I *4913:A I *D sky130_fd_sc_hd__inv_1
*I *4912:Y O *D sky130_fd_sc_hd__inv_1
*CAP
1 *4913:A 0.000137609
2 *4912:Y 0.000137609
3 *4913:A *4912:A 1.4024e-05
4 *4913:A *4915:A 0
5 *4399:B1 *4913:A 5.35423e-05
6 *194:63 *4913:A 0
*RES
1 *4912:Y *4913:A 30.1134 
*END

*D_NET *551 0.000225613
*CONN
*I *4914:A I *D sky130_fd_sc_hd__inv_1
*I *4913:Y O *D sky130_fd_sc_hd__inv_1
*CAP
1 *4914:A 0.000112806
2 *4913:Y 0.000112806
*RES
1 *4913:Y *4914:A 20.3545 
*END

*D_NET *552 0.000428168
*CONN
*I *4915:A I *D sky130_fd_sc_hd__inv_1
*I *4914:Y O *D sky130_fd_sc_hd__inv_1
*CAP
1 *4915:A 0.000173282
2 *4914:Y 0.000173282
3 *4399:B1 *4915:A 0
4 *4913:A *4915:A 0
5 *194:63 *4915:A 8.16036e-05
*RES
1 *4914:Y *4915:A 30.5688 
*END

*D_NET *553 0.000123347
*CONN
*I *4916:A I *D sky130_fd_sc_hd__inv_1
*I *4915:Y O *D sky130_fd_sc_hd__inv_1
*CAP
1 *4916:A 6.16736e-05
2 *4915:Y 6.16736e-05
*RES
1 *4915:Y *4916:A 19.4973 
*END

*D_NET *554 0.000106793
*CONN
*I *4917:A I *D sky130_fd_sc_hd__inv_1
*I *4916:Y O *D sky130_fd_sc_hd__inv_1
*CAP
1 *4917:A 5.33963e-05
2 *4916:Y 5.33963e-05
*RES
1 *4916:Y *4917:A 19.4973 
*END

*D_NET *555 0.000510858
*CONN
*I *4942:A I *D sky130_fd_sc_hd__buf_1
*I *4918:A I *D sky130_fd_sc_hd__inv_1
*I *4917:Y O *D sky130_fd_sc_hd__inv_1
*CAP
1 *4942:A 0.000182295
2 *4918:A 0
3 *4917:Y 6.16736e-05
4 *555:6 0.000243969
5 *4942:A *4398:A3 5.30637e-06
6 *4398:A2 *4942:A 1.76135e-05
7 *194:63 *4942:A 0
*RES
1 *4917:Y *555:6 10.1973 
2 *555:6 *4918:A 9.3 
3 *555:6 *4942:A 21.4964 
*END

*D_NET *556 0.000106793
*CONN
*I *4919:A I *D sky130_fd_sc_hd__inv_1
*I *4918:Y O *D sky130_fd_sc_hd__inv_1
*CAP
1 *4919:A 5.33963e-05
2 *4918:Y 5.33963e-05
*RES
1 *4918:Y *4919:A 19.4973 
*END

*D_NET *557 0.000106793
*CONN
*I *4920:A I *D sky130_fd_sc_hd__inv_1
*I *4919:Y O *D sky130_fd_sc_hd__inv_1
*CAP
1 *4920:A 5.33963e-05
2 *4919:Y 5.33963e-05
*RES
1 *4919:Y *4920:A 19.4973 
*END

*D_NET *558 0.000106793
*CONN
*I *4921:A I *D sky130_fd_sc_hd__inv_1
*I *4920:Y O *D sky130_fd_sc_hd__inv_1
*CAP
1 *4921:A 5.33963e-05
2 *4920:Y 5.33963e-05
*RES
1 *4920:Y *4921:A 19.4973 
*END

*D_NET *559 0.000152692
*CONN
*I *4923:A I *D sky130_fd_sc_hd__inv_1
*I *4921:Y O *D sky130_fd_sc_hd__inv_1
*CAP
1 *4923:A 6.93342e-05
2 *4921:Y 6.93342e-05
3 *4923:A *4924:A 1.4024e-05
*RES
1 *4921:Y *4923:A 19.8634 
*END

*D_NET *560 0.000137065
*CONN
*I *4933:A I *D sky130_fd_sc_hd__inv_1
*I *4922:Y O *D sky130_fd_sc_hd__inv_1
*CAP
1 *4933:A 1.51541e-05
2 *4922:Y 1.51541e-05
3 *4933:A *5358:A 5.33783e-05
4 *176:22 *4933:A 5.33783e-05
*RES
1 *4922:Y *4933:A 19.4973 
*END

*D_NET *561 0.000462542
*CONN
*I *4924:A I *D sky130_fd_sc_hd__inv_1
*I *4923:Y O *D sky130_fd_sc_hd__inv_1
*CAP
1 *4924:A 0.00020067
2 *4923:Y 0.00020067
3 *4924:A *4925:A 4.11274e-05
4 *4924:A *4928:A 6.05161e-06
5 *4923:A *4924:A 1.4024e-05
*RES
1 *4923:Y *4924:A 30.9348 
*END

*D_NET *562 0.000680772
*CONN
*I *4925:A I *D sky130_fd_sc_hd__inv_1
*I *4924:Y O *D sky130_fd_sc_hd__inv_1
*CAP
1 *4925:A 0.000264057
2 *4924:Y 0.000264057
3 *4925:A *4926:A 5.32631e-05
4 *4925:A *4927:A 5.33783e-05
5 *4925:A *4928:A 4.8896e-06
6 *4924:A *4925:A 4.11274e-05
*RES
1 *4924:Y *4925:A 23.6402 
*END

*D_NET *563 0.00012518
*CONN
*I *4926:A I *D sky130_fd_sc_hd__inv_1
*I *4925:Y O *D sky130_fd_sc_hd__inv_1
*CAP
1 *4926:A 3.59583e-05
2 *4925:Y 3.59583e-05
3 *4925:A *4926:A 5.32631e-05
*RES
1 *4925:Y *4926:A 19.4973 
*END

*D_NET *564 0.000125096
*CONN
*I *4927:A I *D sky130_fd_sc_hd__inv_1
*I *4926:Y O *D sky130_fd_sc_hd__inv_1
*CAP
1 *4927:A 3.58591e-05
2 *4926:Y 3.58591e-05
3 *4925:A *4927:A 5.33783e-05
*RES
1 *4926:Y *4927:A 19.4973 
*END

*D_NET *565 0.000344517
*CONN
*I *4928:A I *D sky130_fd_sc_hd__inv_1
*I *4927:Y O *D sky130_fd_sc_hd__inv_1
*CAP
1 *4928:A 0.000152745
2 *4927:Y 0.000152745
3 *4424:C *4928:A 2.80853e-05
4 *4924:A *4928:A 6.05161e-06
5 *4925:A *4928:A 4.8896e-06
*RES
1 *4927:Y *4928:A 29.8545 
*END

*D_NET *566 0.000156494
*CONN
*I *4929:A I *D sky130_fd_sc_hd__inv_1
*I *4928:Y O *D sky130_fd_sc_hd__inv_1
*CAP
1 *4929:A 3.03862e-05
2 *4928:Y 3.03862e-05
3 *4424:C *4929:A 9.57215e-05
*RES
1 *4928:Y *4929:A 19.4973 
*END

*D_NET *567 0.000156494
*CONN
*I *4930:A I *D sky130_fd_sc_hd__inv_1
*I *4929:Y O *D sky130_fd_sc_hd__inv_1
*CAP
1 *4930:A 3.03862e-05
2 *4929:Y 3.03862e-05
3 *4424:C *4930:A 9.57215e-05
*RES
1 *4929:Y *4930:A 19.4973 
*END

*D_NET *568 0.000156494
*CONN
*I *4931:A I *D sky130_fd_sc_hd__inv_1
*I *4930:Y O *D sky130_fd_sc_hd__inv_1
*CAP
1 *4931:A 3.03862e-05
2 *4930:Y 3.03862e-05
3 *4424:C *4931:A 9.57215e-05
*RES
1 *4930:Y *4931:A 19.4973 
*END

*D_NET *569 0.000201743
*CONN
*I *4932:A I *D sky130_fd_sc_hd__inv_1
*I *4931:Y O *D sky130_fd_sc_hd__inv_1
*CAP
1 *4932:A 5.47369e-05
2 *4931:Y 5.47369e-05
3 *4932:A *4934:A 1.3216e-05
4 *4424:C *4932:A 7.90536e-05
*RES
1 *4931:Y *4932:A 19.8634 
*END

*D_NET *570 0.000689967
*CONN
*I *4934:A I *D sky130_fd_sc_hd__inv_1
*I *4932:Y O *D sky130_fd_sc_hd__inv_1
*CAP
1 *4934:A 0.000148788
2 *4932:Y 0.000148788
3 *4934:A *4943:B 0.000120943
4 *4934:A *5358:A 8.86533e-05
5 *4424:C *4934:A 0.000146474
6 *4932:A *4934:A 1.3216e-05
7 *176:22 *4934:A 2.3104e-05
*RES
1 *4932:Y *4934:A 31.417 
*END

*D_NET *571 0.000137065
*CONN
*I *4935:A I *D sky130_fd_sc_hd__inv_1
*I *4933:Y O *D sky130_fd_sc_hd__inv_1
*CAP
1 *4935:A 1.51541e-05
2 *4933:Y 1.51541e-05
3 *4935:A *5358:A 5.33783e-05
4 *176:22 *4935:A 5.33783e-05
*RES
1 *4933:Y *4935:A 19.4973 
*END

*D_NET *572 0.000832575
*CONN
*I *4943:B I *D sky130_fd_sc_hd__nand2_1
*I *4934:Y O *D sky130_fd_sc_hd__inv_1
*CAP
1 *4943:B 0.000114594
2 *4934:Y 0.000114594
3 *4943:B *5358:A 0.000135128
4 *4922:A *4943:B 9.7049e-06
5 *4934:A *4943:B 0.000120943
6 *4943:A *4943:B 8.08275e-05
7 *176:22 *4943:B 0.000256783
*RES
1 *4934:Y *4943:B 23.0911 
*END

*D_NET *573 0.000586038
*CONN
*I *4936:A I *D sky130_fd_sc_hd__inv_1
*I *4935:Y O *D sky130_fd_sc_hd__inv_1
*CAP
1 *4936:A 0.000157284
2 *4935:Y 0.000157284
3 *4936:A *4937:A 1.59935e-05
4 *4936:A *4938:A 9.35797e-06
5 *4399:B1 *4936:A 0.000146474
6 *176:22 *4936:A 3.33174e-05
7 *177:59 *4936:A 6.63281e-05
8 *194:63 *4936:A 0
*RES
1 *4935:Y *4936:A 30.5241 
*END

*D_NET *574 0.000328482
*CONN
*I *4937:A I *D sky130_fd_sc_hd__inv_1
*I *4936:Y O *D sky130_fd_sc_hd__inv_1
*CAP
1 *4937:A 7.34665e-05
2 *4936:Y 7.34665e-05
3 *4937:A *4938:A 8.43733e-05
4 *4936:A *4937:A 1.59935e-05
5 *177:59 *4937:A 8.11817e-05
*RES
1 *4936:Y *4937:A 20.7205 
*END

*D_NET *575 0.000770107
*CONN
*I *4938:A I *D sky130_fd_sc_hd__inv_1
*I *4937:Y O *D sky130_fd_sc_hd__inv_1
*CAP
1 *4938:A 0.000250596
2 *4937:Y 0.000250596
3 *4936:A *4938:A 9.35797e-06
4 *4937:A *4938:A 8.43733e-05
5 *177:59 *4938:A 0.000175184
*RES
1 *4937:Y *4938:A 23.0777 
*END

*D_NET *576 0.000566576
*CONN
*I *4939:A I *D sky130_fd_sc_hd__inv_1
*I *4938:Y O *D sky130_fd_sc_hd__inv_1
*CAP
1 *4939:A 0.000182893
2 *4938:Y 0.000182893
3 *4939:A *4941:A 1.00442e-05
4 *4399:B1 *4939:A 6.97972e-05
5 *177:59 *4939:A 0.00012095
*RES
1 *4938:Y *4939:A 30.6313 
*END

*D_NET *577 0.000271414
*CONN
*I *4940:A I *D sky130_fd_sc_hd__inv_1
*I *4939:Y O *D sky130_fd_sc_hd__inv_1
*CAP
1 *4940:A 0.000124796
2 *4939:Y 0.000124796
3 *4940:A *4941:A 2.18216e-05
*RES
1 *4939:Y *4940:A 20.7205 
*END

*D_NET *578 0.000630458
*CONN
*I *4941:A I *D sky130_fd_sc_hd__inv_1
*I *4940:Y O *D sky130_fd_sc_hd__inv_1
*CAP
1 *4941:A 0.000221915
2 *4940:Y 0.000221915
3 *4399:B1 *4941:A 0.000154762
4 *4939:A *4941:A 1.00442e-05
5 *4940:A *4941:A 2.18216e-05
*RES
1 *4940:Y *4941:A 31.3902 
*END

*D_NET *579 0.000155217
*CONN
*I *4912:A I *D sky130_fd_sc_hd__inv_1
*I *4941:Y O *D sky130_fd_sc_hd__inv_1
*CAP
1 *4912:A 7.05965e-05
2 *4941:Y 7.05965e-05
3 *4913:A *4912:A 1.4024e-05
*RES
1 *4941:Y *4912:A 19.8634 
*END

*D_NET *580 0.000616393
*CONN
*I *4398:A3 I *D sky130_fd_sc_hd__mux4_2
*I *4942:X O *D sky130_fd_sc_hd__buf_1
*CAP
1 *4398:A3 0.000267824
2 *4942:X 0.000267824
3 *4398:A1 *4398:A3 0
4 *4398:A2 *4398:A3 7.26117e-05
5 *4942:A *4398:A3 5.30637e-06
6 *194:63 *4398:A3 2.8266e-06
*RES
1 *4942:X *4398:A3 31.9036 
*END

*D_NET *581 0.00112361
*CONN
*I *4975:A I *D sky130_fd_sc_hd__nand2_1
*I *4407:X O *D sky130_fd_sc_hd__and3_2
*CAP
1 *4975:A 0.000409963
2 *4407:X 0.000409963
3 *4975:A *4961:A 4.51394e-05
4 *4975:A *4962:A 9.27788e-05
5 *4975:A *4963:A 3.33238e-05
6 *4975:A *4966:A 5.30637e-06
7 *4551:A *4975:A 3.93346e-05
8 *174:6 *4975:A 8.78006e-05
*RES
1 *4407:X *4975:A 26.1536 
*END

*D_NET *582 0.000491775
*CONN
*I *4954:A I *D sky130_fd_sc_hd__inv_1
*I *4975:Y O *D sky130_fd_sc_hd__nand2_1
*CAP
1 *4954:A 0.000135867
2 *4975:Y 0.000135867
3 *4954:A *4966:A 0.00013627
4 *4954:A *4975:B 8.37711e-05
*RES
1 *4975:Y *4954:A 30.8991 
*END

*D_NET *583 0.000697082
*CONN
*I *4945:A I *D sky130_fd_sc_hd__inv_1
*I *4944:Y O *D sky130_fd_sc_hd__inv_1
*CAP
1 *4945:A 0.000279832
2 *4944:Y 0.000279832
3 *4945:A *4970:A 1.37644e-05
4 *4945:A *4972:A 9.02601e-05
5 *4389:A0 *4945:A 3.33941e-05
*RES
1 *4944:Y *4945:A 31.7473 
*END

*D_NET *584 0.000395493
*CONN
*I *4946:A I *D sky130_fd_sc_hd__inv_1
*I *4945:Y O *D sky130_fd_sc_hd__inv_1
*CAP
1 *4946:A 0.00018289
2 *4945:Y 0.00018289
3 *4389:A0 *4946:A 2.97126e-05
4 *4397:S1 *4946:A 0
*RES
1 *4945:Y *4946:A 30.2652 
*END

*D_NET *585 0.000163444
*CONN
*I *4947:A I *D sky130_fd_sc_hd__inv_1
*I *4946:Y O *D sky130_fd_sc_hd__inv_1
*CAP
1 *4947:A 3.41047e-05
2 *4946:Y 3.41047e-05
3 *4389:A0 *4947:A 9.52342e-05
*RES
1 *4946:Y *4947:A 19.4973 
*END

*D_NET *586 0.000399357
*CONN
*I *4948:A I *D sky130_fd_sc_hd__inv_1
*I *4947:Y O *D sky130_fd_sc_hd__inv_1
*CAP
1 *4948:A 8.75698e-05
2 *4947:Y 8.75698e-05
3 *4389:A0 *4948:A 0.000224217
*RES
1 *4947:Y *4948:A 20.7295 
*END

*D_NET *587 0.00016283
*CONN
*I *4949:A I *D sky130_fd_sc_hd__inv_1
*I *4948:Y O *D sky130_fd_sc_hd__inv_1
*CAP
1 *4949:A 3.3554e-05
2 *4948:Y 3.3554e-05
3 *4389:A0 *4949:A 9.57215e-05
*RES
1 *4948:Y *4949:A 19.4973 
*END

*D_NET *588 0.00107973
*CONN
*I *4950:A I *D sky130_fd_sc_hd__inv_1
*I *4974:A I *D sky130_fd_sc_hd__buf_1
*I *4949:Y O *D sky130_fd_sc_hd__inv_1
*CAP
1 *4950:A 9.59287e-05
2 *4974:A 6.53675e-05
3 *4949:Y 0.000138884
4 *588:6 0.000300181
5 *588:6 *4951:A 2.80789e-05
6 *588:6 *4952:A 0.000131829
7 *4389:A0 *4974:A 8.7498e-05
8 *4389:A0 *588:6 6.6922e-05
9 *4397:S0 *4950:A 3.5707e-05
10 *4553:A *4950:A 1.59782e-05
11 *4556:A *4950:A 2.3541e-05
12 *100:10 *4950:A 7.83587e-05
13 *194:53 *4950:A 1.14548e-05
*RES
1 *4949:Y *588:6 12.0946 
2 *588:6 *4974:A 10.675 
3 *588:6 *4950:A 20.608 
*END

*D_NET *589 0.000789632
*CONN
*I *4951:A I *D sky130_fd_sc_hd__inv_1
*I *4950:Y O *D sky130_fd_sc_hd__inv_1
*CAP
1 *4951:A 0.000232225
2 *4950:Y 0.000232225
3 *4389:A0 *4951:A 3.00023e-05
4 *4397:S0 *4951:A 6.19181e-05
5 *4397:S1 *4951:A 0
6 *4556:A *4951:A 0.000120501
7 *191:14 *4951:A 8.46829e-05
8 *588:6 *4951:A 2.80789e-05
*RES
1 *4950:Y *4951:A 31.4973 
*END

*D_NET *590 0.000309657
*CONN
*I *4952:A I *D sky130_fd_sc_hd__inv_1
*I *4951:Y O *D sky130_fd_sc_hd__inv_1
*CAP
1 *4952:A 2.29989e-05
2 *4951:Y 2.29989e-05
3 *4389:A0 *4952:A 0.000131829
4 *588:6 *4952:A 0.000131829
*RES
1 *4951:Y *4952:A 19.8634 
*END

*D_NET *591 0.000796154
*CONN
*I *4953:A I *D sky130_fd_sc_hd__inv_1
*I *4952:Y O *D sky130_fd_sc_hd__inv_1
*CAP
1 *4953:A 0.000145737
2 *4952:Y 0.000145737
3 *4389:A0 *4953:A 1.66856e-05
4 *4397:S0 *4953:A 0.000320738
5 *179:32 *4953:A 0.000167256
*RES
1 *4952:Y *4953:A 32.2384 
*END

*D_NET *592 0.000625679
*CONN
*I *4955:A I *D sky130_fd_sc_hd__inv_1
*I *4953:Y O *D sky130_fd_sc_hd__inv_1
*CAP
1 *4955:A 0.000214722
2 *4953:Y 0.000214722
3 *4553:A *4955:A 6.97972e-05
4 *100:10 *4955:A 0.000126439
*RES
1 *4953:Y *4955:A 31.0866 
*END

*D_NET *593 0.000126026
*CONN
*I *4965:A I *D sky130_fd_sc_hd__inv_1
*I *4954:Y O *D sky130_fd_sc_hd__inv_1
*CAP
1 *4965:A 6.30132e-05
2 *4954:Y 6.30132e-05
*RES
1 *4954:Y *4965:A 19.4973 
*END

*D_NET *594 0.000126413
*CONN
*I *4956:A I *D sky130_fd_sc_hd__inv_1
*I *4955:Y O *D sky130_fd_sc_hd__inv_1
*CAP
1 *4956:A 6.32065e-05
2 *4955:Y 6.32065e-05
*RES
1 *4955:Y *4956:A 19.4973 
*END

*D_NET *595 0.000126125
*CONN
*I *4957:A I *D sky130_fd_sc_hd__inv_1
*I *4956:Y O *D sky130_fd_sc_hd__inv_1
*CAP
1 *4957:A 6.30623e-05
2 *4956:Y 6.30623e-05
*RES
1 *4956:Y *4957:A 19.4973 
*END

*D_NET *596 0.000320481
*CONN
*I *4958:A I *D sky130_fd_sc_hd__inv_1
*I *4957:Y O *D sky130_fd_sc_hd__inv_1
*CAP
1 *4958:A 0.000125342
2 *4957:Y 0.000125342
3 *4397:S0 *4958:A 6.97972e-05
4 *4397:S1 *4958:A 0
*RES
1 *4957:Y *4958:A 29.8098 
*END

*D_NET *597 0.000194451
*CONN
*I *4959:A I *D sky130_fd_sc_hd__inv_1
*I *4958:Y O *D sky130_fd_sc_hd__inv_1
*CAP
1 *4959:A 9.72253e-05
2 *4958:Y 9.72253e-05
*RES
1 *4958:Y *4959:A 20.3545 
*END

*D_NET *598 0.000328704
*CONN
*I *4960:A I *D sky130_fd_sc_hd__inv_1
*I *4959:Y O *D sky130_fd_sc_hd__inv_1
*CAP
1 *4960:A 0.000144279
2 *4959:Y 0.000144279
3 *4960:A *4961:A 4.01455e-05
*RES
1 *4959:Y *4960:A 21.0955 
*END

*D_NET *599 0.000591444
*CONN
*I *4961:A I *D sky130_fd_sc_hd__inv_1
*I *4960:Y O *D sky130_fd_sc_hd__inv_1
*CAP
1 *4961:A 0.00022639
2 *4960:Y 0.00022639
3 *4397:S0 *4961:A 0
4 *4397:S1 *4961:A 5.33786e-05
5 *4960:A *4961:A 4.01455e-05
6 *4975:A *4961:A 4.51394e-05
*RES
1 *4960:Y *4961:A 31.7652 
*END

*D_NET *600 0.00017053
*CONN
*I *4962:A I *D sky130_fd_sc_hd__inv_1
*I *4961:Y O *D sky130_fd_sc_hd__inv_1
*CAP
1 *4962:A 3.88754e-05
2 *4961:Y 3.88754e-05
3 *4975:A *4962:A 9.27788e-05
*RES
1 *4961:Y *4962:A 19.4973 
*END

*D_NET *601 0.000408119
*CONN
*I *4963:A I *D sky130_fd_sc_hd__inv_1
*I *4962:Y O *D sky130_fd_sc_hd__inv_1
*CAP
1 *4963:A 0.000107279
2 *4962:Y 0.000107279
3 *4963:A *4964:A 0
4 *4963:A *5281:A 9.25014e-06
5 *4397:S1 *4963:A 0.000127446
6 *4623:A *4963:A 2.3541e-05
7 *4975:A *4963:A 3.33238e-05
*RES
1 *4962:Y *4963:A 29.8098 
*END

*D_NET *602 0.000794846
*CONN
*I *4964:A I *D sky130_fd_sc_hd__inv_1
*I *4963:Y O *D sky130_fd_sc_hd__inv_1
*CAP
1 *4964:A 0.000279441
2 *4963:Y 0.000279441
3 *4964:A *4966:A 1.65787e-05
4 *4964:A *4975:B 1.00332e-05
5 *4397:S1 *4964:A 0
6 *4623:A *4964:A 0.000209351
7 *4963:A *4964:A 0
*RES
1 *4963:Y *4964:A 31.8634 
*END

*D_NET *603 0.000618011
*CONN
*I *4966:A I *D sky130_fd_sc_hd__inv_1
*I *4964:Y O *D sky130_fd_sc_hd__inv_1
*CAP
1 *4966:A 0.000192702
2 *4964:Y 0.000192702
3 *4966:A *4975:B 1.18064e-05
4 *4397:S1 *4966:A 6.26466e-05
5 *4954:A *4966:A 0.00013627
6 *4964:A *4966:A 1.65787e-05
7 *4975:A *4966:A 5.30637e-06
*RES
1 *4964:Y *4966:A 31.6938 
*END

*D_NET *604 0.000156717
*CONN
*I *4967:A I *D sky130_fd_sc_hd__inv_1
*I *4965:Y O *D sky130_fd_sc_hd__inv_1
*CAP
1 *4967:A 6.55675e-05
2 *4965:Y 6.55675e-05
3 *4967:A *4968:A 2.55816e-05
*RES
1 *4965:Y *4967:A 19.8634 
*END

*D_NET *605 0.000361364
*CONN
*I *4975:B I *D sky130_fd_sc_hd__nand2_1
*I *4966:Y O *D sky130_fd_sc_hd__inv_1
*CAP
1 *4975:B 0.000127876
2 *4966:Y 0.000127876
3 *4397:S1 *4975:B 0
4 *4954:A *4975:B 8.37711e-05
5 *4964:A *4975:B 1.00332e-05
6 *4966:A *4975:B 1.18064e-05
*RES
1 *4966:Y *4975:B 29.8768 
*END

*D_NET *606 0.00111055
*CONN
*I *4968:A I *D sky130_fd_sc_hd__inv_1
*I *4967:Y O *D sky130_fd_sc_hd__inv_1
*CAP
1 *4968:A 0.000465986
2 *4967:Y 0.000465986
3 *4968:A *4969:A 0.000133958
4 *4968:A *4970:A 1.90343e-05
5 *4967:A *4968:A 2.55816e-05
*RES
1 *4967:Y *4968:A 35.2295 
*END

*D_NET *607 0.000244995
*CONN
*I *4969:A I *D sky130_fd_sc_hd__inv_1
*I *4968:Y O *D sky130_fd_sc_hd__inv_1
*CAP
1 *4969:A 5.55181e-05
2 *4968:Y 5.55181e-05
3 *4968:A *4969:A 0.000133958
*RES
1 *4968:Y *4969:A 19.8634 
*END

*D_NET *608 0.00038391
*CONN
*I *4970:A I *D sky130_fd_sc_hd__inv_1
*I *4969:Y O *D sky130_fd_sc_hd__inv_1
*CAP
1 *4970:A 0.000161516
2 *4969:Y 0.000161516
3 *4389:A0 *4970:A 2.80789e-05
4 *4945:A *4970:A 1.37644e-05
5 *4968:A *4970:A 1.90343e-05
*RES
1 *4969:Y *4970:A 30.158 
*END

*D_NET *609 0.000240574
*CONN
*I *4971:A I *D sky130_fd_sc_hd__inv_1
*I *4970:Y O *D sky130_fd_sc_hd__inv_1
*CAP
1 *4971:A 3.17071e-05
2 *4970:Y 3.17071e-05
3 *4971:A *4972:A 4.32008e-05
4 *4389:A0 *4971:A 0.000133959
*RES
1 *4970:Y *4971:A 19.8634 
*END

*D_NET *610 0.000500103
*CONN
*I *4972:A I *D sky130_fd_sc_hd__inv_1
*I *4971:Y O *D sky130_fd_sc_hd__inv_1
*CAP
1 *4972:A 0.000183321
2 *4971:Y 0.000183321
3 *4945:A *4972:A 9.02601e-05
4 *4971:A *4972:A 4.32008e-05
*RES
1 *4971:Y *4972:A 30.2652 
*END

*D_NET *611 0.000109792
*CONN
*I *4973:A I *D sky130_fd_sc_hd__inv_1
*I *4972:Y O *D sky130_fd_sc_hd__inv_1
*CAP
1 *4973:A 5.48961e-05
2 *4972:Y 5.48961e-05
*RES
1 *4972:Y *4973:A 19.4973 
*END

*D_NET *612 0.000479876
*CONN
*I *4944:A I *D sky130_fd_sc_hd__inv_1
*I *4973:Y O *D sky130_fd_sc_hd__inv_1
*CAP
1 *4944:A 0.000203248
2 *4973:Y 0.000203248
3 *4389:A0 *4944:A 7.33793e-05
4 *4597:A *4944:A 0
5 *225:12 *4944:A 0
*RES
1 *4973:Y *4944:A 30.6759 
*END

*D_NET *613 0.00141575
*CONN
*I *4389:A1 I *D sky130_fd_sc_hd__mux4_2
*I *4974:X O *D sky130_fd_sc_hd__buf_1
*CAP
1 *4389:A1 0.000440136
2 *4974:X 0.000440136
3 *4389:A1 *4389:A3 0
4 *4389:A0 *4389:A1 0.000437749
5 *4391:A2 *4389:A1 9.77274e-05
*RES
1 *4974:X *4389:A1 24.9036 
*END

*D_NET *614 0.000698945
*CONN
*I *5007:A I *D sky130_fd_sc_hd__nand2_1
*I *4426:X O *D sky130_fd_sc_hd__and3_2
*CAP
1 *5007:A 0.0002224
2 *4426:X 0.0002224
3 *5007:A *5348:A 0
4 *4426:A *5007:A 5.52238e-05
5 *4426:B *5007:A 5.41494e-05
6 *4426:C *5007:A 0.000144773
*RES
1 *4426:X *5007:A 32.4393 
*END

*D_NET *615 0.000391797
*CONN
*I *4986:A I *D sky130_fd_sc_hd__inv_1
*I *5007:Y O *D sky130_fd_sc_hd__nand2_1
*CAP
1 *4986:A 0.0001731
2 *5007:Y 0.0001731
3 *4986:A *4997:A 1.66955e-05
4 *4986:A *4999:A 2.89016e-05
*RES
1 *5007:Y *4986:A 30.1938 
*END

*D_NET *616 0.000106793
*CONN
*I *4977:A I *D sky130_fd_sc_hd__inv_1
*I *4976:Y O *D sky130_fd_sc_hd__inv_1
*CAP
1 *4977:A 5.33963e-05
2 *4976:Y 5.33963e-05
*RES
1 *4976:Y *4977:A 19.4973 
*END

*D_NET *617 0.000106793
*CONN
*I *4978:A I *D sky130_fd_sc_hd__inv_1
*I *4977:Y O *D sky130_fd_sc_hd__inv_1
*CAP
1 *4978:A 5.33963e-05
2 *4977:Y 5.33963e-05
*RES
1 *4977:Y *4978:A 19.4973 
*END

*D_NET *618 0.000106793
*CONN
*I *4979:A I *D sky130_fd_sc_hd__inv_1
*I *4978:Y O *D sky130_fd_sc_hd__inv_1
*CAP
1 *4979:A 5.33963e-05
2 *4978:Y 5.33963e-05
*RES
1 *4978:Y *4979:A 19.4973 
*END

*D_NET *619 0.000106793
*CONN
*I *4980:A I *D sky130_fd_sc_hd__inv_1
*I *4979:Y O *D sky130_fd_sc_hd__inv_1
*CAP
1 *4980:A 5.33963e-05
2 *4979:Y 5.33963e-05
*RES
1 *4979:Y *4980:A 19.4973 
*END

*D_NET *620 0.000601629
*CONN
*I *4981:A I *D sky130_fd_sc_hd__inv_1
*I *4980:Y O *D sky130_fd_sc_hd__inv_1
*CAP
1 *4981:A 0.000267069
2 *4980:Y 0.000267069
3 *4981:A *4988:A 6.74911e-05
4 *4981:A *621:12 0
*RES
1 *4980:Y *4981:A 32.2384 
*END

*D_NET *621 0.000927916
*CONN
*I *4982:A I *D sky130_fd_sc_hd__inv_1
*I *5006:A I *D sky130_fd_sc_hd__buf_1
*I *4981:Y O *D sky130_fd_sc_hd__inv_1
*CAP
1 *4982:A 4.36939e-05
2 *5006:A 0
3 *4981:Y 0.000399468
4 *621:12 0.000443162
5 *621:12 *4401:A0 4.15914e-05
6 *4981:A *621:12 0
*RES
1 *4981:Y *621:12 23.5589 
2 *621:12 *5006:A 9.3 
3 *621:12 *4982:A 9.99196 
*END

*D_NET *622 0.000106793
*CONN
*I *4983:A I *D sky130_fd_sc_hd__inv_1
*I *4982:Y O *D sky130_fd_sc_hd__inv_1
*CAP
1 *4983:A 5.33963e-05
2 *4982:Y 5.33963e-05
*RES
1 *4982:Y *4983:A 19.4973 
*END

*D_NET *623 0.000106793
*CONN
*I *4984:A I *D sky130_fd_sc_hd__inv_1
*I *4983:Y O *D sky130_fd_sc_hd__inv_1
*CAP
1 *4984:A 5.33963e-05
2 *4983:Y 5.33963e-05
*RES
1 *4983:Y *4984:A 19.4973 
*END

*D_NET *624 0.000123347
*CONN
*I *4985:A I *D sky130_fd_sc_hd__inv_1
*I *4984:Y O *D sky130_fd_sc_hd__inv_1
*CAP
1 *4985:A 6.16736e-05
2 *4984:Y 6.16736e-05
*RES
1 *4984:Y *4985:A 19.4973 
*END

*D_NET *625 0.000162983
*CONN
*I *4987:A I *D sky130_fd_sc_hd__inv_1
*I *4985:Y O *D sky130_fd_sc_hd__inv_1
*CAP
1 *4987:A 5.33418e-05
2 *4985:Y 5.33418e-05
3 *4987:A *4988:A 5.62995e-05
*RES
1 *4985:Y *4987:A 19.8634 
*END

*D_NET *626 0.000262176
*CONN
*I *4997:A I *D sky130_fd_sc_hd__inv_1
*I *4986:Y O *D sky130_fd_sc_hd__inv_1
*CAP
1 *4997:A 0.000108304
2 *4986:Y 0.000108304
3 *4997:A *4999:A 2.88727e-05
4 *4986:A *4997:A 1.66955e-05
*RES
1 *4986:Y *4997:A 20.7205 
*END

*D_NET *627 0.00048584
*CONN
*I *4988:A I *D sky130_fd_sc_hd__inv_1
*I *4987:Y O *D sky130_fd_sc_hd__inv_1
*CAP
1 *4988:A 0.000181025
2 *4987:Y 0.000181025
3 *4981:A *4988:A 6.74911e-05
4 *4987:A *4988:A 5.62995e-05
*RES
1 *4987:Y *4988:A 30.6759 
*END

*D_NET *628 0.000106793
*CONN
*I *4989:A I *D sky130_fd_sc_hd__inv_1
*I *4988:Y O *D sky130_fd_sc_hd__inv_1
*CAP
1 *4989:A 5.33963e-05
2 *4988:Y 5.33963e-05
*RES
1 *4988:Y *4989:A 19.4973 
*END

*D_NET *629 0.000106793
*CONN
*I *4990:A I *D sky130_fd_sc_hd__inv_1
*I *4989:Y O *D sky130_fd_sc_hd__inv_1
*CAP
1 *4990:A 5.33963e-05
2 *4989:Y 5.33963e-05
*RES
1 *4989:Y *4990:A 19.4973 
*END

*D_NET *630 0.000106793
*CONN
*I *4991:A I *D sky130_fd_sc_hd__inv_1
*I *4990:Y O *D sky130_fd_sc_hd__inv_1
*CAP
1 *4991:A 5.33963e-05
2 *4990:Y 5.33963e-05
*RES
1 *4990:Y *4991:A 19.4973 
*END

*D_NET *631 0.000108778
*CONN
*I *4992:A I *D sky130_fd_sc_hd__inv_1
*I *4991:Y O *D sky130_fd_sc_hd__inv_1
*CAP
1 *4992:A 4.84196e-05
2 *4991:Y 4.84196e-05
3 *4992:A *4994:A 1.19393e-05
*RES
1 *4991:Y *4992:A 19.4973 
*END

*D_NET *632 0.000157042
*CONN
*I *4993:A I *D sky130_fd_sc_hd__inv_1
*I *4992:Y O *D sky130_fd_sc_hd__inv_1
*CAP
1 *4993:A 5.84326e-05
2 *4992:Y 5.84326e-05
3 *4993:A *4994:A 4.01768e-05
*RES
1 *4992:Y *4993:A 19.8634 
*END

*D_NET *633 0.000561975
*CONN
*I *4994:A I *D sky130_fd_sc_hd__inv_1
*I *4993:Y O *D sky130_fd_sc_hd__inv_1
*CAP
1 *4994:A 0.000254929
2 *4993:Y 0.000254929
3 *4992:A *4994:A 1.19393e-05
4 *4993:A *4994:A 4.01768e-05
*RES
1 *4993:Y *4994:A 31.3902 
*END

*D_NET *634 0.000106793
*CONN
*I *4995:A I *D sky130_fd_sc_hd__inv_1
*I *4994:Y O *D sky130_fd_sc_hd__inv_1
*CAP
1 *4995:A 5.33963e-05
2 *4994:Y 5.33963e-05
*RES
1 *4994:Y *4995:A 19.4973 
*END

*D_NET *635 0.000106793
*CONN
*I *4996:A I *D sky130_fd_sc_hd__inv_1
*I *4995:Y O *D sky130_fd_sc_hd__inv_1
*CAP
1 *4996:A 5.33963e-05
2 *4995:Y 5.33963e-05
*RES
1 *4995:Y *4996:A 19.4973 
*END

*D_NET *636 0.000106793
*CONN
*I *4998:A I *D sky130_fd_sc_hd__inv_1
*I *4996:Y O *D sky130_fd_sc_hd__inv_1
*CAP
1 *4998:A 5.33963e-05
2 *4996:Y 5.33963e-05
*RES
1 *4996:Y *4998:A 19.4973 
*END

*D_NET *637 0.000519692
*CONN
*I *4999:A I *D sky130_fd_sc_hd__inv_1
*I *4997:Y O *D sky130_fd_sc_hd__inv_1
*CAP
1 *4999:A 0.000220209
2 *4997:Y 0.000220209
3 *4999:A *5001:A 1.14548e-05
4 *4999:A *5002:A 1.00442e-05
5 *4986:A *4999:A 2.89016e-05
6 *4997:A *4999:A 2.88727e-05
*RES
1 *4997:Y *4999:A 30.6313 
*END

*D_NET *638 0.000137077
*CONN
*I *5007:B I *D sky130_fd_sc_hd__nand2_1
*I *4998:Y O *D sky130_fd_sc_hd__inv_1
*CAP
1 *5007:B 6.85386e-05
2 *4998:Y 6.85386e-05
*RES
1 *4998:Y *5007:B 19.7518 
*END

*D_NET *639 0.000407748
*CONN
*I *5000:A I *D sky130_fd_sc_hd__inv_1
*I *4999:Y O *D sky130_fd_sc_hd__inv_1
*CAP
1 *5000:A 0.000104788
2 *4999:Y 0.000104788
3 *5000:A *5001:A 7.72216e-05
4 *5000:A *5002:A 0.00012095
*RES
1 *4999:Y *5000:A 21.542 
*END

*D_NET *640 0.000657748
*CONN
*I *5001:A I *D sky130_fd_sc_hd__inv_1
*I *5000:Y O *D sky130_fd_sc_hd__inv_1
*CAP
1 *5001:A 0.000273314
2 *5000:Y 0.000273314
3 *5001:A *5002:A 2.24432e-05
4 *4999:A *5001:A 1.14548e-05
5 *5000:A *5001:A 7.72216e-05
*RES
1 *5000:Y *5001:A 22.7741 
*END

*D_NET *641 0.000770288
*CONN
*I *5002:A I *D sky130_fd_sc_hd__inv_1
*I *5001:Y O *D sky130_fd_sc_hd__inv_1
*CAP
1 *5002:A 0.000308426
2 *5001:Y 0.000308426
3 *4999:A *5002:A 1.00442e-05
4 *5000:A *5002:A 0.00012095
5 *5001:A *5002:A 2.24432e-05
*RES
1 *5001:Y *5002:A 32.2116 
*END

*D_NET *642 0.000106793
*CONN
*I *5003:A I *D sky130_fd_sc_hd__inv_1
*I *5002:Y O *D sky130_fd_sc_hd__inv_1
*CAP
1 *5003:A 5.33963e-05
2 *5002:Y 5.33963e-05
*RES
1 *5002:Y *5003:A 19.4973 
*END

*D_NET *643 0.000106793
*CONN
*I *5004:A I *D sky130_fd_sc_hd__inv_1
*I *5003:Y O *D sky130_fd_sc_hd__inv_1
*CAP
1 *5004:A 5.33963e-05
2 *5003:Y 5.33963e-05
*RES
1 *5003:Y *5004:A 19.4973 
*END

*D_NET *644 0.000106793
*CONN
*I *5005:A I *D sky130_fd_sc_hd__inv_1
*I *5004:Y O *D sky130_fd_sc_hd__inv_1
*CAP
1 *5005:A 5.33963e-05
2 *5004:Y 5.33963e-05
*RES
1 *5004:Y *5005:A 19.4973 
*END

*D_NET *645 0.000106793
*CONN
*I *4976:A I *D sky130_fd_sc_hd__inv_1
*I *5005:Y O *D sky130_fd_sc_hd__inv_1
*CAP
1 *4976:A 5.33963e-05
2 *5005:Y 5.33963e-05
*RES
1 *5005:Y *4976:A 19.4973 
*END

*D_NET *646 0.00198009
*CONN
*I *4401:A0 I *D sky130_fd_sc_hd__mux4_2
*I *5006:X O *D sky130_fd_sc_hd__buf_1
*CAP
1 *4401:A0 0.0007211
2 *5006:X 0.0007211
3 *4401:A0 *5025:A 0.000284711
4 *4401:A0 *5027:A 4.01534e-05
5 *4401:A0 *5029:A 2.49963e-05
6 *4401:A0 *5031:A 9.22922e-05
7 *4401:A0 *5032:A 3.32354e-05
8 *4402:B1 *4401:A0 2.09057e-05
9 *621:12 *4401:A0 4.15914e-05
*RES
1 *5006:X *4401:A0 39.6179 
*END

*D_NET *647 0.000461956
*CONN
*I *5039:A I *D sky130_fd_sc_hd__nand2_1
*I *4427:X O *D sky130_fd_sc_hd__and3_2
*CAP
1 *5039:A 0.000181597
2 *4427:X 0.000181597
3 *4402:B1 *5039:A 0
4 *4426:C *5039:A 9.87617e-05
*RES
1 *4427:X *5039:A 30.1893 
*END

*D_NET *648 0.000195038
*CONN
*I *5018:A I *D sky130_fd_sc_hd__inv_1
*I *5039:Y O *D sky130_fd_sc_hd__nand2_1
*CAP
1 *5018:A 9.75192e-05
2 *5039:Y 9.75192e-05
*RES
1 *5039:Y *5018:A 20.2563 
*END

*D_NET *649 0.000116009
*CONN
*I *5009:A I *D sky130_fd_sc_hd__inv_1
*I *5008:Y O *D sky130_fd_sc_hd__inv_1
*CAP
1 *5009:A 5.80044e-05
2 *5008:Y 5.80044e-05
*RES
1 *5008:Y *5009:A 19.4973 
*END

*D_NET *650 0.000126075
*CONN
*I *5010:A I *D sky130_fd_sc_hd__inv_1
*I *5009:Y O *D sky130_fd_sc_hd__inv_1
*CAP
1 *5010:A 6.30373e-05
2 *5009:Y 6.30373e-05
*RES
1 *5009:Y *5010:A 19.4973 
*END

*D_NET *651 0.000106793
*CONN
*I *5011:A I *D sky130_fd_sc_hd__inv_1
*I *5010:Y O *D sky130_fd_sc_hd__inv_1
*CAP
1 *5011:A 5.33963e-05
2 *5010:Y 5.33963e-05
*RES
1 *5010:Y *5011:A 19.4973 
*END

*D_NET *652 0.000155673
*CONN
*I *5012:A I *D sky130_fd_sc_hd__inv_1
*I *5011:Y O *D sky130_fd_sc_hd__inv_1
*CAP
1 *5012:A 7.78365e-05
2 *5011:Y 7.78365e-05
*RES
1 *5011:Y *5012:A 19.908 
*END

*D_NET *653 0.000352793
*CONN
*I *5013:A I *D sky130_fd_sc_hd__inv_1
*I *5012:Y O *D sky130_fd_sc_hd__inv_1
*CAP
1 *5013:A 0.000122193
2 *5012:Y 0.000122193
3 *5013:A *5017:A 9.43822e-05
4 *5013:A *5019:A 1.4024e-05
*RES
1 *5012:Y *5013:A 21.283 
*END

*D_NET *654 0.00048419
*CONN
*I *5038:A I *D sky130_fd_sc_hd__buf_1
*I *5014:A I *D sky130_fd_sc_hd__inv_1
*I *5013:Y O *D sky130_fd_sc_hd__inv_1
*CAP
1 *5038:A 0
2 *5014:A 5.24653e-05
3 *5013:Y 0.000113353
4 *654:12 0.000165818
5 *5014:A *5015:A 4.11175e-05
6 *654:12 *5015:A 7.6644e-05
7 *654:12 *5017:A 3.4792e-05
8 *654:12 *5019:A 0
*RES
1 *5013:Y *654:12 20.2732 
2 *654:12 *5014:A 10.358 
3 *654:12 *5038:A 9.3 
*END

*D_NET *655 0.000953413
*CONN
*I *5015:A I *D sky130_fd_sc_hd__inv_1
*I *5014:Y O *D sky130_fd_sc_hd__inv_1
*CAP
1 *5015:A 0.000341692
2 *5014:Y 0.000341692
3 *5015:A *4401:A1 9.33978e-07
4 *5015:A *5016:A 0.000151333
5 *5015:A *5019:A 0
6 *5014:A *5015:A 4.11175e-05
7 *654:12 *5015:A 7.6644e-05
*RES
1 *5014:Y *5015:A 33.3634 
*END

*D_NET *656 0.00055801
*CONN
*I *5016:A I *D sky130_fd_sc_hd__inv_1
*I *5015:Y O *D sky130_fd_sc_hd__inv_1
*CAP
1 *5016:A 0.000164773
2 *5015:Y 0.000164773
3 *5016:A *5017:A 7.71303e-05
4 *5015:A *5016:A 0.000151333
*RES
1 *5015:Y *5016:A 31.0063 
*END

*D_NET *657 0.000461723
*CONN
*I *5017:A I *D sky130_fd_sc_hd__inv_1
*I *5016:Y O *D sky130_fd_sc_hd__inv_1
*CAP
1 *5017:A 0.000127709
2 *5016:Y 0.000127709
3 *5013:A *5017:A 9.43822e-05
4 *5016:A *5017:A 7.71303e-05
5 *654:12 *5017:A 3.4792e-05
*RES
1 *5016:Y *5017:A 21.283 
*END

*D_NET *658 0.000314205
*CONN
*I *5019:A I *D sky130_fd_sc_hd__inv_1
*I *5017:Y O *D sky130_fd_sc_hd__inv_1
*CAP
1 *5019:A 0.00015009
2 *5017:Y 0.00015009
3 *5013:A *5019:A 1.4024e-05
4 *5015:A *5019:A 0
5 *654:12 *5019:A 0
*RES
1 *5017:Y *5019:A 29.8545 
*END

*D_NET *659 0.000460473
*CONN
*I *5029:A I *D sky130_fd_sc_hd__inv_1
*I *5018:Y O *D sky130_fd_sc_hd__inv_1
*CAP
1 *5029:A 0.000217738
2 *5018:Y 0.000217738
3 *4401:A0 *5029:A 2.49963e-05
*RES
1 *5018:Y *5029:A 30.5241 
*END

*D_NET *660 0.000152692
*CONN
*I *5020:A I *D sky130_fd_sc_hd__inv_1
*I *5019:Y O *D sky130_fd_sc_hd__inv_1
*CAP
1 *5020:A 6.93342e-05
2 *5019:Y 6.93342e-05
3 *5020:A *5021:A 1.4024e-05
*RES
1 *5019:Y *5020:A 19.8634 
*END

*D_NET *661 0.000408724
*CONN
*I *5021:A I *D sky130_fd_sc_hd__inv_1
*I *5020:Y O *D sky130_fd_sc_hd__inv_1
*CAP
1 *5021:A 0.000189007
2 *5020:Y 0.000189007
3 *5021:A *4401:A1 0
4 *5021:A *5022:A 1.66856e-05
5 *5020:A *5021:A 1.4024e-05
*RES
1 *5020:Y *5021:A 30.5241 
*END

*D_NET *662 0.000945599
*CONN
*I *5022:A I *D sky130_fd_sc_hd__inv_1
*I *5021:Y O *D sky130_fd_sc_hd__inv_1
*CAP
1 *5022:A 0.000316064
2 *5021:Y 0.000316064
3 *5022:A *5023:A 0.000296785
4 *5022:A *5032:A 0
5 *5022:A *5034:A 0
6 *5021:A *5022:A 1.66856e-05
*RES
1 *5021:Y *5022:A 24.4616 
*END

*D_NET *663 0.000618169
*CONN
*I *5023:A I *D sky130_fd_sc_hd__inv_1
*I *5022:Y O *D sky130_fd_sc_hd__inv_1
*CAP
1 *5023:A 9.35016e-05
2 *5022:Y 9.35016e-05
3 *5023:A *5024:A 0.000134381
4 *5022:A *5023:A 0.000296785
*RES
1 *5022:Y *5023:A 22.1045 
*END

*D_NET *664 0.000234388
*CONN
*I *5024:A I *D sky130_fd_sc_hd__inv_1
*I *5023:Y O *D sky130_fd_sc_hd__inv_1
*CAP
1 *5024:A 4.04277e-05
2 *5023:Y 4.04277e-05
3 *5024:A *5025:A 1.91511e-05
4 *5023:A *5024:A 0.000134381
*RES
1 *5023:Y *5024:A 19.8634 
*END

*D_NET *665 0.000902659
*CONN
*I *5025:A I *D sky130_fd_sc_hd__inv_1
*I *5024:Y O *D sky130_fd_sc_hd__inv_1
*CAP
1 *5025:A 0.000196197
2 *5024:Y 0.000196197
3 *5025:A *5026:A 9.57215e-05
4 *5025:A *5027:A 7.71303e-05
5 *5025:A *5028:A 1.08059e-05
6 *4401:A0 *5025:A 0.000284711
7 *4402:B1 *5025:A 2.27452e-05
8 *5024:A *5025:A 1.91511e-05
*RES
1 *5024:Y *5025:A 32.5687 
*END

*D_NET *666 0.000160812
*CONN
*I *5026:A I *D sky130_fd_sc_hd__inv_1
*I *5025:Y O *D sky130_fd_sc_hd__inv_1
*CAP
1 *5026:A 1.95637e-05
2 *5025:Y 1.95637e-05
3 *5026:A *5028:A 1.19393e-05
4 *4402:B1 *5026:A 1.4024e-05
5 *5025:A *5026:A 9.57215e-05
*RES
1 *5025:Y *5026:A 19.4973 
*END

*D_NET *667 0.000221325
*CONN
*I *5027:A I *D sky130_fd_sc_hd__inv_1
*I *5026:Y O *D sky130_fd_sc_hd__inv_1
*CAP
1 *5027:A 3.27953e-05
2 *5026:Y 3.27953e-05
3 *5027:A *5028:A 3.8451e-05
4 *4401:A0 *5027:A 4.01534e-05
5 *5025:A *5027:A 7.71303e-05
*RES
1 *5026:Y *5027:A 19.8634 
*END

*D_NET *668 0.00064025
*CONN
*I *5028:A I *D sky130_fd_sc_hd__inv_1
*I *5027:Y O *D sky130_fd_sc_hd__inv_1
*CAP
1 *5028:A 0.000213003
2 *5027:Y 0.000213003
3 *4402:B1 *5028:A 0.000153047
4 *5025:A *5028:A 1.08059e-05
5 *5026:A *5028:A 1.19393e-05
6 *5027:A *5028:A 3.8451e-05
*RES
1 *5027:Y *5028:A 31.3902 
*END

*D_NET *669 0.00011612
*CONN
*I *5030:A I *D sky130_fd_sc_hd__inv_1
*I *5028:Y O *D sky130_fd_sc_hd__inv_1
*CAP
1 *5030:A 5.80601e-05
2 *5028:Y 5.80601e-05
*RES
1 *5028:Y *5030:A 19.4973 
*END

*D_NET *670 0.000282612
*CONN
*I *5031:A I *D sky130_fd_sc_hd__inv_1
*I *5029:Y O *D sky130_fd_sc_hd__inv_1
*CAP
1 *5031:A 9.51599e-05
2 *5029:Y 9.51599e-05
3 *4401:A0 *5031:A 9.22922e-05
*RES
1 *5029:Y *5031:A 20.7205 
*END

*D_NET *671 0.000104335
*CONN
*I *5039:B I *D sky130_fd_sc_hd__nand2_1
*I *5030:Y O *D sky130_fd_sc_hd__inv_1
*CAP
1 *5039:B 5.21674e-05
2 *5030:Y 5.21674e-05
*RES
1 *5030:Y *5039:B 19.3411 
*END

*D_NET *672 0.000686068
*CONN
*I *5032:A I *D sky130_fd_sc_hd__inv_1
*I *5031:Y O *D sky130_fd_sc_hd__inv_1
*CAP
1 *5032:A 0.000284326
2 *5031:Y 0.000284326
3 *5032:A *5033:A 7.27934e-05
4 *5032:A *5034:A 1.13883e-05
5 *4401:A0 *5032:A 3.32354e-05
6 *5022:A *5032:A 0
*RES
1 *5031:Y *5032:A 31.6446 
*END

*D_NET *673 0.000188983
*CONN
*I *5033:A I *D sky130_fd_sc_hd__inv_1
*I *5032:Y O *D sky130_fd_sc_hd__inv_1
*CAP
1 *5033:A 3.08295e-05
2 *5032:Y 3.08295e-05
3 *5033:A *5034:A 5.45307e-05
4 *5032:A *5033:A 7.27934e-05
*RES
1 *5032:Y *5033:A 19.8634 
*END

*D_NET *674 0.000673764
*CONN
*I *5034:A I *D sky130_fd_sc_hd__inv_1
*I *5033:Y O *D sky130_fd_sc_hd__inv_1
*CAP
1 *5034:A 0.000288928
2 *5033:Y 0.000288928
3 *5034:A *5036:A 2.99894e-05
4 *5022:A *5034:A 0
5 *5032:A *5034:A 1.13883e-05
6 *5033:A *5034:A 5.45307e-05
*RES
1 *5033:Y *5034:A 32.3545 
*END

*D_NET *675 0.000219686
*CONN
*I *5035:A I *D sky130_fd_sc_hd__inv_1
*I *5034:Y O *D sky130_fd_sc_hd__inv_1
*CAP
1 *5035:A 5.98505e-05
2 *5034:Y 5.98505e-05
3 *5035:A *5036:A 9.99853e-05
*RES
1 *5034:Y *5035:A 19.9348 
*END

*D_NET *676 0.000491673
*CONN
*I *5036:A I *D sky130_fd_sc_hd__inv_1
*I *5035:Y O *D sky130_fd_sc_hd__inv_1
*CAP
1 *5036:A 0.000147126
2 *5035:Y 0.000147126
3 *5036:A *5037:A 6.74462e-05
4 *5034:A *5036:A 2.99894e-05
5 *5035:A *5036:A 9.99853e-05
*RES
1 *5035:Y *5036:A 21.6491 
*END

*D_NET *677 0.00056392
*CONN
*I *5037:A I *D sky130_fd_sc_hd__inv_1
*I *5036:Y O *D sky130_fd_sc_hd__inv_1
*CAP
1 *5037:A 0.000248237
2 *5036:Y 0.000248237
3 *5036:A *5037:A 6.74462e-05
*RES
1 *5036:Y *5037:A 31.4973 
*END

*D_NET *678 0.000107061
*CONN
*I *5008:A I *D sky130_fd_sc_hd__inv_1
*I *5037:Y O *D sky130_fd_sc_hd__inv_1
*CAP
1 *5008:A 5.35305e-05
2 *5037:Y 5.35305e-05
*RES
1 *5037:Y *5008:A 19.4973 
*END

*D_NET *679 0.000535022
*CONN
*I *4401:A1 I *D sky130_fd_sc_hd__mux4_2
*I *5038:X O *D sky130_fd_sc_hd__buf_1
*CAP
1 *4401:A1 0.000267044
2 *5038:X 0.000267044
3 *4401:A1 *4401:A3 0
4 *5015:A *4401:A1 9.33978e-07
5 *5021:A *4401:A1 0
*RES
1 *5038:X *4401:A1 31.9036 
*END

*D_NET *680 0.000360665
*CONN
*I *5071:A I *D sky130_fd_sc_hd__nand2_1
*I *4428:X O *D sky130_fd_sc_hd__and3_2
*CAP
1 *5071:A 0.000123353
2 *4428:X 0.000123353
3 *5071:A *5050:A 6.70052e-05
4 *5071:A *5061:A 3.3254e-05
5 *4428:C *5071:A 1.3701e-05
*RES
1 *4428:X *5071:A 21.225 
*END

*D_NET *681 0.000210659
*CONN
*I *5050:A I *D sky130_fd_sc_hd__inv_1
*I *5071:Y O *D sky130_fd_sc_hd__nand2_1
*CAP
1 *5050:A 7.18267e-05
2 *5071:Y 7.18267e-05
3 *5071:A *5050:A 6.70052e-05
*RES
1 *5071:Y *5050:A 20.2563 
*END

*D_NET *682 0.000154766
*CONN
*I *5041:A I *D sky130_fd_sc_hd__inv_1
*I *5040:Y O *D sky130_fd_sc_hd__inv_1
*CAP
1 *5041:A 6.75572e-05
2 *5040:Y 6.75572e-05
3 *5041:A *5042:A 1.96517e-05
*RES
1 *5040:Y *5041:A 19.8634 
*END

*D_NET *683 0.00036564
*CONN
*I *5042:A I *D sky130_fd_sc_hd__inv_1
*I *5041:Y O *D sky130_fd_sc_hd__inv_1
*CAP
1 *5042:A 0.000172994
2 *5041:Y 0.000172994
3 *5042:A *5043:A 0
4 *5041:A *5042:A 1.96517e-05
*RES
1 *5041:Y *5042:A 30.2652 
*END

*D_NET *684 0.000979735
*CONN
*I *5043:A I *D sky130_fd_sc_hd__inv_1
*I *5042:Y O *D sky130_fd_sc_hd__inv_1
*CAP
1 *5043:A 0.000354309
2 *5042:Y 0.000354309
3 *5043:A *5044:A 4.40835e-05
4 *5043:A *5046:A 0.000161848
5 *5043:A *5068:A 6.5185e-05
6 *5043:A *5070:A 0
7 *5042:A *5043:A 0
*RES
1 *5042:Y *5043:A 33.9571 
*END

*D_NET *685 0.000123012
*CONN
*I *5044:A I *D sky130_fd_sc_hd__inv_1
*I *5043:Y O *D sky130_fd_sc_hd__inv_1
*CAP
1 *5044:A 3.6148e-05
2 *5043:Y 3.6148e-05
3 *5044:A *5046:A 6.63297e-06
4 *5043:A *5044:A 4.40835e-05
*RES
1 *5043:Y *5044:A 19.4973 
*END

*D_NET *686 0.000113128
*CONN
*I *5045:A I *D sky130_fd_sc_hd__inv_1
*I *5044:Y O *D sky130_fd_sc_hd__inv_1
*CAP
1 *5045:A 3.7518e-05
2 *5044:Y 3.7518e-05
3 *5045:A *5046:A 3.80922e-05
*RES
1 *5044:Y *5045:A 19.4973 
*END

*D_NET *687 0.00142391
*CONN
*I *5070:A I *D sky130_fd_sc_hd__buf_1
*I *5046:A I *D sky130_fd_sc_hd__inv_1
*I *5045:Y O *D sky130_fd_sc_hd__inv_1
*CAP
1 *5070:A 0.00028174
2 *5046:A 0.000326928
3 *5045:Y 0
4 *687:4 0.000608668
5 *5070:A *5087:A 0
6 *5043:A *5046:A 0.000161848
7 *5043:A *5070:A 0
8 *5044:A *5046:A 6.63297e-06
9 *5045:A *5046:A 3.80922e-05
*RES
1 *5045:Y *687:4 9.3 
2 *687:4 *5046:A 14.233 
3 *687:4 *5070:A 22.2196 
*END

*D_NET *688 0.000204553
*CONN
*I *5047:A I *D sky130_fd_sc_hd__inv_1
*I *5046:Y O *D sky130_fd_sc_hd__inv_1
*CAP
1 *5047:A 0.000102277
2 *5046:Y 0.000102277
*RES
1 *5046:Y *5047:A 20.3188 
*END

*D_NET *689 0.000171577
*CONN
*I *5048:A I *D sky130_fd_sc_hd__inv_1
*I *5047:Y O *D sky130_fd_sc_hd__inv_1
*CAP
1 *5048:A 8.57883e-05
2 *5047:Y 8.57883e-05
*RES
1 *5047:Y *5048:A 19.908 
*END

*D_NET *690 0.00060228
*CONN
*I *5049:A I *D sky130_fd_sc_hd__inv_1
*I *5048:Y O *D sky130_fd_sc_hd__inv_1
*CAP
1 *5049:A 0.000292792
2 *5048:Y 0.000292792
3 *5049:A *5052:A 1.66955e-05
*RES
1 *5048:Y *5049:A 31.6893 
*END

*D_NET *691 0.000170956
*CONN
*I *5051:A I *D sky130_fd_sc_hd__inv_1
*I *5049:Y O *D sky130_fd_sc_hd__inv_1
*CAP
1 *5051:A 5.8154e-05
2 *5049:Y 5.8154e-05
3 *5051:A *5052:A 5.46475e-05
*RES
1 *5049:Y *5051:A 19.8634 
*END

*D_NET *692 0.0003353
*CONN
*I *5061:A I *D sky130_fd_sc_hd__inv_1
*I *5050:Y O *D sky130_fd_sc_hd__inv_1
*CAP
1 *5061:A 0.000151023
2 *5050:Y 0.000151023
3 *5071:A *5061:A 3.3254e-05
*RES
1 *5050:Y *5061:A 29.8098 
*END

*D_NET *693 0.000475551
*CONN
*I *5052:A I *D sky130_fd_sc_hd__inv_1
*I *5051:Y O *D sky130_fd_sc_hd__inv_1
*CAP
1 *5052:A 0.000202104
2 *5051:Y 0.000202104
3 *5052:A *5053:A 0
4 *5049:A *5052:A 1.66955e-05
5 *5051:A *5052:A 5.46475e-05
*RES
1 *5051:Y *5052:A 21.8857 
*END

*D_NET *694 0.000478784
*CONN
*I *5053:A I *D sky130_fd_sc_hd__inv_1
*I *5052:Y O *D sky130_fd_sc_hd__inv_1
*CAP
1 *5053:A 0.000172201
2 *5052:Y 0.000172201
3 *5053:A *5054:A 0.000134381
4 *5052:A *5053:A 0
*RES
1 *5052:Y *5053:A 22.1045 
*END

*D_NET *695 0.000239688
*CONN
*I *5054:A I *D sky130_fd_sc_hd__inv_1
*I *5053:Y O *D sky130_fd_sc_hd__inv_1
*CAP
1 *5054:A 3.06701e-05
2 *5053:Y 3.06701e-05
3 *5054:A *5055:A 4.39667e-05
4 *5053:A *5054:A 0.000134381
*RES
1 *5053:Y *5054:A 19.8634 
*END

*D_NET *696 0.000696445
*CONN
*I *5055:A I *D sky130_fd_sc_hd__inv_1
*I *5054:Y O *D sky130_fd_sc_hd__inv_1
*CAP
1 *5055:A 0.000234221
2 *5054:Y 0.000234221
3 *5055:A *5056:A 0.000164756
4 *5055:A *5058:A 1.92789e-05
5 *5054:A *5055:A 4.39667e-05
*RES
1 *5054:Y *5055:A 31.9348 
*END

*D_NET *697 0.000678181
*CONN
*I *5056:A I *D sky130_fd_sc_hd__inv_1
*I *5055:Y O *D sky130_fd_sc_hd__inv_1
*CAP
1 *5056:A 0.000206856
2 *5055:Y 0.000206856
3 *5056:A *5057:A 9.48112e-05
4 *5056:A *5058:A 4.90046e-06
5 *5055:A *5056:A 0.000164756
*RES
1 *5055:Y *5056:A 22.7027 
*END

*D_NET *698 0.00015748
*CONN
*I *5057:A I *D sky130_fd_sc_hd__inv_1
*I *5056:Y O *D sky130_fd_sc_hd__inv_1
*CAP
1 *5057:A 3.13341e-05
2 *5056:Y 3.13341e-05
3 *5056:A *5057:A 9.48112e-05
*RES
1 *5056:Y *5057:A 19.4973 
*END

*D_NET *699 0.000423193
*CONN
*I *5058:A I *D sky130_fd_sc_hd__inv_1
*I *5057:Y O *D sky130_fd_sc_hd__inv_1
*CAP
1 *5058:A 0.000199507
2 *5057:Y 0.000199507
3 *5055:A *5058:A 1.92789e-05
4 *5056:A *5058:A 4.90046e-06
*RES
1 *5057:Y *5058:A 30.5688 
*END

*D_NET *700 0.000107209
*CONN
*I *5059:A I *D sky130_fd_sc_hd__inv_1
*I *5058:Y O *D sky130_fd_sc_hd__inv_1
*CAP
1 *5059:A 5.36045e-05
2 *5058:Y 5.36045e-05
*RES
1 *5058:Y *5059:A 19.4973 
*END

*D_NET *701 0.000126333
*CONN
*I *5060:A I *D sky130_fd_sc_hd__inv_1
*I *5059:Y O *D sky130_fd_sc_hd__inv_1
*CAP
1 *5060:A 6.31666e-05
2 *5059:Y 6.31666e-05
*RES
1 *5059:Y *5060:A 19.4973 
*END

*D_NET *702 0.000117078
*CONN
*I *5062:A I *D sky130_fd_sc_hd__inv_1
*I *5060:Y O *D sky130_fd_sc_hd__inv_1
*CAP
1 *5062:A 5.85391e-05
2 *5060:Y 5.85391e-05
*RES
1 *5060:Y *5062:A 19.4973 
*END

*D_NET *703 0.000235326
*CONN
*I *5063:A I *D sky130_fd_sc_hd__inv_1
*I *5061:Y O *D sky130_fd_sc_hd__inv_1
*CAP
1 *5063:A 0.000113419
2 *5061:Y 0.000113419
3 *5063:A *5065:A 8.48822e-06
*RES
1 *5061:Y *5063:A 20.3545 
*END

*D_NET *704 0.000374508
*CONN
*I *5071:B I *D sky130_fd_sc_hd__nand2_1
*I *5062:Y O *D sky130_fd_sc_hd__inv_1
*CAP
1 *5071:B 0.000187254
2 *5062:Y 0.000187254
*RES
1 *5062:Y *5071:B 30.1089 
*END

*D_NET *705 0.000157042
*CONN
*I *5064:A I *D sky130_fd_sc_hd__inv_1
*I *5063:Y O *D sky130_fd_sc_hd__inv_1
*CAP
1 *5064:A 5.84327e-05
2 *5063:Y 5.84327e-05
3 *5064:A *5065:A 4.01768e-05
*RES
1 *5063:Y *5064:A 19.8634 
*END

*D_NET *706 0.000561974
*CONN
*I *5065:A I *D sky130_fd_sc_hd__inv_1
*I *5064:Y O *D sky130_fd_sc_hd__inv_1
*CAP
1 *5065:A 0.000256655
2 *5064:Y 0.000256655
3 *5063:A *5065:A 8.48822e-06
4 *5064:A *5065:A 4.01768e-05
*RES
1 *5064:Y *5065:A 31.3902 
*END

*D_NET *707 0.000106793
*CONN
*I *5066:A I *D sky130_fd_sc_hd__inv_1
*I *5065:Y O *D sky130_fd_sc_hd__inv_1
*CAP
1 *5066:A 5.33963e-05
2 *5065:Y 5.33963e-05
*RES
1 *5065:Y *5066:A 19.4973 
*END

*D_NET *708 0.000161922
*CONN
*I *5067:A I *D sky130_fd_sc_hd__inv_1
*I *5066:Y O *D sky130_fd_sc_hd__inv_1
*CAP
1 *5067:A 7.26132e-05
2 *5066:Y 7.26132e-05
3 *5067:A *5068:A 1.66955e-05
*RES
1 *5066:Y *5067:A 19.8634 
*END

*D_NET *709 0.000395915
*CONN
*I *5068:A I *D sky130_fd_sc_hd__inv_1
*I *5067:Y O *D sky130_fd_sc_hd__inv_1
*CAP
1 *5068:A 0.000136436
2 *5067:Y 0.000136436
3 *5068:A *5040:A 4.11623e-05
4 *5043:A *5068:A 6.5185e-05
5 *5067:A *5068:A 1.66955e-05
*RES
1 *5067:Y *5068:A 30.2652 
*END

*D_NET *710 0.000169665
*CONN
*I *5069:A I *D sky130_fd_sc_hd__inv_1
*I *5068:Y O *D sky130_fd_sc_hd__inv_1
*CAP
1 *5069:A 5.66829e-05
2 *5068:Y 5.66829e-05
3 *5069:A *5040:A 5.62995e-05
*RES
1 *5068:Y *5069:A 19.8634 
*END

*D_NET *711 0.000559607
*CONN
*I *5040:A I *D sky130_fd_sc_hd__inv_1
*I *5069:Y O *D sky130_fd_sc_hd__inv_1
*CAP
1 *5040:A 0.000231072
2 *5069:Y 0.000231072
3 *5068:A *5040:A 4.11623e-05
4 *5069:A *5040:A 5.62995e-05
*RES
1 *5069:Y *5040:A 22.8188 
*END

*D_NET *712 0.00217372
*CONN
*I *4401:A2 I *D sky130_fd_sc_hd__mux4_2
*I *5070:X O *D sky130_fd_sc_hd__buf_1
*CAP
1 *4401:A2 0.000761666
2 *5070:X 0.000761666
3 *4401:A2 *4401:A3 0
4 *4401:A2 *5078:A 6.55942e-05
5 *4401:A2 *5079:A 5.33783e-05
6 *4401:A2 *5080:A 5.33783e-05
7 *4401:A2 *5081:A 5.33783e-05
8 *4401:A2 *5083:A 5.33783e-05
9 *4401:A2 *5084:A 5.33783e-05
10 *4401:A2 *5085:A 7.09624e-05
11 *4401:A2 *5086:A 0.000120501
12 *4401:A2 *720:12 0.000126439
*RES
1 *5070:X *4401:A2 42.0107 
*END

*D_NET *713 0.000461154
*CONN
*I *5103:A I *D sky130_fd_sc_hd__nand2_1
*I *4429:X O *D sky130_fd_sc_hd__and3_2
*CAP
1 *5103:A 0.000168229
2 *4429:X 0.000168229
3 *5103:A *5091:A 0
4 *5103:A *5093:A 2.56601e-05
5 *5103:A *5094:A 0
6 *5103:A *5103:B 0
7 *176:58 *5103:A 9.90367e-05
*RES
1 *4429:X *5103:A 30.1893 
*END

*D_NET *714 0.000234411
*CONN
*I *5082:A I *D sky130_fd_sc_hd__inv_1
*I *5103:Y O *D sky130_fd_sc_hd__nand2_1
*CAP
1 *5082:A 6.00802e-05
2 *5103:Y 6.00802e-05
3 *5082:A *5092:A 0.000110255
4 *5082:A *5103:B 3.99614e-06
*RES
1 *5103:Y *5082:A 20.2563 
*END

*D_NET *715 0.000498807
*CONN
*I *5073:A I *D sky130_fd_sc_hd__inv_1
*I *5072:Y O *D sky130_fd_sc_hd__inv_1
*CAP
1 *5073:A 0.000138084
2 *5072:Y 0.000138084
3 *5073:A *5075:A 1.14548e-05
4 *5073:A *5076:A 1.00442e-05
5 *4401:S0 *5073:A 0.00012401
6 *176:58 *5073:A 7.71303e-05
*RES
1 *5072:Y *5073:A 30.2205 
*END

*D_NET *716 0.000278978
*CONN
*I *5074:A I *D sky130_fd_sc_hd__inv_1
*I *5073:Y O *D sky130_fd_sc_hd__inv_1
*CAP
1 *5074:A 6.91084e-05
2 *5073:Y 6.91084e-05
3 *5074:A *5075:A 3.95345e-05
4 *5074:A *5076:A 0.000101227
*RES
1 *5073:Y *5074:A 20.7205 
*END

*D_NET *717 0.000535971
*CONN
*I *5075:A I *D sky130_fd_sc_hd__inv_1
*I *5074:Y O *D sky130_fd_sc_hd__inv_1
*CAP
1 *5075:A 0.000232736
2 *5074:Y 0.000232736
3 *5075:A *5076:A 1.95102e-05
4 *5073:A *5075:A 1.14548e-05
5 *5074:A *5075:A 3.95345e-05
*RES
1 *5074:Y *5075:A 21.9527 
*END

*D_NET *718 0.000842195
*CONN
*I *5076:A I *D sky130_fd_sc_hd__inv_1
*I *5075:Y O *D sky130_fd_sc_hd__inv_1
*CAP
1 *5076:A 0.000347342
2 *5075:Y 0.000347342
3 *5076:A *720:12 1.67305e-05
4 *4401:S0 *5076:A 0
5 *4401:S1 *5076:A 0
6 *5073:A *5076:A 1.00442e-05
7 *5074:A *5076:A 0.000101227
8 *5075:A *5076:A 1.95102e-05
*RES
1 *5075:Y *5076:A 32.6223 
*END

*D_NET *719 0.000162983
*CONN
*I *5077:A I *D sky130_fd_sc_hd__inv_1
*I *5076:Y O *D sky130_fd_sc_hd__inv_1
*CAP
1 *5077:A 5.33418e-05
2 *5076:Y 5.33418e-05
3 *5077:A *720:12 5.62995e-05
*RES
1 *5076:Y *5077:A 19.8634 
*END

*D_NET *720 0.000804325
*CONN
*I *5102:A I *D sky130_fd_sc_hd__buf_1
*I *5078:A I *D sky130_fd_sc_hd__inv_1
*I *5077:Y O *D sky130_fd_sc_hd__inv_1
*CAP
1 *5102:A 0
2 *5078:A 4.65917e-05
3 *5077:Y 0.000223039
4 *720:12 0.000269631
5 *4401:A2 *5078:A 6.55942e-05
6 *4401:A2 *720:12 0.000126439
7 *5076:A *720:12 1.67305e-05
8 *5077:A *720:12 5.62995e-05
*RES
1 *5077:Y *720:12 21.9161 
2 *720:12 *5078:A 10.4027 
3 *720:12 *5102:A 9.3 
*END

*D_NET *721 0.000125096
*CONN
*I *5079:A I *D sky130_fd_sc_hd__inv_1
*I *5078:Y O *D sky130_fd_sc_hd__inv_1
*CAP
1 *5079:A 3.58591e-05
2 *5078:Y 3.58591e-05
3 *4401:A2 *5079:A 5.33783e-05
*RES
1 *5078:Y *5079:A 19.4973 
*END

*D_NET *722 0.000125096
*CONN
*I *5080:A I *D sky130_fd_sc_hd__inv_1
*I *5079:Y O *D sky130_fd_sc_hd__inv_1
*CAP
1 *5080:A 3.58591e-05
2 *5079:Y 3.58591e-05
3 *4401:A2 *5080:A 5.33783e-05
*RES
1 *5079:Y *5080:A 19.4973 
*END

*D_NET *723 0.000125096
*CONN
*I *5081:A I *D sky130_fd_sc_hd__inv_1
*I *5080:Y O *D sky130_fd_sc_hd__inv_1
*CAP
1 *5081:A 3.58591e-05
2 *5080:Y 3.58591e-05
3 *4401:A2 *5081:A 5.33783e-05
*RES
1 *5080:Y *5081:A 19.4973 
*END

*D_NET *724 0.000125096
*CONN
*I *5083:A I *D sky130_fd_sc_hd__inv_1
*I *5081:Y O *D sky130_fd_sc_hd__inv_1
*CAP
1 *5083:A 3.58591e-05
2 *5081:Y 3.58591e-05
3 *4401:A2 *5083:A 5.33783e-05
*RES
1 *5081:Y *5083:A 19.4973 
*END

*D_NET *725 0.000325999
*CONN
*I *5093:A I *D sky130_fd_sc_hd__inv_1
*I *5082:Y O *D sky130_fd_sc_hd__inv_1
*CAP
1 *5093:A 0.000129575
2 *5082:Y 0.000129575
3 *5093:A *5092:A 1.06618e-05
4 *5093:A *5094:A 0
5 *5103:A *5093:A 2.56601e-05
6 *120:48 *5093:A 6.98553e-06
7 *176:58 *5093:A 2.3541e-05
*RES
1 *5082:Y *5093:A 29.8098 
*END

*D_NET *726 0.000125096
*CONN
*I *5084:A I *D sky130_fd_sc_hd__inv_1
*I *5083:Y O *D sky130_fd_sc_hd__inv_1
*CAP
1 *5084:A 3.58591e-05
2 *5083:Y 3.58591e-05
3 *4401:A2 *5084:A 5.33783e-05
*RES
1 *5083:Y *5084:A 19.4973 
*END

*D_NET *727 0.000189598
*CONN
*I *5085:A I *D sky130_fd_sc_hd__inv_1
*I *5084:Y O *D sky130_fd_sc_hd__inv_1
*CAP
1 *5085:A 5.93177e-05
2 *5084:Y 5.93177e-05
3 *4401:A2 *5085:A 7.09624e-05
*RES
1 *5084:Y *5085:A 19.8634 
*END

*D_NET *728 0.000551172
*CONN
*I *5086:A I *D sky130_fd_sc_hd__inv_1
*I *5085:Y O *D sky130_fd_sc_hd__inv_1
*CAP
1 *5086:A 0.000202501
2 *5085:Y 0.000202501
3 *5086:A *5087:A 2.56694e-05
4 *4401:A2 *5086:A 0.000120501
*RES
1 *5085:Y *5086:A 30.9348 
*END

*D_NET *729 0.000734627
*CONN
*I *5087:A I *D sky130_fd_sc_hd__inv_1
*I *5086:Y O *D sky130_fd_sc_hd__inv_1
*CAP
1 *5087:A 0.000347592
2 *5086:Y 0.000347592
3 *5087:A *5089:A 1.37743e-05
4 *5070:A *5087:A 0
5 *5086:A *5087:A 2.56694e-05
*RES
1 *5086:Y *5087:A 33.1045 
*END

*D_NET *730 0.000169665
*CONN
*I *5088:A I *D sky130_fd_sc_hd__inv_1
*I *5087:Y O *D sky130_fd_sc_hd__inv_1
*CAP
1 *5088:A 5.66829e-05
2 *5087:Y 5.66829e-05
3 *5088:A *5089:A 5.62995e-05
*RES
1 *5087:Y *5088:A 19.8634 
*END

*D_NET *731 0.000729911
*CONN
*I *5089:A I *D sky130_fd_sc_hd__inv_1
*I *5088:Y O *D sky130_fd_sc_hd__inv_1
*CAP
1 *5089:A 0.000285609
2 *5088:Y 0.000285609
3 *5089:A *5090:A 5.33783e-05
4 *5089:A *5091:A 3.52408e-05
5 *5087:A *5089:A 1.37743e-05
6 *5088:A *5089:A 5.62995e-05
*RES
1 *5088:Y *5089:A 24.0509 
*END

*D_NET *732 0.000125096
*CONN
*I *5090:A I *D sky130_fd_sc_hd__inv_1
*I *5089:Y O *D sky130_fd_sc_hd__inv_1
*CAP
1 *5090:A 3.58591e-05
2 *5089:Y 3.58591e-05
3 *5089:A *5090:A 5.33783e-05
*RES
1 *5089:Y *5090:A 19.4973 
*END

*D_NET *733 0.000425123
*CONN
*I *5091:A I *D sky130_fd_sc_hd__inv_1
*I *5090:Y O *D sky130_fd_sc_hd__inv_1
*CAP
1 *5091:A 0.000186593
2 *5090:Y 0.000186593
3 *5091:A *5092:A 1.66955e-05
4 *5089:A *5091:A 3.52408e-05
5 *5103:A *5091:A 0
*RES
1 *5090:Y *5091:A 30.5241 
*END

*D_NET *734 0.000627542
*CONN
*I *5092:A I *D sky130_fd_sc_hd__inv_1
*I *5091:Y O *D sky130_fd_sc_hd__inv_1
*CAP
1 *5092:A 0.000216035
2 *5091:Y 0.000216035
3 *5092:A *5103:B 5.78607e-05
4 *5082:A *5092:A 0.000110255
5 *5091:A *5092:A 1.66955e-05
6 *5093:A *5092:A 1.06618e-05
*RES
1 *5091:Y *5092:A 22.8188 
*END

*D_NET *735 0.000694772
*CONN
*I *5094:A I *D sky130_fd_sc_hd__inv_1
*I *5092:Y O *D sky130_fd_sc_hd__inv_1
*CAP
1 *5094:A 0.000161483
2 *5092:Y 0.000161483
3 *5094:A *5103:B 7.45165e-05
4 *4428:A *5094:A 0.000110942
5 *4428:C *5094:A 0.000151806
6 *5093:A *5094:A 0
7 *5103:A *5094:A 0
8 *176:58 *5094:A 2.8266e-06
9 *176:90 *5094:A 3.17148e-05
*RES
1 *5092:Y *5094:A 31.042 
*END

*D_NET *736 0.000250444
*CONN
*I *5095:A I *D sky130_fd_sc_hd__inv_1
*I *5093:Y O *D sky130_fd_sc_hd__inv_1
*CAP
1 *5095:A 5.23345e-05
2 *5093:Y 5.23345e-05
3 *120:48 *5095:A 7.72272e-05
4 *176:58 *5095:A 6.85475e-05
*RES
1 *5093:Y *5095:A 20.3545 
*END

*D_NET *737 0.000644057
*CONN
*I *5103:B I *D sky130_fd_sc_hd__nand2_1
*I *5094:Y O *D sky130_fd_sc_hd__inv_1
*CAP
1 *5103:B 0.000237183
2 *5094:Y 0.000237183
3 *4428:A *5103:B 3.33174e-05
4 *5082:A *5103:B 3.99614e-06
5 *5092:A *5103:B 5.78607e-05
6 *5094:A *5103:B 7.45165e-05
7 *5103:A *5103:B 0
*RES
1 *5094:Y *5103:B 31.8768 
*END

*D_NET *738 0.00016283
*CONN
*I *5096:A I *D sky130_fd_sc_hd__inv_1
*I *5095:Y O *D sky130_fd_sc_hd__inv_1
*CAP
1 *5096:A 1.45079e-05
2 *5095:Y 1.45079e-05
3 *120:48 *5096:A 3.80922e-05
4 *176:58 *5096:A 9.57215e-05
*RES
1 *5095:Y *5096:A 19.4973 
*END

*D_NET *739 0.00016283
*CONN
*I *5097:A I *D sky130_fd_sc_hd__inv_1
*I *5096:Y O *D sky130_fd_sc_hd__inv_1
*CAP
1 *5097:A 1.45079e-05
2 *5096:Y 1.45079e-05
3 *120:48 *5097:A 3.80922e-05
4 *176:58 *5097:A 9.57215e-05
*RES
1 *5096:Y *5097:A 19.4973 
*END

*D_NET *740 0.00016283
*CONN
*I *5098:A I *D sky130_fd_sc_hd__inv_1
*I *5097:Y O *D sky130_fd_sc_hd__inv_1
*CAP
1 *5098:A 1.45079e-05
2 *5097:Y 1.45079e-05
3 *120:48 *5098:A 3.80922e-05
4 *176:58 *5098:A 9.57215e-05
*RES
1 *5097:Y *5098:A 19.4973 
*END

*D_NET *741 0.000237359
*CONN
*I *5099:A I *D sky130_fd_sc_hd__inv_1
*I *5098:Y O *D sky130_fd_sc_hd__inv_1
*CAP
1 *5099:A 2.11484e-05
2 *5098:Y 2.11484e-05
3 *120:48 *5099:A 5.55274e-05
4 *176:58 *5099:A 0.000139534
*RES
1 *5098:Y *5099:A 19.908 
*END

*D_NET *742 0.00016283
*CONN
*I *5100:A I *D sky130_fd_sc_hd__inv_1
*I *5099:Y O *D sky130_fd_sc_hd__inv_1
*CAP
1 *5100:A 1.45079e-05
2 *5099:Y 1.45079e-05
3 *120:48 *5100:A 3.80922e-05
4 *176:58 *5100:A 9.57215e-05
*RES
1 *5099:Y *5100:A 19.4973 
*END

*D_NET *743 0.00016283
*CONN
*I *5101:A I *D sky130_fd_sc_hd__inv_1
*I *5100:Y O *D sky130_fd_sc_hd__inv_1
*CAP
1 *5101:A 1.45079e-05
2 *5100:Y 1.45079e-05
3 *120:48 *5101:A 3.80922e-05
4 *176:58 *5101:A 9.57215e-05
*RES
1 *5100:Y *5101:A 19.4973 
*END

*D_NET *744 0.00016283
*CONN
*I *5072:A I *D sky130_fd_sc_hd__inv_1
*I *5101:Y O *D sky130_fd_sc_hd__inv_1
*CAP
1 *5072:A 1.45079e-05
2 *5101:Y 1.45079e-05
3 *120:48 *5072:A 3.80922e-05
4 *176:58 *5072:A 9.57215e-05
*RES
1 *5101:Y *5072:A 19.4973 
*END

*D_NET *745 0.000471313
*CONN
*I *4401:A3 I *D sky130_fd_sc_hd__mux4_2
*I *5102:X O *D sky130_fd_sc_hd__buf_1
*CAP
1 *4401:A3 0.000235656
2 *5102:X 0.000235656
3 *4401:A1 *4401:A3 0
4 *4401:A2 *4401:A3 0
*RES
1 *5102:X *4401:A3 31.5107 
*END

*D_NET *746 0.000374721
*CONN
*I *5135:A I *D sky130_fd_sc_hd__nand2_1
*I *4430:X O *D sky130_fd_sc_hd__and3_2
*CAP
1 *5135:A 0.000163762
2 *4430:X 0.000163762
3 *4733:A *5135:A 0
4 *129:14 *5135:A 4.71964e-05
*RES
1 *4430:X *5135:A 30.4571 
*END

*D_NET *747 0.000717651
*CONN
*I *5114:A I *D sky130_fd_sc_hd__inv_1
*I *5135:Y O *D sky130_fd_sc_hd__nand2_1
*CAP
1 *5114:A 0.000251452
2 *5135:Y 0.000251452
3 *129:14 *5114:A 2.80789e-05
4 *176:34 *5114:A 0.000186669
*RES
1 *5135:Y *5114:A 31.292 
*END

*D_NET *748 0.00016283
*CONN
*I *5105:A I *D sky130_fd_sc_hd__inv_1
*I *5104:Y O *D sky130_fd_sc_hd__inv_1
*CAP
1 *5105:A 1.45079e-05
2 *5104:Y 1.45079e-05
3 *4430:B *5105:A 3.80922e-05
4 *176:36 *5105:A 9.57215e-05
*RES
1 *5104:Y *5105:A 19.4973 
*END

*D_NET *749 0.000229749
*CONN
*I *5106:A I *D sky130_fd_sc_hd__inv_1
*I *5105:Y O *D sky130_fd_sc_hd__inv_1
*CAP
1 *5106:A 2.15575e-05
2 *5105:Y 2.15575e-05
3 *4430:B *5106:A 5.22516e-05
4 *176:36 *5106:A 0.000134382
*RES
1 *5105:Y *5106:A 19.8634 
*END

*D_NET *750 0.000621414
*CONN
*I *5107:A I *D sky130_fd_sc_hd__inv_1
*I *5106:Y O *D sky130_fd_sc_hd__inv_1
*CAP
1 *5107:A 0.000219996
2 *5106:Y 0.000219996
3 *4427:B *5107:A 0
4 *129:14 *5107:A 1.67305e-05
5 *176:36 *5107:A 0.000164692
*RES
1 *5106:Y *5107:A 31.0866 
*END

*D_NET *751 0.000125113
*CONN
*I *5108:A I *D sky130_fd_sc_hd__inv_1
*I *5107:Y O *D sky130_fd_sc_hd__inv_1
*CAP
1 *5108:A 3.58792e-05
2 *5107:Y 3.58792e-05
3 *129:14 *5108:A 5.33549e-05
*RES
1 *5107:Y *5108:A 19.4973 
*END

*D_NET *752 0.000126309
*CONN
*I *5109:A I *D sky130_fd_sc_hd__inv_1
*I *5108:Y O *D sky130_fd_sc_hd__inv_1
*CAP
1 *5109:A 3.73036e-05
2 *5108:Y 3.73036e-05
3 *129:14 *5109:A 5.17013e-05
*RES
1 *5108:Y *5109:A 19.4973 
*END

*D_NET *753 0.00144658
*CONN
*I *5110:A I *D sky130_fd_sc_hd__inv_1
*I *5134:A I *D sky130_fd_sc_hd__buf_1
*I *5109:Y O *D sky130_fd_sc_hd__inv_1
*CAP
1 *5110:A 0
2 *5134:A 0.0002566
3 *5109:Y 6.59368e-05
4 *753:6 0.000322537
5 *4402:A2 *5134:A 3.07796e-05
6 *4402:B1 *5134:A 0.000106542
7 *4402:B2 *5134:A 0
8 *120:72 *5134:A 0.000139907
9 *129:14 *5134:A 0.000113573
10 *129:14 *753:6 7.0175e-05
11 *176:48 *5134:A 0.000198698
12 *176:58 *5134:A 0.00014183
*RES
1 *5109:Y *753:6 10.7063 
2 *753:6 *5134:A 25.5098 
3 *753:6 *5110:A 9.3 
*END

*D_NET *754 0.000801169
*CONN
*I *5111:A I *D sky130_fd_sc_hd__inv_1
*I *5110:Y O *D sky130_fd_sc_hd__inv_1
*CAP
1 *5111:A 0.000283704
2 *5110:Y 0.000283704
3 *4426:C *5111:A 2.73255e-05
4 *4427:B *5111:A 0
5 *129:14 *5111:A 0.000206435
*RES
1 *5110:Y *5111:A 31.9616 
*END

*D_NET *755 0.000156563
*CONN
*I *5112:A I *D sky130_fd_sc_hd__inv_1
*I *5111:Y O *D sky130_fd_sc_hd__inv_1
*CAP
1 *5112:A 3.04523e-05
2 *5111:Y 3.04523e-05
3 *4426:C *5112:A 9.56581e-05
*RES
1 *5111:Y *5112:A 19.4973 
*END

*D_NET *756 0.000156494
*CONN
*I *5113:A I *D sky130_fd_sc_hd__inv_1
*I *5112:Y O *D sky130_fd_sc_hd__inv_1
*CAP
1 *5113:A 3.03862e-05
2 *5112:Y 3.03862e-05
3 *4426:C *5113:A 9.57215e-05
*RES
1 *5112:Y *5113:A 19.4973 
*END

*D_NET *757 0.000464797
*CONN
*I *5115:A I *D sky130_fd_sc_hd__inv_1
*I *5113:Y O *D sky130_fd_sc_hd__inv_1
*CAP
1 *5115:A 0.000154654
2 *5113:Y 0.000154654
3 *5115:A *5116:A 7.83587e-05
4 *5115:A *5117:A 0
5 *4426:C *5115:A 7.71303e-05
*RES
1 *5113:Y *5115:A 30.2652 
*END

*D_NET *758 0.000611105
*CONN
*I *5125:A I *D sky130_fd_sc_hd__inv_1
*I *5114:Y O *D sky130_fd_sc_hd__inv_1
*CAP
1 *5125:A 0.000110366
2 *5114:Y 0.000110366
3 *5125:A *5127:A 1.67305e-05
4 *4430:B *5125:A 5.23057e-05
5 *129:14 *5125:A 0.000249445
6 *176:36 *5125:A 7.18918e-05
*RES
1 *5114:Y *5125:A 21.9616 
*END

*D_NET *759 0.000381315
*CONN
*I *5116:A I *D sky130_fd_sc_hd__inv_1
*I *5115:Y O *D sky130_fd_sc_hd__inv_1
*CAP
1 *5116:A 0.000126873
2 *5115:Y 0.000126873
3 *5116:A *5117:A 2.56694e-05
4 *4426:C *5116:A 2.3541e-05
5 *5115:A *5116:A 7.83587e-05
*RES
1 *5115:Y *5116:A 29.8098 
*END

*D_NET *760 0.000536494
*CONN
*I *5117:A I *D sky130_fd_sc_hd__inv_1
*I *5116:Y O *D sky130_fd_sc_hd__inv_1
*CAP
1 *5117:A 0.000182332
2 *5116:Y 0.000182332
3 *5117:A *5119:A 2.56601e-05
4 *4426:C *5117:A 0.000120501
5 *5115:A *5117:A 0
6 *5116:A *5117:A 2.56694e-05
*RES
1 *5116:Y *5117:A 30.6759 
*END

*D_NET *761 0.000154766
*CONN
*I *5118:A I *D sky130_fd_sc_hd__inv_1
*I *5117:Y O *D sky130_fd_sc_hd__inv_1
*CAP
1 *5118:A 6.75572e-05
2 *5117:Y 6.75572e-05
3 *5118:A *5119:A 1.96517e-05
*RES
1 *5117:Y *5118:A 19.8634 
*END

*D_NET *762 0.000517614
*CONN
*I *5119:A I *D sky130_fd_sc_hd__inv_1
*I *5118:Y O *D sky130_fd_sc_hd__inv_1
*CAP
1 *5119:A 0.000180128
2 *5118:Y 0.000180128
3 *5119:A *5120:A 1.66856e-05
4 *4426:C *5119:A 9.53601e-05
5 *5117:A *5119:A 2.56601e-05
6 *5118:A *5119:A 1.96517e-05
*RES
1 *5118:Y *5119:A 31.1759 
*END

*D_NET *763 0.00017439
*CONN
*I *5120:A I *D sky130_fd_sc_hd__inv_1
*I *5119:Y O *D sky130_fd_sc_hd__inv_1
*CAP
1 *5120:A 3.09913e-05
2 *5119:Y 3.09913e-05
3 *4426:C *5120:A 9.57215e-05
4 *5119:A *5120:A 1.66856e-05
*RES
1 *5119:Y *5120:A 19.4973 
*END

*D_NET *764 0.00016283
*CONN
*I *5121:A I *D sky130_fd_sc_hd__inv_1
*I *5120:Y O *D sky130_fd_sc_hd__inv_1
*CAP
1 *5121:A 3.3554e-05
2 *5120:Y 3.3554e-05
3 *4426:C *5121:A 9.57215e-05
*RES
1 *5120:Y *5121:A 19.4973 
*END

*D_NET *765 0.000229258
*CONN
*I *5122:A I *D sky130_fd_sc_hd__inv_1
*I *5121:Y O *D sky130_fd_sc_hd__inv_1
*CAP
1 *5122:A 4.72427e-05
2 *5121:Y 4.72427e-05
3 *4426:C *5122:A 0.000134772
*RES
1 *5121:Y *5122:A 19.8634 
*END

*D_NET *766 0.000603732
*CONN
*I *5123:A I *D sky130_fd_sc_hd__inv_1
*I *5122:Y O *D sky130_fd_sc_hd__inv_1
*CAP
1 *5123:A 0.000248505
2 *5122:Y 0.000248505
3 *4426:C *5123:A 9.29472e-05
4 *129:14 *5123:A 1.37743e-05
*RES
1 *5122:Y *5123:A 31.3902 
*END

*D_NET *767 0.000125096
*CONN
*I *5124:A I *D sky130_fd_sc_hd__inv_1
*I *5123:Y O *D sky130_fd_sc_hd__inv_1
*CAP
1 *5124:A 3.58591e-05
2 *5123:Y 3.58591e-05
3 *129:14 *5124:A 5.33783e-05
*RES
1 *5123:Y *5124:A 19.4973 
*END

*D_NET *768 0.000125096
*CONN
*I *5126:A I *D sky130_fd_sc_hd__inv_1
*I *5124:Y O *D sky130_fd_sc_hd__inv_1
*CAP
1 *5126:A 3.58591e-05
2 *5124:Y 3.58591e-05
3 *129:14 *5126:A 5.33783e-05
*RES
1 *5124:Y *5126:A 19.4973 
*END

*D_NET *769 0.000462928
*CONN
*I *5127:A I *D sky130_fd_sc_hd__inv_1
*I *5125:Y O *D sky130_fd_sc_hd__inv_1
*CAP
1 *5127:A 0.000174774
2 *5125:Y 0.000174774
3 *4430:B *5127:A 7.71303e-05
4 *5125:A *5127:A 1.67305e-05
5 *176:36 *5127:A 1.95199e-05
*RES
1 *5125:Y *5127:A 30.8723 
*END

*D_NET *770 0.000137605
*CONN
*I *5135:B I *D sky130_fd_sc_hd__nand2_1
*I *5126:Y O *D sky130_fd_sc_hd__inv_1
*CAP
1 *5135:B 2.75277e-05
2 *5126:Y 2.75277e-05
3 *129:14 *5135:B 1.66856e-05
4 *176:34 *5135:B 6.58643e-05
*RES
1 *5126:Y *5135:B 19.3411 
*END

*D_NET *771 0.000106793
*CONN
*I *5128:A I *D sky130_fd_sc_hd__inv_1
*I *5127:Y O *D sky130_fd_sc_hd__inv_1
*CAP
1 *5128:A 5.33963e-05
2 *5127:Y 5.33963e-05
*RES
1 *5127:Y *5128:A 19.4973 
*END

*D_NET *772 0.000106793
*CONN
*I *5129:A I *D sky130_fd_sc_hd__inv_1
*I *5128:Y O *D sky130_fd_sc_hd__inv_1
*CAP
1 *5129:A 5.33963e-05
2 *5128:Y 5.33963e-05
*RES
1 *5128:Y *5129:A 19.4973 
*END

*D_NET *773 0.000106793
*CONN
*I *5130:A I *D sky130_fd_sc_hd__inv_1
*I *5129:Y O *D sky130_fd_sc_hd__inv_1
*CAP
1 *5130:A 5.33963e-05
2 *5129:Y 5.33963e-05
*RES
1 *5129:Y *5130:A 19.4973 
*END

*D_NET *774 0.000160801
*CONN
*I *5131:A I *D sky130_fd_sc_hd__inv_1
*I *5130:Y O *D sky130_fd_sc_hd__inv_1
*CAP
1 *5131:A 7.51201e-05
2 *5130:Y 7.51201e-05
3 *5131:A *5132:A 1.05613e-05
*RES
1 *5130:Y *5131:A 19.8634 
*END

*D_NET *775 0.000363098
*CONN
*I *5132:A I *D sky130_fd_sc_hd__inv_1
*I *5131:Y O *D sky130_fd_sc_hd__inv_1
*CAP
1 *5132:A 0.000160156
2 *5131:Y 0.000160156
3 *4430:B *5132:A 6.98553e-06
4 *5131:A *5132:A 1.05613e-05
5 *176:36 *5132:A 2.524e-05
*RES
1 *5131:Y *5132:A 30.1134 
*END

*D_NET *776 0.000319817
*CONN
*I *5133:A I *D sky130_fd_sc_hd__inv_1
*I *5132:Y O *D sky130_fd_sc_hd__inv_1
*CAP
1 *5133:A 5.89404e-05
2 *5132:Y 5.89404e-05
3 *4430:B *5133:A 0.000144324
4 *176:36 *5133:A 5.76121e-05
*RES
1 *5132:Y *5133:A 20.6536 
*END

*D_NET *777 0.00016283
*CONN
*I *5104:A I *D sky130_fd_sc_hd__inv_1
*I *5133:Y O *D sky130_fd_sc_hd__inv_1
*CAP
1 *5104:A 1.45079e-05
2 *5133:Y 1.45079e-05
3 *4430:B *5104:A 3.80922e-05
4 *176:36 *5104:A 9.57215e-05
*RES
1 *5133:Y *5104:A 19.4973 
*END

*D_NET *778 0.000698684
*CONN
*I *4400:A0 I *D sky130_fd_sc_hd__mux4_2
*I *5134:X O *D sky130_fd_sc_hd__buf_1
*CAP
1 *4400:A0 0.000129892
2 *5134:X 0.000129892
3 *4402:A2 *4400:A0 5.33005e-05
4 *4402:B1 *4400:A0 4.97825e-05
5 *120:36 *4400:A0 5.41794e-05
6 *120:40 *4400:A0 0.000126439
7 *178:83 *4400:A0 0.000155198
*RES
1 *5134:X *4400:A0 31.2071 
*END

*D_NET *779 0.000510273
*CONN
*I *5167:A I *D sky130_fd_sc_hd__nand2_1
*I *4431:X O *D sky130_fd_sc_hd__and3_2
*CAP
1 *5167:A 9.80599e-05
2 *4431:X 9.80599e-05
3 *4427:B *5167:A 0.000150618
4 *4431:A *5167:A 0.000163535
*RES
1 *4431:X *5167:A 30.0821 
*END

*D_NET *780 0.000224542
*CONN
*I *5146:A I *D sky130_fd_sc_hd__inv_1
*I *5167:Y O *D sky130_fd_sc_hd__nand2_1
*CAP
1 *5146:A 0.000112271
2 *5167:Y 0.000112271
*RES
1 *5167:Y *5146:A 20.2563 
*END

*D_NET *781 0.000124953
*CONN
*I *5137:A I *D sky130_fd_sc_hd__inv_1
*I *5136:Y O *D sky130_fd_sc_hd__inv_1
*CAP
1 *5137:A 6.24764e-05
2 *5136:Y 6.24764e-05
*RES
1 *5136:Y *5137:A 19.4973 
*END

*D_NET *782 0.00018686
*CONN
*I *5138:A I *D sky130_fd_sc_hd__inv_1
*I *5137:Y O *D sky130_fd_sc_hd__inv_1
*CAP
1 *5138:A 8.85531e-05
2 *5137:Y 8.85531e-05
3 *5138:A *5139:A 9.75337e-06
*RES
1 *5137:Y *5138:A 19.8634 
*END

*D_NET *783 0.000433082
*CONN
*I *5139:A I *D sky130_fd_sc_hd__inv_1
*I *5138:Y O *D sky130_fd_sc_hd__inv_1
*CAP
1 *5139:A 9.92617e-05
2 *5138:Y 9.92617e-05
3 *5139:A *5140:A 5.33978e-05
4 *4402:A1 *5139:A 8.32242e-05
5 *5138:A *5139:A 9.75337e-06
6 *99:41 *5139:A 6.81083e-05
7 *178:83 *5139:A 2.00751e-05
*RES
1 *5138:Y *5139:A 30.1134 
*END

*D_NET *784 0.000682078
*CONN
*I *5140:A I *D sky130_fd_sc_hd__inv_1
*I *5139:Y O *D sky130_fd_sc_hd__inv_1
*CAP
1 *5140:A 0.000211433
2 *5139:Y 0.000211433
3 *5139:A *5140:A 5.33978e-05
4 *99:41 *5140:A 2.78729e-05
5 *178:83 *5140:A 0.000177941
*RES
1 *5139:Y *5140:A 32.1045 
*END

*D_NET *785 0.000109317
*CONN
*I *5141:A I *D sky130_fd_sc_hd__inv_1
*I *5140:Y O *D sky130_fd_sc_hd__inv_1
*CAP
1 *5141:A 5.46587e-05
2 *5140:Y 5.46587e-05
*RES
1 *5140:Y *5141:A 19.4973 
*END

*D_NET *786 0.000580545
*CONN
*I *5166:A I *D sky130_fd_sc_hd__buf_1
*I *5142:A I *D sky130_fd_sc_hd__inv_1
*I *5141:Y O *D sky130_fd_sc_hd__inv_1
*CAP
1 *5166:A 0
2 *5142:A 9.82078e-05
3 *5141:Y 0.000128434
4 *786:12 0.000226642
5 *5142:A *5143:A 4.88944e-05
6 *786:12 *5143:A 7.83659e-05
7 *120:36 *786:12 0
8 *179:99 *786:12 0
*RES
1 *5141:Y *786:12 20.5768 
2 *786:12 *5142:A 11.1795 
3 *786:12 *5166:A 9.3 
*END

*D_NET *787 0.000521275
*CONN
*I *5143:A I *D sky130_fd_sc_hd__inv_1
*I *5142:Y O *D sky130_fd_sc_hd__inv_1
*CAP
1 *5143:A 0.000197007
2 *5142:Y 0.000197007
3 *5142:A *5143:A 4.88944e-05
4 *120:36 *5143:A 0
5 *179:99 *5143:A 0
6 *786:12 *5143:A 7.83659e-05
*RES
1 *5142:Y *5143:A 30.9795 
*END

*D_NET *788 0.000106793
*CONN
*I *5144:A I *D sky130_fd_sc_hd__inv_1
*I *5143:Y O *D sky130_fd_sc_hd__inv_1
*CAP
1 *5144:A 5.33963e-05
2 *5143:Y 5.33963e-05
*RES
1 *5143:Y *5144:A 19.4973 
*END

*D_NET *789 0.000832063
*CONN
*I *5145:A I *D sky130_fd_sc_hd__inv_1
*I *5144:Y O *D sky130_fd_sc_hd__inv_1
*CAP
1 *5145:A 0.000274057
2 *5144:Y 0.000274057
3 *5145:A *5147:A 9.57505e-05
4 *5145:A *5148:A 0.000100518
5 *5145:A *5203:A 0
6 *99:69 *5145:A 6.71295e-05
7 *179:99 *5145:A 2.05517e-05
*RES
1 *5144:Y *5145:A 33.0062 
*END

*D_NET *790 0.00058065
*CONN
*I *5147:A I *D sky130_fd_sc_hd__inv_1
*I *5145:Y O *D sky130_fd_sc_hd__inv_1
*CAP
1 *5147:A 0.000163424
2 *5145:Y 0.000163424
3 *5147:A *5149:A 1.14548e-05
4 *5147:A *5203:A 0
5 *5145:A *5147:A 9.57505e-05
6 *99:69 *5147:A 2.25871e-05
7 *179:99 *5147:A 0.00012401
*RES
1 *5145:Y *5147:A 30.6759 
*END

*D_NET *791 0.000372815
*CONN
*I *5157:A I *D sky130_fd_sc_hd__inv_1
*I *5146:Y O *D sky130_fd_sc_hd__inv_1
*CAP
1 *5157:A 0.000137869
2 *5146:Y 0.000137869
3 *5157:A *5160:A 2.16394e-05
4 *4431:A *5157:A 7.54384e-05
*RES
1 *5146:Y *5157:A 30.158 
*END

*D_NET *792 0.000529363
*CONN
*I *5148:A I *D sky130_fd_sc_hd__inv_1
*I *5147:Y O *D sky130_fd_sc_hd__inv_1
*CAP
1 *5148:A 0.000176996
2 *5147:Y 0.000176996
3 *5148:A *5151:A 4.46186e-06
4 *5145:A *5148:A 0.000100518
5 *99:69 *5148:A 2.80789e-05
6 *120:36 *5148:A 0
7 *179:99 *5148:A 4.23122e-05
*RES
1 *5147:Y *5148:A 30.6759 
*END

*D_NET *793 0.000251605
*CONN
*I *5149:A I *D sky130_fd_sc_hd__inv_1
*I *5148:Y O *D sky130_fd_sc_hd__inv_1
*CAP
1 *5149:A 5.40483e-05
2 *5148:Y 5.40483e-05
3 *5147:A *5149:A 1.14548e-05
4 *99:69 *5149:A 0.000132054
*RES
1 *5148:Y *5149:A 19.8634 
*END

*D_NET *794 0.000436613
*CONN
*I *5150:A I *D sky130_fd_sc_hd__inv_1
*I *5149:Y O *D sky130_fd_sc_hd__inv_1
*CAP
1 *5150:A 9.17966e-05
2 *5149:Y 9.17966e-05
3 *5150:A *5152:A 7.92879e-05
4 *99:69 *5150:A 1.89695e-05
5 *179:99 *5150:A 0.000154762
*RES
1 *5149:Y *5150:A 30.1134 
*END

*D_NET *795 0.000672906
*CONN
*I *5151:A I *D sky130_fd_sc_hd__inv_1
*I *5150:Y O *D sky130_fd_sc_hd__inv_1
*CAP
1 *5151:A 0.000292499
2 *5150:Y 0.000292499
3 *5151:A *5152:A 3.19086e-05
4 *5151:A *5153:A 2.79966e-05
5 *5148:A *5151:A 4.46186e-06
6 *99:69 *5151:A 2.3541e-05
7 *120:36 *5151:A 0
8 *179:99 *5151:A 0
*RES
1 *5150:Y *5151:A 31.7563 
*END

*D_NET *796 0.000539618
*CONN
*I *5152:A I *D sky130_fd_sc_hd__inv_1
*I *5151:Y O *D sky130_fd_sc_hd__inv_1
*CAP
1 *5152:A 0.000180299
2 *5151:Y 0.000180299
3 *5150:A *5152:A 7.92879e-05
4 *5151:A *5152:A 3.19086e-05
5 *99:69 *5152:A 6.78233e-05
6 *120:36 *5152:A 0
*RES
1 *5151:Y *5152:A 30.9795 
*END

*D_NET *797 0.000120134
*CONN
*I *5153:A I *D sky130_fd_sc_hd__inv_1
*I *5152:Y O *D sky130_fd_sc_hd__inv_1
*CAP
1 *5153:A 4.60688e-05
2 *5152:Y 4.60688e-05
3 *5151:A *5153:A 2.79966e-05
*RES
1 *5152:Y *5153:A 19.4973 
*END

*D_NET *798 0.000106793
*CONN
*I *5154:A I *D sky130_fd_sc_hd__inv_1
*I *5153:Y O *D sky130_fd_sc_hd__inv_1
*CAP
1 *5154:A 5.33963e-05
2 *5153:Y 5.33963e-05
*RES
1 *5153:Y *5154:A 19.4973 
*END

*D_NET *799 0.000107334
*CONN
*I *5155:A I *D sky130_fd_sc_hd__inv_1
*I *5154:Y O *D sky130_fd_sc_hd__inv_1
*CAP
1 *5155:A 5.36668e-05
2 *5154:Y 5.36668e-05
*RES
1 *5154:Y *5155:A 19.4973 
*END

*D_NET *800 0.000174716
*CONN
*I *5156:A I *D sky130_fd_sc_hd__inv_1
*I *5155:Y O *D sky130_fd_sc_hd__inv_1
*CAP
1 *5156:A 8.7358e-05
2 *5155:Y 8.7358e-05
*RES
1 *5155:Y *5156:A 19.908 
*END

*D_NET *801 0.000107334
*CONN
*I *5158:A I *D sky130_fd_sc_hd__inv_1
*I *5156:Y O *D sky130_fd_sc_hd__inv_1
*CAP
1 *5158:A 5.36668e-05
2 *5156:Y 5.36668e-05
*RES
1 *5156:Y *5158:A 19.4973 
*END

*D_NET *802 0.000117033
*CONN
*I *5159:A I *D sky130_fd_sc_hd__inv_1
*I *5157:Y O *D sky130_fd_sc_hd__inv_1
*CAP
1 *5159:A 5.42725e-05
2 *5157:Y 5.42725e-05
3 *5159:A *5160:A 8.48822e-06
*RES
1 *5157:Y *5159:A 19.4973 
*END

*D_NET *803 0.000709056
*CONN
*I *5167:B I *D sky130_fd_sc_hd__nand2_1
*I *5158:Y O *D sky130_fd_sc_hd__inv_1
*CAP
1 *5167:B 0.00017814
2 *5158:Y 0.00017814
3 *4427:B *5167:B 0.000177941
4 *4431:A *5167:B 7.57312e-05
5 *4431:B *5167:B 9.91033e-05
6 *99:37 *5167:B 0
7 *99:39 *5167:B 0
8 *99:41 *5167:B 0
*RES
1 *5158:Y *5167:B 31.8232 
*END

*D_NET *804 0.000423162
*CONN
*I *5160:A I *D sky130_fd_sc_hd__inv_1
*I *5159:Y O *D sky130_fd_sc_hd__inv_1
*CAP
1 *5160:A 0.000196517
2 *5159:Y 0.000196517
3 *5157:A *5160:A 2.16394e-05
4 *5159:A *5160:A 8.48822e-06
*RES
1 *5159:Y *5160:A 30.5688 
*END

*D_NET *805 0.000123178
*CONN
*I *5161:A I *D sky130_fd_sc_hd__inv_1
*I *5160:Y O *D sky130_fd_sc_hd__inv_1
*CAP
1 *5161:A 4.24858e-05
2 *5160:Y 4.24858e-05
3 *5161:A *5163:A 3.82062e-05
*RES
1 *5160:Y *5161:A 19.4973 
*END

*D_NET *806 0.000162983
*CONN
*I *5162:A I *D sky130_fd_sc_hd__inv_1
*I *5161:Y O *D sky130_fd_sc_hd__inv_1
*CAP
1 *5162:A 5.33418e-05
2 *5161:Y 5.33418e-05
3 *5162:A *5163:A 5.62995e-05
*RES
1 *5161:Y *5162:A 19.8634 
*END

*D_NET *807 0.000626576
*CONN
*I *5163:A I *D sky130_fd_sc_hd__inv_1
*I *5162:Y O *D sky130_fd_sc_hd__inv_1
*CAP
1 *5163:A 0.000266035
2 *5162:Y 0.000266035
3 *5161:A *5163:A 3.82062e-05
4 *5162:A *5163:A 5.62995e-05
*RES
1 *5162:Y *5163:A 31.4973 
*END

*D_NET *808 0.000106921
*CONN
*I *5164:A I *D sky130_fd_sc_hd__inv_1
*I *5163:Y O *D sky130_fd_sc_hd__inv_1
*CAP
1 *5164:A 5.34606e-05
2 *5163:Y 5.34606e-05
*RES
1 *5163:Y *5164:A 19.4973 
*END

*D_NET *809 0.000107065
*CONN
*I *5165:A I *D sky130_fd_sc_hd__inv_1
*I *5164:Y O *D sky130_fd_sc_hd__inv_1
*CAP
1 *5165:A 5.35325e-05
2 *5164:Y 5.35325e-05
*RES
1 *5164:Y *5165:A 19.4973 
*END

*D_NET *810 0.000139957
*CONN
*I *5136:A I *D sky130_fd_sc_hd__inv_1
*I *5165:Y O *D sky130_fd_sc_hd__inv_1
*CAP
1 *5136:A 6.99784e-05
2 *5165:Y 6.99784e-05
*RES
1 *5165:Y *5136:A 19.4973 
*END

*D_NET *811 0.000161366
*CONN
*I *4400:A1 I *D sky130_fd_sc_hd__mux4_2
*I *5166:X O *D sky130_fd_sc_hd__buf_1
*CAP
1 *4400:A1 8.0683e-05
2 *5166:X 8.0683e-05
3 *4400:A1 *4400:A3 0
4 *120:36 *4400:A1 0
*RES
1 *5166:X *4400:A1 28.9393 
*END

*D_NET *812 0.000267537
*CONN
*I *5199:A I *D sky130_fd_sc_hd__nand2_1
*I *4432:X O *D sky130_fd_sc_hd__and3_2
*CAP
1 *5199:A 0.000130743
2 *4432:X 0.000130743
3 *5199:A *5189:A 6.05161e-06
*RES
1 *4432:X *5199:A 20.7786 
*END

*D_NET *813 0.000329827
*CONN
*I *5178:A I *D sky130_fd_sc_hd__inv_1
*I *5199:Y O *D sky130_fd_sc_hd__nand2_1
*CAP
1 *5178:A 5.67621e-05
2 *5199:Y 5.67621e-05
3 *5178:A *5189:A 0.000112785
4 *5178:A *5199:B 0.000103518
*RES
1 *5199:Y *5178:A 20.6223 
*END

*D_NET *814 0.000170901
*CONN
*I *5169:A I *D sky130_fd_sc_hd__inv_1
*I *5168:Y O *D sky130_fd_sc_hd__inv_1
*CAP
1 *5169:A 7.71026e-05
2 *5168:Y 7.71026e-05
3 *5169:A *5170:A 1.66955e-05
*RES
1 *5168:Y *5169:A 19.8634 
*END

*D_NET *815 0.000538443
*CONN
*I *5170:A I *D sky130_fd_sc_hd__inv_1
*I *5169:Y O *D sky130_fd_sc_hd__inv_1
*CAP
1 *5170:A 0.000215603
2 *5169:Y 0.000215603
3 *5170:A *5172:A 6.08302e-05
4 *5170:A *5173:A 2.97126e-05
5 *5169:A *5170:A 1.66955e-05
*RES
1 *5169:Y *5170:A 31.4616 
*END

*D_NET *816 0.000172543
*CONN
*I *5171:A I *D sky130_fd_sc_hd__inv_1
*I *5170:Y O *D sky130_fd_sc_hd__inv_1
*CAP
1 *5171:A 5.1836e-05
2 *5170:Y 5.1836e-05
3 *5171:A *5172:A 5.54151e-05
4 *5171:A *5174:A 1.34554e-05
*RES
1 *5170:Y *5171:A 19.8634 
*END

*D_NET *817 0.000858469
*CONN
*I *5172:A I *D sky130_fd_sc_hd__inv_1
*I *5171:Y O *D sky130_fd_sc_hd__inv_1
*CAP
1 *5172:A 0.000124706
2 *5171:Y 0.000124706
3 *5172:A *5173:A 5.25873e-05
4 *5172:A *5174:A 0.000230642
5 *5172:A *5198:A 0.000209583
6 *5170:A *5172:A 6.08302e-05
7 *5171:A *5172:A 5.54151e-05
*RES
1 *5171:Y *5172:A 23.6402 
*END

*D_NET *818 0.000141474
*CONN
*I *5173:A I *D sky130_fd_sc_hd__inv_1
*I *5172:Y O *D sky130_fd_sc_hd__inv_1
*CAP
1 *5173:A 2.95872e-05
2 *5172:Y 2.95872e-05
3 *5170:A *5173:A 2.97126e-05
4 *5172:A *5173:A 5.25873e-05
*RES
1 *5172:Y *5173:A 19.4973 
*END

*D_NET *819 0.00447463
*CONN
*I *5198:A I *D sky130_fd_sc_hd__buf_1
*I *5174:A I *D sky130_fd_sc_hd__inv_1
*I *5173:Y O *D sky130_fd_sc_hd__inv_1
*CAP
1 *5198:A 0.00159252
2 *5174:A 0.000362712
3 *5173:Y 0
4 *819:4 0.00195523
5 *5198:A *5215:A 1.19393e-05
6 *5198:A *5216:A 3.80922e-05
7 *5198:A *5217:A 3.79306e-05
8 *5198:A *5218:A 2.25213e-05
9 *5171:A *5174:A 1.34554e-05
10 *5172:A *5174:A 0.000230642
11 *5172:A *5198:A 0.000209583
*RES
1 *5173:Y *819:4 9.3 
2 *819:4 *5174:A 14.6438 
3 *819:4 *5198:A 29.1482 
*END

*D_NET *820 0.000108278
*CONN
*I *5175:A I *D sky130_fd_sc_hd__inv_1
*I *5174:Y O *D sky130_fd_sc_hd__inv_1
*CAP
1 *5175:A 5.41392e-05
2 *5174:Y 5.41392e-05
*RES
1 *5174:Y *5175:A 19.4973 
*END

*D_NET *821 0.000412262
*CONN
*I *5176:A I *D sky130_fd_sc_hd__inv_1
*I *5175:Y O *D sky130_fd_sc_hd__inv_1
*CAP
1 *5176:A 0.000197766
2 *5175:Y 0.000197766
3 *5176:A *5180:A 1.67305e-05
*RES
1 *5175:Y *5176:A 30.6759 
*END

*D_NET *822 0.000125096
*CONN
*I *5177:A I *D sky130_fd_sc_hd__inv_1
*I *5176:Y O *D sky130_fd_sc_hd__inv_1
*CAP
1 *5177:A 3.58591e-05
2 *5176:Y 3.58591e-05
3 *5177:A *5180:A 5.33783e-05
*RES
1 *5176:Y *5177:A 19.4973 
*END

*D_NET *823 0.000169665
*CONN
*I *5179:A I *D sky130_fd_sc_hd__inv_1
*I *5177:Y O *D sky130_fd_sc_hd__inv_1
*CAP
1 *5179:A 5.66829e-05
2 *5177:Y 5.66829e-05
3 *5179:A *5180:A 5.62995e-05
*RES
1 *5177:Y *5179:A 19.8634 
*END

*D_NET *824 0.000665733
*CONN
*I *5189:A I *D sky130_fd_sc_hd__inv_1
*I *5178:Y O *D sky130_fd_sc_hd__inv_1
*CAP
1 *5189:A 0.000258809
2 *5178:Y 0.000258809
3 *5189:A *5192:A 1.37411e-05
4 *5189:A *5193:A 1.55383e-05
5 *5178:A *5189:A 0.000112785
6 *5199:A *5189:A 6.05161e-06
*RES
1 *5178:Y *5189:A 31.6938 
*END

*D_NET *825 0.000724212
*CONN
*I *5180:A I *D sky130_fd_sc_hd__inv_1
*I *5179:Y O *D sky130_fd_sc_hd__inv_1
*CAP
1 *5180:A 0.000298902
2 *5179:Y 0.000298902
3 *5176:A *5180:A 1.67305e-05
4 *5177:A *5180:A 5.33783e-05
5 *5179:A *5180:A 5.62995e-05
*RES
1 *5179:Y *5180:A 32.9259 
*END

*D_NET *826 0.000620925
*CONN
*I *5181:A I *D sky130_fd_sc_hd__inv_1
*I *5180:Y O *D sky130_fd_sc_hd__inv_1
*CAP
1 *5181:A 0.00018324
2 *5180:Y 0.00018324
3 *5181:A *5182:A 0.000135619
4 *5181:A *5183:A 9.57215e-05
5 *5181:A *5184:A 2.3104e-05
*RES
1 *5180:Y *5181:A 22.9527 
*END

*D_NET *827 0.000549441
*CONN
*I *5182:A I *D sky130_fd_sc_hd__inv_1
*I *5181:Y O *D sky130_fd_sc_hd__inv_1
*CAP
1 *5182:A 0.000108571
2 *5181:Y 0.000108571
3 *5182:A *5183:A 9.57215e-05
4 *5182:A *5184:A 0.00010096
5 *5181:A *5182:A 0.000135619
*RES
1 *5181:Y *5182:A 21.6223 
*END

*D_NET *828 0.000212531
*CONN
*I *5183:A I *D sky130_fd_sc_hd__inv_1
*I *5182:Y O *D sky130_fd_sc_hd__inv_1
*CAP
1 *5183:A 1.05439e-05
2 *5182:Y 1.05439e-05
3 *5181:A *5183:A 9.57215e-05
4 *5182:A *5183:A 9.57215e-05
*RES
1 *5182:Y *5183:A 19.4973 
*END

*D_NET *829 0.000591027
*CONN
*I *5184:A I *D sky130_fd_sc_hd__inv_1
*I *5183:Y O *D sky130_fd_sc_hd__inv_1
*CAP
1 *5184:A 0.000233481
2 *5183:Y 0.000233481
3 *5181:A *5184:A 2.3104e-05
4 *5182:A *5184:A 0.00010096
*RES
1 *5183:Y *5184:A 31.0866 
*END

*D_NET *830 0.000106793
*CONN
*I *5185:A I *D sky130_fd_sc_hd__inv_1
*I *5184:Y O *D sky130_fd_sc_hd__inv_1
*CAP
1 *5185:A 5.33963e-05
2 *5184:Y 5.33963e-05
*RES
1 *5184:Y *5185:A 19.4973 
*END

*D_NET *831 0.000106793
*CONN
*I *5186:A I *D sky130_fd_sc_hd__inv_1
*I *5185:Y O *D sky130_fd_sc_hd__inv_1
*CAP
1 *5186:A 5.33963e-05
2 *5185:Y 5.33963e-05
*RES
1 *5185:Y *5186:A 19.4973 
*END

*D_NET *832 0.000106793
*CONN
*I *5187:A I *D sky130_fd_sc_hd__inv_1
*I *5186:Y O *D sky130_fd_sc_hd__inv_1
*CAP
1 *5187:A 5.33963e-05
2 *5186:Y 5.33963e-05
*RES
1 *5186:Y *5187:A 19.4973 
*END

*D_NET *833 0.000436208
*CONN
*I *5188:A I *D sky130_fd_sc_hd__inv_1
*I *5187:Y O *D sky130_fd_sc_hd__inv_1
*CAP
1 *5188:A 0.000218104
2 *5187:Y 0.000218104
*RES
1 *5187:Y *5188:A 30.9795 
*END

*D_NET *834 0.000156882
*CONN
*I *5190:A I *D sky130_fd_sc_hd__inv_1
*I *5188:Y O *D sky130_fd_sc_hd__inv_1
*CAP
1 *5190:A 7.84408e-05
2 *5188:Y 7.84408e-05
*RES
1 *5188:Y *5190:A 19.908 
*END

*D_NET *835 0.000171093
*CONN
*I *5191:A I *D sky130_fd_sc_hd__inv_1
*I *5189:Y O *D sky130_fd_sc_hd__inv_1
*CAP
1 *5191:A 5.75127e-05
2 *5189:Y 5.75127e-05
3 *5191:A *5192:A 5.60675e-05
*RES
1 *5189:Y *5191:A 19.8634 
*END

*D_NET *836 0.000362359
*CONN
*I *5199:B I *D sky130_fd_sc_hd__nand2_1
*I *5190:Y O *D sky130_fd_sc_hd__inv_1
*CAP
1 *5199:B 0.000129421
2 *5190:Y 0.000129421
3 *5178:A *5199:B 0.000103518
*RES
1 *5190:Y *5199:B 21.0018 
*END

*D_NET *837 0.000459354
*CONN
*I *5192:A I *D sky130_fd_sc_hd__inv_1
*I *5191:Y O *D sky130_fd_sc_hd__inv_1
*CAP
1 *5192:A 0.000179459
2 *5191:Y 0.000179459
3 *5192:A *5193:A 3.06277e-05
4 *5189:A *5192:A 1.37411e-05
5 *5191:A *5192:A 5.60675e-05
*RES
1 *5191:Y *5192:A 21.9527 
*END

*D_NET *838 0.000575829
*CONN
*I *5193:A I *D sky130_fd_sc_hd__inv_1
*I *5192:Y O *D sky130_fd_sc_hd__inv_1
*CAP
1 *5193:A 0.000257949
2 *5192:Y 0.000257949
3 *5193:A *5195:A 1.37644e-05
4 *4428:B *5193:A 0
5 *5189:A *5193:A 1.55383e-05
6 *5192:A *5193:A 3.06277e-05
*RES
1 *5192:Y *5193:A 30.6759 
*END

*D_NET *839 0.000180579
*CONN
*I *5194:A I *D sky130_fd_sc_hd__inv_1
*I *5193:Y O *D sky130_fd_sc_hd__inv_1
*CAP
1 *5194:A 6.25813e-05
2 *5193:Y 6.25813e-05
3 *5194:A *5195:A 5.54168e-05
*RES
1 *5193:Y *5194:A 19.8634 
*END

*D_NET *840 0.00053133
*CONN
*I *5195:A I *D sky130_fd_sc_hd__inv_1
*I *5194:Y O *D sky130_fd_sc_hd__inv_1
*CAP
1 *5195:A 0.000225902
2 *5194:Y 0.000225902
3 *5195:A *5196:A 1.03449e-05
4 *5193:A *5195:A 1.37644e-05
5 *5194:A *5195:A 5.54168e-05
*RES
1 *5194:Y *5195:A 21.9527 
*END

*D_NET *841 0.000360968
*CONN
*I *5196:A I *D sky130_fd_sc_hd__inv_1
*I *5195:Y O *D sky130_fd_sc_hd__inv_1
*CAP
1 *5196:A 0.000167499
2 *5195:Y 0.000167499
3 *5196:A *5168:A 1.5624e-05
4 *5195:A *5196:A 1.03449e-05
*RES
1 *5195:Y *5196:A 30.158 
*END

*D_NET *842 0.000163224
*CONN
*I *5197:A I *D sky130_fd_sc_hd__inv_1
*I *5196:Y O *D sky130_fd_sc_hd__inv_1
*CAP
1 *5197:A 5.35784e-05
2 *5196:Y 5.35784e-05
3 *5197:A *5168:A 5.60675e-05
*RES
1 *5196:Y *5197:A 19.8634 
*END

*D_NET *843 0.000485624
*CONN
*I *5168:A I *D sky130_fd_sc_hd__inv_1
*I *5197:Y O *D sky130_fd_sc_hd__inv_1
*CAP
1 *5168:A 0.000206966
2 *5197:Y 0.000206966
3 *5196:A *5168:A 1.5624e-05
4 *5197:A *5168:A 5.60675e-05
*RES
1 *5197:Y *5168:A 21.5866 
*END

*D_NET *844 0.00037179
*CONN
*I *4400:A2 I *D sky130_fd_sc_hd__mux4_2
*I *5198:X O *D sky130_fd_sc_hd__buf_1
*CAP
1 *4400:A2 0.000185895
2 *5198:X 0.000185895
*RES
1 *5198:X *4400:A2 20.7786 
*END

*D_NET *845 0.000392953
*CONN
*I *5231:A I *D sky130_fd_sc_hd__nand2_1
*I *4367:X O *D sky130_fd_sc_hd__and3_2
*CAP
1 *5231:A 0.000121683
2 *4367:X 0.000121683
3 *5231:A *5210:A 7.83659e-05
4 *5231:A *5224:A 0
5 *5231:A *5231:B 4.23086e-05
6 *99:69 *5231:A 2.89114e-05
*RES
1 *4367:X *5231:A 30.0821 
*END

*D_NET *846 0.00076252
*CONN
*I *5210:A I *D sky130_fd_sc_hd__inv_1
*I *5231:Y O *D sky130_fd_sc_hd__nand2_1
*CAP
1 *5210:A 0.000170009
2 *5231:Y 0.000170009
3 *5210:A *5221:A 4.79842e-05
4 *5210:A *5225:A 0
5 *5210:A *5231:B 0.000270243
6 *4429:B *5210:A 2.59093e-05
7 *5231:A *5210:A 7.83659e-05
*RES
1 *5231:Y *5210:A 32.3634 
*END

*D_NET *847 0.000624763
*CONN
*I *5201:A I *D sky130_fd_sc_hd__inv_1
*I *5200:Y O *D sky130_fd_sc_hd__inv_1
*CAP
1 *5201:A 0.000200284
2 *5200:Y 0.000200284
3 *5201:A *5229:A 0.000182692
4 *99:69 *5201:A 4.15034e-05
*RES
1 *5200:Y *5201:A 21.8455 
*END

*D_NET *848 0.00024082
*CONN
*I *5202:A I *D sky130_fd_sc_hd__inv_1
*I *5201:Y O *D sky130_fd_sc_hd__inv_1
*CAP
1 *5202:A 4.4676e-05
2 *5201:Y 4.4676e-05
3 *5202:A *5203:A 1.66955e-05
4 *99:69 *5202:A 0.000134772
*RES
1 *5201:Y *5202:A 19.8634 
*END

*D_NET *849 0.000318409
*CONN
*I *5203:A I *D sky130_fd_sc_hd__inv_1
*I *5202:Y O *D sky130_fd_sc_hd__inv_1
*CAP
1 *5203:A 0.000150857
2 *5202:Y 0.000150857
3 *5145:A *5203:A 0
4 *5147:A *5203:A 0
5 *5202:A *5203:A 1.66955e-05
*RES
1 *5202:Y *5203:A 29.8545 
*END

*D_NET *850 0.000158221
*CONN
*I *5204:A I *D sky130_fd_sc_hd__inv_1
*I *5203:Y O *D sky130_fd_sc_hd__inv_1
*CAP
1 *5204:A 5.9426e-05
2 *5203:Y 5.9426e-05
3 *5204:A *5205:A 3.93689e-05
*RES
1 *5203:Y *5204:A 19.8634 
*END

*D_NET *851 0.000517997
*CONN
*I *5205:A I *D sky130_fd_sc_hd__inv_1
*I *5204:Y O *D sky130_fd_sc_hd__inv_1
*CAP
1 *5205:A 0.000224313
2 *5204:Y 0.000224313
3 *5205:A *5206:A 3.00023e-05
4 *5204:A *5205:A 3.93689e-05
*RES
1 *5204:Y *5205:A 30.9795 
*END

*D_NET *852 0.000561685
*CONN
*I *5230:A I *D sky130_fd_sc_hd__buf_1
*I *5206:A I *D sky130_fd_sc_hd__inv_1
*I *5205:Y O *D sky130_fd_sc_hd__inv_1
*CAP
1 *5230:A 0.000100232
2 *5206:A 0.00016561
3 *5205:Y 0
4 *852:4 0.000265842
5 *5205:A *5206:A 3.00023e-05
*RES
1 *5205:Y *852:4 9.3 
2 *852:4 *5206:A 12.3938 
3 *852:4 *5230:A 11.2911 
*END

*D_NET *853 0.000106793
*CONN
*I *5207:A I *D sky130_fd_sc_hd__inv_1
*I *5206:Y O *D sky130_fd_sc_hd__inv_1
*CAP
1 *5207:A 5.33963e-05
2 *5206:Y 5.33963e-05
*RES
1 *5206:Y *5207:A 19.4973 
*END

*D_NET *854 0.000106793
*CONN
*I *5208:A I *D sky130_fd_sc_hd__inv_1
*I *5207:Y O *D sky130_fd_sc_hd__inv_1
*CAP
1 *5208:A 5.33963e-05
2 *5207:Y 5.33963e-05
*RES
1 *5207:Y *5208:A 19.4973 
*END

*D_NET *855 0.000106793
*CONN
*I *5209:A I *D sky130_fd_sc_hd__inv_1
*I *5208:Y O *D sky130_fd_sc_hd__inv_1
*CAP
1 *5209:A 5.33963e-05
2 *5208:Y 5.33963e-05
*RES
1 *5208:Y *5209:A 19.4973 
*END

*D_NET *856 0.000106793
*CONN
*I *5211:A I *D sky130_fd_sc_hd__inv_1
*I *5209:Y O *D sky130_fd_sc_hd__inv_1
*CAP
1 *5211:A 5.33963e-05
2 *5209:Y 5.33963e-05
*RES
1 *5209:Y *5211:A 19.4973 
*END

*D_NET *857 0.000310972
*CONN
*I *5221:A I *D sky130_fd_sc_hd__inv_1
*I *5210:Y O *D sky130_fd_sc_hd__inv_1
*CAP
1 *5221:A 0.000119724
2 *5210:Y 0.000119724
3 *5210:A *5221:A 4.79842e-05
4 *99:69 *5221:A 2.3541e-05
*RES
1 *5210:Y *5221:A 29.8098 
*END

*D_NET *858 0.000106793
*CONN
*I *5212:A I *D sky130_fd_sc_hd__inv_1
*I *5211:Y O *D sky130_fd_sc_hd__inv_1
*CAP
1 *5212:A 5.33963e-05
2 *5211:Y 5.33963e-05
*RES
1 *5211:Y *5212:A 19.4973 
*END

*D_NET *859 0.000123176
*CONN
*I *5213:A I *D sky130_fd_sc_hd__inv_1
*I *5212:Y O *D sky130_fd_sc_hd__inv_1
*CAP
1 *5213:A 4.24898e-05
2 *5212:Y 4.24898e-05
3 *5213:A *5215:A 3.81963e-05
*RES
1 *5212:Y *5213:A 19.4973 
*END

*D_NET *860 0.000162983
*CONN
*I *5214:A I *D sky130_fd_sc_hd__inv_1
*I *5213:Y O *D sky130_fd_sc_hd__inv_1
*CAP
1 *5214:A 5.33418e-05
2 *5213:Y 5.33418e-05
3 *5214:A *5215:A 5.62995e-05
*RES
1 *5213:Y *5214:A 19.8634 
*END

*D_NET *861 0.000626737
*CONN
*I *5215:A I *D sky130_fd_sc_hd__inv_1
*I *5214:Y O *D sky130_fd_sc_hd__inv_1
*CAP
1 *5215:A 0.000260151
2 *5214:Y 0.000260151
3 *4429:B *5215:A 0
4 *5198:A *5215:A 1.19393e-05
5 *5213:A *5215:A 3.81963e-05
6 *5214:A *5215:A 5.62995e-05
*RES
1 *5214:Y *5215:A 31.4973 
*END

*D_NET *862 0.000113128
*CONN
*I *5216:A I *D sky130_fd_sc_hd__inv_1
*I *5215:Y O *D sky130_fd_sc_hd__inv_1
*CAP
1 *5216:A 3.7518e-05
2 *5215:Y 3.7518e-05
3 *5198:A *5216:A 3.80922e-05
*RES
1 *5215:Y *5216:A 19.4973 
*END

*D_NET *863 0.0001136
*CONN
*I *5217:A I *D sky130_fd_sc_hd__inv_1
*I *5216:Y O *D sky130_fd_sc_hd__inv_1
*CAP
1 *5217:A 3.78346e-05
2 *5216:Y 3.78346e-05
3 *5198:A *5217:A 3.79306e-05
*RES
1 *5216:Y *5217:A 19.4973 
*END

*D_NET *864 0.000598887
*CONN
*I *5218:A I *D sky130_fd_sc_hd__inv_1
*I *5217:Y O *D sky130_fd_sc_hd__inv_1
*CAP
1 *5218:A 0.000288183
2 *5217:Y 0.000288183
3 *4428:B *5218:A 0
4 *5198:A *5218:A 2.25213e-05
5 *176:66 *5218:A 0
*RES
1 *5217:Y *5218:A 31.4973 
*END

*D_NET *865 0.000167854
*CONN
*I *5219:A I *D sky130_fd_sc_hd__inv_1
*I *5218:Y O *D sky130_fd_sc_hd__inv_1
*CAP
1 *5219:A 7.73188e-05
2 *5218:Y 7.73188e-05
3 *5219:A *5220:A 1.3216e-05
*RES
1 *5218:Y *5219:A 19.8634 
*END

*D_NET *866 0.0005902
*CONN
*I *5220:A I *D sky130_fd_sc_hd__inv_1
*I *5219:Y O *D sky130_fd_sc_hd__inv_1
*CAP
1 *5220:A 0.000204945
2 *5219:Y 0.000204945
3 *5220:A *5222:A 6.55493e-05
4 *4428:B *5220:A 0
5 *5219:A *5220:A 1.3216e-05
6 *176:66 *5220:A 0.000101545
*RES
1 *5219:Y *5220:A 31.5063 
*END

*D_NET *867 0.000317626
*CONN
*I *5222:A I *D sky130_fd_sc_hd__inv_1
*I *5220:Y O *D sky130_fd_sc_hd__inv_1
*CAP
1 *5222:A 0.000126038
2 *5220:Y 0.000126038
3 *5220:A *5222:A 6.55493e-05
*RES
1 *5220:Y *5222:A 20.7295 
*END

*D_NET *868 0.000250293
*CONN
*I *5223:A I *D sky130_fd_sc_hd__inv_1
*I *5221:Y O *D sky130_fd_sc_hd__inv_1
*CAP
1 *5223:A 9.74671e-05
2 *5221:Y 9.74671e-05
3 *99:69 *5223:A 5.53587e-05
*RES
1 *5221:Y *5223:A 20.3545 
*END

*D_NET *869 0.000825953
*CONN
*I *5231:B I *D sky130_fd_sc_hd__nand2_1
*I *5222:Y O *D sky130_fd_sc_hd__inv_1
*CAP
1 *5231:B 0.000157709
2 *5222:Y 0.000157709
3 *4429:B *5231:B 0.000197984
4 *5210:A *5231:B 0.000270243
5 *5231:A *5231:B 4.23086e-05
6 *98:26 *5231:B 0
*RES
1 *5222:Y *5231:B 32.3054 
*END

*D_NET *870 0.000564054
*CONN
*I *5224:A I *D sky130_fd_sc_hd__inv_1
*I *5223:Y O *D sky130_fd_sc_hd__inv_1
*CAP
1 *5224:A 0.000215516
2 *5223:Y 0.000215516
3 *5224:A *5225:A 8.89388e-05
4 *5224:A *5226:A 0
5 *5231:A *5224:A 0
6 *99:69 *5224:A 4.40835e-05
*RES
1 *5223:Y *5224:A 31.3455 
*END

*D_NET *871 0.000420977
*CONN
*I *5225:A I *D sky130_fd_sc_hd__inv_1
*I *5224:Y O *D sky130_fd_sc_hd__inv_1
*CAP
1 *5225:A 0.000116238
2 *5224:Y 0.000116238
3 *5225:A *5227:A 7.6021e-05
4 *5210:A *5225:A 0
5 *5224:A *5225:A 8.89388e-05
6 *99:69 *5225:A 2.3541e-05
*RES
1 *5224:Y *5225:A 30.1134 
*END

*D_NET *872 0.000665611
*CONN
*I *5226:A I *D sky130_fd_sc_hd__inv_1
*I *5225:Y O *D sky130_fd_sc_hd__inv_1
*CAP
1 *5226:A 0.000248832
2 *5225:Y 0.000248832
3 *5226:A *5227:A 0.000104652
4 *5224:A *5226:A 0
5 *99:69 *5226:A 6.32951e-05
*RES
1 *5225:Y *5226:A 31.7563 
*END

*D_NET *873 0.000593576
*CONN
*I *5227:A I *D sky130_fd_sc_hd__inv_1
*I *5226:Y O *D sky130_fd_sc_hd__inv_1
*CAP
1 *5227:A 0.000192409
2 *5226:Y 0.000192409
3 *5225:A *5227:A 7.6021e-05
4 *5226:A *5227:A 0.000104652
5 *99:69 *5227:A 2.80853e-05
*RES
1 *5226:Y *5227:A 30.9795 
*END

*D_NET *874 0.00016283
*CONN
*I *5228:A I *D sky130_fd_sc_hd__inv_1
*I *5227:Y O *D sky130_fd_sc_hd__inv_1
*CAP
1 *5228:A 3.3554e-05
2 *5227:Y 3.3554e-05
3 *99:69 *5228:A 9.57215e-05
*RES
1 *5227:Y *5228:A 19.4973 
*END

*D_NET *875 0.000609199
*CONN
*I *5229:A I *D sky130_fd_sc_hd__inv_1
*I *5228:Y O *D sky130_fd_sc_hd__inv_1
*CAP
1 *5229:A 9.36874e-05
2 *5228:Y 9.36874e-05
3 *5229:A *5200:A 0.000134772
4 *5201:A *5229:A 0.000182692
5 *99:69 *5229:A 0.00010436
*RES
1 *5228:Y *5229:A 22.1045 
*END

*D_NET *876 0.000299235
*CONN
*I *5200:A I *D sky130_fd_sc_hd__inv_1
*I *5229:Y O *D sky130_fd_sc_hd__inv_1
*CAP
1 *5200:A 1.48454e-05
2 *5229:Y 1.48454e-05
3 *5229:A *5200:A 0.000134772
4 *99:69 *5200:A 0.000134772
*RES
1 *5229:Y *5200:A 19.8634 
*END

*D_NET *877 0.000615413
*CONN
*I *4400:A3 I *D sky130_fd_sc_hd__mux4_2
*I *5230:X O *D sky130_fd_sc_hd__buf_1
*CAP
1 *4400:A3 0.00025608
2 *5230:X 0.00025608
3 *4400:A1 *4400:A3 0
4 *179:99 *4400:A3 0.000103253
*RES
1 *5230:X *4400:A3 31.1179 
*END

*D_NET *878 0.00321994
*CONN
*I *5263:A I *D sky130_fd_sc_hd__nand2_1
*I *4370:X O *D sky130_fd_sc_hd__and3_2
*CAP
1 *5263:A 0.00125506
2 *4370:X 0.00125506
3 *5263:A *4397:A3 5.76121e-05
4 *5263:A *5234:A 2.80789e-05
5 *5263:A *5235:A 9.57215e-05
6 *5263:A *5236:A 0.000126136
7 *5263:A *5237:A 9.57215e-05
8 *5263:A *5242:A 4.22908e-05
9 *5263:A *5263:B 5.71472e-05
10 *5263:A *5390:A 0.000185643
11 *4370:C *5263:A 2.14757e-05
12 *176:22 *5263:A 0
*RES
1 *4370:X *5263:A 42.1714 
*END

*D_NET *879 0.000205857
*CONN
*I *5242:A I *D sky130_fd_sc_hd__inv_1
*I *5263:Y O *D sky130_fd_sc_hd__nand2_1
*CAP
1 *5242:A 8.17832e-05
2 *5263:Y 8.17832e-05
3 *5263:A *5242:A 4.22908e-05
*RES
1 *5263:Y *5242:A 20.2563 
*END

*D_NET *880 0.000260602
*CONN
*I *5233:A I *D sky130_fd_sc_hd__inv_1
*I *5232:Y O *D sky130_fd_sc_hd__inv_1
*CAP
1 *5233:A 9.27775e-05
2 *5232:Y 9.27775e-05
3 *5233:A *5234:A 7.50473e-05
*RES
1 *5232:Y *5233:A 20.6848 
*END

*D_NET *881 0.00066604
*CONN
*I *5234:A I *D sky130_fd_sc_hd__inv_1
*I *5233:Y O *D sky130_fd_sc_hd__inv_1
*CAP
1 *5234:A 0.000281457
2 *5233:Y 0.000281457
3 *5233:A *5234:A 7.50473e-05
4 *5263:A *5234:A 2.80789e-05
*RES
1 *5233:Y *5234:A 31.8009 
*END

*D_NET *882 0.00016283
*CONN
*I *5235:A I *D sky130_fd_sc_hd__inv_1
*I *5234:Y O *D sky130_fd_sc_hd__inv_1
*CAP
1 *5235:A 3.3554e-05
2 *5234:Y 3.3554e-05
3 *5263:A *5235:A 9.57215e-05
*RES
1 *5234:Y *5235:A 19.4973 
*END

*D_NET *883 0.000572947
*CONN
*I *5236:A I *D sky130_fd_sc_hd__inv_1
*I *5235:Y O *D sky130_fd_sc_hd__inv_1
*CAP
1 *5236:A 0.000114111
2 *5235:Y 0.000114111
3 *5236:A *5237:A 9.57215e-05
4 *5236:A *885:12 0.000122866
5 *5263:A *5236:A 0.000126136
*RES
1 *5235:Y *5236:A 22.1045 
*END

*D_NET *884 0.000212531
*CONN
*I *5237:A I *D sky130_fd_sc_hd__inv_1
*I *5236:Y O *D sky130_fd_sc_hd__inv_1
*CAP
1 *5237:A 1.05439e-05
2 *5236:Y 1.05439e-05
3 *5236:A *5237:A 9.57215e-05
4 *5263:A *5237:A 9.57215e-05
*RES
1 *5236:Y *5237:A 19.4973 
*END

*D_NET *885 0.000691141
*CONN
*I *5238:A I *D sky130_fd_sc_hd__inv_1
*I *5262:A I *D sky130_fd_sc_hd__buf_1
*I *5237:Y O *D sky130_fd_sc_hd__inv_1
*CAP
1 *5238:A 9.54485e-05
2 *5262:A 0
3 *5237:Y 0.000188689
4 *885:12 0.000284137
5 *5236:A *885:12 0.000122866
*RES
1 *5237:Y *885:12 21.0946 
2 *885:12 *5262:A 9.3 
3 *885:12 *5238:A 10.8134 
*END

*D_NET *886 0.000155673
*CONN
*I *5239:A I *D sky130_fd_sc_hd__inv_1
*I *5238:Y O *D sky130_fd_sc_hd__inv_1
*CAP
1 *5239:A 7.78365e-05
2 *5238:Y 7.78365e-05
*RES
1 *5238:Y *5239:A 19.908 
*END

*D_NET *887 0.000155673
*CONN
*I *5240:A I *D sky130_fd_sc_hd__inv_1
*I *5239:Y O *D sky130_fd_sc_hd__inv_1
*CAP
1 *5240:A 7.78365e-05
2 *5239:Y 7.78365e-05
*RES
1 *5239:Y *5240:A 19.908 
*END

*D_NET *888 0.000387327
*CONN
*I *5241:A I *D sky130_fd_sc_hd__inv_1
*I *5240:Y O *D sky130_fd_sc_hd__inv_1
*CAP
1 *5241:A 0.000193664
2 *5240:Y 0.000193664
*RES
1 *5240:Y *5241:A 30.5688 
*END

*D_NET *889 0.000106793
*CONN
*I *5243:A I *D sky130_fd_sc_hd__inv_1
*I *5241:Y O *D sky130_fd_sc_hd__inv_1
*CAP
1 *5243:A 5.33963e-05
2 *5241:Y 5.33963e-05
*RES
1 *5241:Y *5243:A 19.4973 
*END

*D_NET *890 0.000163704
*CONN
*I *5253:A I *D sky130_fd_sc_hd__inv_1
*I *5242:Y O *D sky130_fd_sc_hd__inv_1
*CAP
1 *5253:A 6.78478e-05
2 *5242:Y 6.78478e-05
3 *5253:A *5255:A 2.80081e-05
*RES
1 *5242:Y *5253:A 19.8634 
*END

*D_NET *891 0.00030874
*CONN
*I *5244:A I *D sky130_fd_sc_hd__inv_1
*I *5243:Y O *D sky130_fd_sc_hd__inv_1
*CAP
1 *5244:A 0.00015437
2 *5243:Y 0.00015437
3 *5244:A *5248:A 0
*RES
1 *5243:Y *5244:A 29.8545 
*END

*D_NET *892 0.000106793
*CONN
*I *5245:A I *D sky130_fd_sc_hd__inv_1
*I *5244:Y O *D sky130_fd_sc_hd__inv_1
*CAP
1 *5245:A 5.33963e-05
2 *5244:Y 5.33963e-05
*RES
1 *5244:Y *5245:A 19.4973 
*END

*D_NET *893 0.000107045
*CONN
*I *5246:A I *D sky130_fd_sc_hd__inv_1
*I *5245:Y O *D sky130_fd_sc_hd__inv_1
*CAP
1 *5246:A 5.35226e-05
2 *5245:Y 5.35226e-05
*RES
1 *5245:Y *5246:A 19.4973 
*END

*D_NET *894 0.000164013
*CONN
*I *5247:A I *D sky130_fd_sc_hd__inv_1
*I *5246:Y O *D sky130_fd_sc_hd__inv_1
*CAP
1 *5247:A 5.41977e-05
2 *5246:Y 5.41977e-05
3 *5247:A *5248:A 5.56173e-05
*RES
1 *5246:Y *5247:A 19.8634 
*END

*D_NET *895 0.000668557
*CONN
*I *5248:A I *D sky130_fd_sc_hd__inv_1
*I *5247:Y O *D sky130_fd_sc_hd__inv_1
*CAP
1 *5248:A 0.000251056
2 *5247:Y 0.000251056
3 *5248:A *5249:A 7.90536e-05
4 *5248:A *5250:A 3.17737e-05
5 *5244:A *5248:A 0
6 *5247:A *5248:A 5.56173e-05
*RES
1 *5247:Y *5248:A 31.6714 
*END

*D_NET *896 0.00025051
*CONN
*I *5249:A I *D sky130_fd_sc_hd__inv_1
*I *5248:Y O *D sky130_fd_sc_hd__inv_1
*CAP
1 *5249:A 3.52483e-05
2 *5248:Y 3.52483e-05
3 *5249:A *5250:A 0.00010096
4 *5248:A *5249:A 7.90536e-05
*RES
1 *5248:Y *5249:A 19.8634 
*END

*D_NET *897 0.000479488
*CONN
*I *5250:A I *D sky130_fd_sc_hd__inv_1
*I *5249:Y O *D sky130_fd_sc_hd__inv_1
*CAP
1 *5250:A 0.000130136
2 *5249:Y 0.000130136
3 *5250:A *5251:A 8.64828e-05
4 *5248:A *5250:A 3.17737e-05
5 *5249:A *5250:A 0.00010096
*RES
1 *5249:Y *5250:A 22.0777 
*END

*D_NET *898 0.000583165
*CONN
*I *5251:A I *D sky130_fd_sc_hd__inv_1
*I *5250:Y O *D sky130_fd_sc_hd__inv_1
*CAP
1 *5251:A 0.000248341
2 *5250:Y 0.000248341
3 *5250:A *5251:A 8.64828e-05
*RES
1 *5250:Y *5251:A 31.3902 
*END

*D_NET *899 0.000106793
*CONN
*I *5252:A I *D sky130_fd_sc_hd__inv_1
*I *5251:Y O *D sky130_fd_sc_hd__inv_1
*CAP
1 *5252:A 5.33963e-05
2 *5251:Y 5.33963e-05
*RES
1 *5251:Y *5252:A 19.4973 
*END

*D_NET *900 0.00016192
*CONN
*I *5254:A I *D sky130_fd_sc_hd__inv_1
*I *5252:Y O *D sky130_fd_sc_hd__inv_1
*CAP
1 *5254:A 7.26172e-05
2 *5252:Y 7.26172e-05
3 *5254:A *5263:B 1.66856e-05
*RES
1 *5252:Y *5254:A 19.8634 
*END

*D_NET *901 0.000458255
*CONN
*I *5255:A I *D sky130_fd_sc_hd__inv_1
*I *5253:Y O *D sky130_fd_sc_hd__inv_1
*CAP
1 *5255:A 0.00019324
2 *5253:Y 0.00019324
3 *5255:A *5257:A 3.00023e-05
4 *5255:A *5258:A 1.37644e-05
5 *5253:A *5255:A 2.80081e-05
*RES
1 *5253:Y *5255:A 30.5688 
*END

*D_NET *902 0.000383789
*CONN
*I *5263:B I *D sky130_fd_sc_hd__nand2_1
*I *5254:Y O *D sky130_fd_sc_hd__inv_1
*CAP
1 *5263:B 0.000154978
2 *5254:Y 0.000154978
3 *5254:A *5263:B 1.66856e-05
4 *5263:A *5263:B 5.71472e-05
*RES
1 *5254:Y *5263:B 30.1089 
*END

*D_NET *903 0.000238033
*CONN
*I *5256:A I *D sky130_fd_sc_hd__inv_1
*I *5255:Y O *D sky130_fd_sc_hd__inv_1
*CAP
1 *5256:A 3.72324e-05
2 *5255:Y 3.72324e-05
3 *5256:A *5257:A 9.80092e-05
4 *5256:A *5258:A 6.55592e-05
*RES
1 *5255:Y *5256:A 19.8634 
*END

*D_NET *904 0.000504324
*CONN
*I *5257:A I *D sky130_fd_sc_hd__inv_1
*I *5256:Y O *D sky130_fd_sc_hd__inv_1
*CAP
1 *5257:A 0.000165159
2 *5256:Y 0.000165159
3 *5257:A *5258:A 4.59941e-05
4 *5255:A *5257:A 3.00023e-05
5 *5256:A *5257:A 9.80092e-05
*RES
1 *5256:Y *5257:A 22.2027 
*END

*D_NET *905 0.000800911
*CONN
*I *5258:A I *D sky130_fd_sc_hd__inv_1
*I *5257:Y O *D sky130_fd_sc_hd__inv_1
*CAP
1 *5258:A 0.000305204
2 *5257:Y 0.000305204
3 *5258:A *5259:A 6.5185e-05
4 *5255:A *5258:A 1.37644e-05
5 *5256:A *5258:A 6.55592e-05
6 *5257:A *5258:A 4.59941e-05
*RES
1 *5257:Y *5258:A 33.0777 
*END

*D_NET *906 0.000397137
*CONN
*I *5259:A I *D sky130_fd_sc_hd__inv_1
*I *5258:Y O *D sky130_fd_sc_hd__inv_1
*CAP
1 *5259:A 0.000165976
2 *5258:Y 0.000165976
3 *5258:A *5259:A 6.5185e-05
*RES
1 *5258:Y *5259:A 30.2652 
*END

*D_NET *907 0.000106793
*CONN
*I *5260:A I *D sky130_fd_sc_hd__inv_1
*I *5259:Y O *D sky130_fd_sc_hd__inv_1
*CAP
1 *5260:A 5.33963e-05
2 *5259:Y 5.33963e-05
*RES
1 *5259:Y *5260:A 19.4973 
*END

*D_NET *908 0.000106793
*CONN
*I *5261:A I *D sky130_fd_sc_hd__inv_1
*I *5260:Y O *D sky130_fd_sc_hd__inv_1
*CAP
1 *5261:A 5.33963e-05
2 *5260:Y 5.33963e-05
*RES
1 *5260:Y *5261:A 19.4973 
*END

*D_NET *909 0.000106793
*CONN
*I *5232:A I *D sky130_fd_sc_hd__inv_1
*I *5261:Y O *D sky130_fd_sc_hd__inv_1
*CAP
1 *5232:A 5.33963e-05
2 *5261:Y 5.33963e-05
*RES
1 *5261:Y *5232:A 19.4973 
*END

*D_NET *910 0.000884834
*CONN
*I *4397:A0 I *D sky130_fd_sc_hd__mux4_2
*I *5262:X O *D sky130_fd_sc_hd__buf_1
*CAP
1 *4397:A0 0.000298903
2 *5262:X 0.000298903
3 *4397:A0 *4397:A1 0.000187042
4 *4399:A2 *4397:A0 9.99853e-05
*RES
1 *5262:X *4397:A0 24.0821 
*END

*D_NET *911 0.00168115
*CONN
*I *5295:A I *D sky130_fd_sc_hd__nand2_1
*I *4372:X O *D sky130_fd_sc_hd__and3_2
*CAP
1 *5295:A 0.000678564
2 *4372:X 0.000678564
3 *5295:A *5279:A 5.58631e-05
4 *5295:A *5280:A 0.000166615
5 *4397:S0 *5295:A 0
6 *4397:S1 *5295:A 0.000101545
*RES
1 *4372:X *5295:A 37.4214 
*END

*D_NET *912 0.000883122
*CONN
*I *5274:A I *D sky130_fd_sc_hd__inv_1
*I *5295:Y O *D sky130_fd_sc_hd__nand2_1
*CAP
1 *5274:A 0.000370122
2 *5295:Y 0.000370122
3 *5274:A *5278:A 6.05161e-06
4 *5274:A *5279:A 3.14645e-05
5 *5274:A *5280:A 0
6 *5274:A *5282:A 0
7 *5274:A *5286:A 7.1132e-05
8 *5274:A *5295:B 3.42301e-05
*RES
1 *5295:Y *5274:A 32.9705 
*END

*D_NET *913 0.00027441
*CONN
*I *5265:A I *D sky130_fd_sc_hd__inv_1
*I *5264:Y O *D sky130_fd_sc_hd__inv_1
*CAP
1 *5265:A 6.48187e-05
2 *5264:Y 6.48187e-05
3 *5265:A *5266:A 0.000144773
*RES
1 *5264:Y *5265:A 20.2741 
*END

*D_NET *914 0.000593803
*CONN
*I *5266:A I *D sky130_fd_sc_hd__inv_1
*I *5265:Y O *D sky130_fd_sc_hd__inv_1
*CAP
1 *5266:A 0.000175794
2 *5265:Y 0.000175794
3 *5266:A *5264:A 3.00023e-05
4 *5266:A *5267:A 6.74397e-05
5 *5266:A *5275:A 0
6 *5265:A *5266:A 0.000144773
*RES
1 *5265:Y *5266:A 22.4884 
*END

*D_NET *915 0.000438242
*CONN
*I *5267:A I *D sky130_fd_sc_hd__inv_1
*I *5266:Y O *D sky130_fd_sc_hd__inv_1
*CAP
1 *5267:A 0.000185401
2 *5266:Y 0.000185401
3 *5266:A *5267:A 6.74397e-05
*RES
1 *5266:Y *5267:A 30.667 
*END

*D_NET *916 0.000106793
*CONN
*I *5268:A I *D sky130_fd_sc_hd__inv_1
*I *5267:Y O *D sky130_fd_sc_hd__inv_1
*CAP
1 *5268:A 5.33963e-05
2 *5267:Y 5.33963e-05
*RES
1 *5267:Y *5268:A 19.4973 
*END

*D_NET *917 0.000106793
*CONN
*I *5269:A I *D sky130_fd_sc_hd__inv_1
*I *5268:Y O *D sky130_fd_sc_hd__inv_1
*CAP
1 *5269:A 5.33963e-05
2 *5268:Y 5.33963e-05
*RES
1 *5268:Y *5269:A 19.4973 
*END

*D_NET *918 0.00105864
*CONN
*I *5270:A I *D sky130_fd_sc_hd__inv_1
*I *5294:A I *D sky130_fd_sc_hd__buf_1
*I *5269:Y O *D sky130_fd_sc_hd__inv_1
*CAP
1 *5270:A 0.000132699
2 *5294:A 0.000139473
3 *5269:Y 0.000154353
4 *918:6 0.000426525
5 *5270:A *5271:A 0.0001107
6 *5270:A *5272:A 2.97264e-05
7 *5270:A *5273:A 2.23782e-05
8 *918:6 *5271:A 2.01975e-05
9 *918:6 *5272:A 2.25918e-05
*RES
1 *5269:Y *918:6 11.2732 
2 *918:6 *5294:A 20.2464 
3 *918:6 *5270:A 12.5366 
*END

*D_NET *919 0.000577159
*CONN
*I *5271:A I *D sky130_fd_sc_hd__inv_1
*I *5270:Y O *D sky130_fd_sc_hd__inv_1
*CAP
1 *5271:A 0.000125488
2 *5270:Y 0.000125488
3 *5271:A *5272:A 9.48112e-05
4 *5271:A *5273:A 0.000100474
5 *5270:A *5271:A 0.0001107
6 *918:6 *5271:A 2.01975e-05
*RES
1 *5270:Y *5271:A 22.1045 
*END

*D_NET *920 0.000182415
*CONN
*I *5272:A I *D sky130_fd_sc_hd__inv_1
*I *5271:Y O *D sky130_fd_sc_hd__inv_1
*CAP
1 *5272:A 1.76427e-05
2 *5271:Y 1.76427e-05
3 *5270:A *5272:A 2.97264e-05
4 *5271:A *5272:A 9.48112e-05
5 *918:6 *5272:A 2.25918e-05
*RES
1 *5271:Y *5272:A 19.4973 
*END

*D_NET *921 0.000752076
*CONN
*I *5273:A I *D sky130_fd_sc_hd__inv_1
*I *5272:Y O *D sky130_fd_sc_hd__inv_1
*CAP
1 *5273:A 0.000314612
2 *5272:Y 0.000314612
3 *4397:S1 *5273:A 0
4 *5270:A *5273:A 2.23782e-05
5 *5271:A *5273:A 0.000100474
*RES
1 *5272:Y *5273:A 31.908 
*END

*D_NET *922 0.000741379
*CONN
*I *5275:A I *D sky130_fd_sc_hd__inv_1
*I *5273:Y O *D sky130_fd_sc_hd__inv_1
*CAP
1 *5275:A 0.000256132
2 *5273:Y 0.000256132
3 *5275:A *5276:A 9.47974e-05
4 *5275:A *5277:A 0.000134318
5 *5266:A *5275:A 0
*RES
1 *5273:Y *5275:A 23.3366 
*END

*D_NET *923 0.00016461
*CONN
*I *5285:A I *D sky130_fd_sc_hd__inv_1
*I *5274:Y O *D sky130_fd_sc_hd__inv_1
*CAP
1 *5285:A 8.2305e-05
2 *5274:Y 8.2305e-05
*RES
1 *5274:Y *5285:A 19.908 
*END

*D_NET *924 0.000157494
*CONN
*I *5276:A I *D sky130_fd_sc_hd__inv_1
*I *5275:Y O *D sky130_fd_sc_hd__inv_1
*CAP
1 *5276:A 3.13485e-05
2 *5275:Y 3.13485e-05
3 *5275:A *5276:A 9.47974e-05
*RES
1 *5275:Y *5276:A 19.4973 
*END

*D_NET *925 0.000223173
*CONN
*I *5277:A I *D sky130_fd_sc_hd__inv_1
*I *5276:Y O *D sky130_fd_sc_hd__inv_1
*CAP
1 *5277:A 3.75278e-05
2 *5276:Y 3.75278e-05
3 *5277:A *5278:A 1.37993e-05
4 *5275:A *5277:A 0.000134318
*RES
1 *5276:Y *5277:A 19.8634 
*END

*D_NET *926 0.000336263
*CONN
*I *5278:A I *D sky130_fd_sc_hd__inv_1
*I *5277:Y O *D sky130_fd_sc_hd__inv_1
*CAP
1 *5278:A 0.000155517
2 *5277:Y 0.000155517
3 *5278:A *5295:B 5.37741e-06
4 *5274:A *5278:A 6.05161e-06
5 *5277:A *5278:A 1.37993e-05
*RES
1 *5277:Y *5278:A 30.1134 
*END

*D_NET *927 0.000390249
*CONN
*I *5279:A I *D sky130_fd_sc_hd__inv_1
*I *5278:Y O *D sky130_fd_sc_hd__inv_1
*CAP
1 *5279:A 0.000151461
2 *5278:Y 0.000151461
3 *5274:A *5279:A 3.14645e-05
4 *5295:A *5279:A 5.58631e-05
*RES
1 *5278:Y *5279:A 21.5866 
*END

*D_NET *928 0.000746115
*CONN
*I *5280:A I *D sky130_fd_sc_hd__inv_1
*I *5279:Y O *D sky130_fd_sc_hd__inv_1
*CAP
1 *5280:A 0.000218566
2 *5279:Y 0.000218566
3 *5280:A *5281:A 9.75337e-06
4 *5280:A *5282:A 4.46186e-06
5 *5280:A *5295:B 0
6 *4397:S1 *5280:A 0.000128154
7 *5274:A *5280:A 0
8 *5295:A *5280:A 0.000166615
*RES
1 *5279:Y *5280:A 31.4527 
*END

*D_NET *929 0.000793055
*CONN
*I *5281:A I *D sky130_fd_sc_hd__inv_1
*I *5280:Y O *D sky130_fd_sc_hd__inv_1
*CAP
1 *5281:A 0.000188242
2 *5280:Y 0.000188242
3 *5281:A *5282:A 0.000121715
4 *4397:S1 *5281:A 7.80929e-05
5 *4623:A *5281:A 0.000197761
6 *4963:A *5281:A 9.25014e-06
7 *5280:A *5281:A 9.75337e-06
*RES
1 *5280:Y *5281:A 32.167 
*END

*D_NET *930 0.000529345
*CONN
*I *5282:A I *D sky130_fd_sc_hd__inv_1
*I *5281:Y O *D sky130_fd_sc_hd__inv_1
*CAP
1 *5282:A 0.000189056
2 *5281:Y 0.000189056
3 *4397:S1 *5282:A 2.50556e-05
4 *5274:A *5282:A 0
5 *5280:A *5282:A 4.46186e-06
6 *5281:A *5282:A 0.000121715
*RES
1 *5281:Y *5282:A 30.9348 
*END

*D_NET *931 0.00050574
*CONN
*I *5283:A I *D sky130_fd_sc_hd__inv_1
*I *5282:Y O *D sky130_fd_sc_hd__inv_1
*CAP
1 *5283:A 0.000190014
2 *5282:Y 0.000190014
3 *5283:A *5284:A 7.27934e-05
4 *5283:A *5286:A 5.29182e-05
*RES
1 *5282:Y *5283:A 22.408 
*END

*D_NET *932 0.000231027
*CONN
*I *5284:A I *D sky130_fd_sc_hd__inv_1
*I *5283:Y O *D sky130_fd_sc_hd__inv_1
*CAP
1 *5284:A 2.9124e-05
2 *5283:Y 2.9124e-05
3 *5284:A *5286:A 9.99853e-05
4 *5283:A *5284:A 7.27934e-05
*RES
1 *5283:Y *5284:A 19.8634 
*END

*D_NET *933 0.000598442
*CONN
*I *5286:A I *D sky130_fd_sc_hd__inv_1
*I *5284:Y O *D sky130_fd_sc_hd__inv_1
*CAP
1 *5286:A 0.000133532
2 *5284:Y 0.000133532
3 *5286:A *5295:B 0.000107342
4 *5274:A *5286:A 7.1132e-05
5 *5283:A *5286:A 5.29182e-05
6 *5284:A *5286:A 9.99853e-05
*RES
1 *5284:Y *5286:A 22.0777 
*END

*D_NET *934 0.000155673
*CONN
*I *5287:A I *D sky130_fd_sc_hd__inv_1
*I *5285:Y O *D sky130_fd_sc_hd__inv_1
*CAP
1 *5287:A 7.78365e-05
2 *5285:Y 7.78365e-05
*RES
1 *5285:Y *5287:A 19.908 
*END

*D_NET *935 0.000530599
*CONN
*I *5295:B I *D sky130_fd_sc_hd__nand2_1
*I *5286:Y O *D sky130_fd_sc_hd__inv_1
*CAP
1 *5295:B 0.000191825
2 *5286:Y 0.000191825
3 *4397:S1 *5295:B 0
4 *5274:A *5295:B 3.42301e-05
5 *5278:A *5295:B 5.37741e-06
6 *5280:A *5295:B 0
7 *5286:A *5295:B 0.000107342
*RES
1 *5286:Y *5295:B 30.3946 
*END

*D_NET *936 0.000253433
*CONN
*I *5288:A I *D sky130_fd_sc_hd__inv_1
*I *5287:Y O *D sky130_fd_sc_hd__inv_1
*CAP
1 *5288:A 0.000126717
2 *5287:Y 0.000126717
*RES
1 *5287:Y *5288:A 20.7295 
*END

*D_NET *937 0.000161347
*CONN
*I *5289:A I *D sky130_fd_sc_hd__inv_1
*I *5288:Y O *D sky130_fd_sc_hd__inv_1
*CAP
1 *5289:A 7.23309e-05
2 *5288:Y 7.23309e-05
3 *5289:A *5290:A 1.66856e-05
*RES
1 *5288:Y *5289:A 19.8634 
*END

*D_NET *938 0.000750674
*CONN
*I *5290:A I *D sky130_fd_sc_hd__inv_1
*I *5289:Y O *D sky130_fd_sc_hd__inv_1
*CAP
1 *5290:A 0.0001984
2 *5289:Y 0.0001984
3 *5290:A *5291:A 0.000134772
4 *5290:A *5292:A 0.000202416
5 *5289:A *5290:A 1.66856e-05
*RES
1 *5289:Y *5290:A 32.283 
*END

*D_NET *939 0.000220337
*CONN
*I *5291:A I *D sky130_fd_sc_hd__inv_1
*I *5290:Y O *D sky130_fd_sc_hd__inv_1
*CAP
1 *5291:A 4.27826e-05
2 *5290:Y 4.27826e-05
3 *5290:A *5291:A 0.000134772
*RES
1 *5290:Y *5291:A 19.8634 
*END

*D_NET *940 0.00055711
*CONN
*I *5292:A I *D sky130_fd_sc_hd__inv_1
*I *5291:Y O *D sky130_fd_sc_hd__inv_1
*CAP
1 *5292:A 0.000177347
2 *5291:Y 0.000177347
3 *5290:A *5292:A 0.000202416
*RES
1 *5291:Y *5292:A 21.5866 
*END

*D_NET *941 0.000163701
*CONN
*I *5293:A I *D sky130_fd_sc_hd__inv_1
*I *5292:Y O *D sky130_fd_sc_hd__inv_1
*CAP
1 *5293:A 6.78524e-05
2 *5292:Y 6.78524e-05
3 *5293:A *5264:A 2.79966e-05
*RES
1 *5292:Y *5293:A 19.8634 
*END

*D_NET *942 0.000436554
*CONN
*I *5264:A I *D sky130_fd_sc_hd__inv_1
*I *5293:Y O *D sky130_fd_sc_hd__inv_1
*CAP
1 *5264:A 0.000189278
2 *5293:Y 0.000189278
3 *5266:A *5264:A 3.00023e-05
4 *5293:A *5264:A 2.79966e-05
*RES
1 *5293:Y *5264:A 30.5688 
*END

*D_NET *943 0.000605031
*CONN
*I *4397:A1 I *D sky130_fd_sc_hd__mux4_2
*I *5294:X O *D sky130_fd_sc_hd__buf_1
*CAP
1 *4397:A1 0.000161032
2 *5294:X 0.000161032
3 *4397:A0 *4397:A1 0.000187042
4 *4399:A2 *4397:A1 9.59253e-05
*RES
1 *5294:X *4397:A1 22.7429 
*END

*D_NET *944 0.000320799
*CONN
*I *5327:A I *D sky130_fd_sc_hd__nand2_1
*I *4408:X O *D sky130_fd_sc_hd__and3_2
*CAP
1 *5327:A 6.61064e-05
2 *4408:X 6.61064e-05
3 *196:48 *5327:A 0.000188586
*RES
1 *4408:X *5327:A 20.3679 
*END

*D_NET *945 0.000458518
*CONN
*I *5306:A I *D sky130_fd_sc_hd__inv_1
*I *5327:Y O *D sky130_fd_sc_hd__nand2_1
*CAP
1 *5306:A 0.000150609
2 *5327:Y 0.000150609
3 *5306:A *5317:A 7.70723e-05
4 *5306:A *5319:A 1.59373e-05
5 *4554:A *5306:A 6.42892e-05
6 *174:28 *5306:A 0
*RES
1 *5327:Y *5306:A 30.8188 
*END

*D_NET *946 0.000591873
*CONN
*I *5297:A I *D sky130_fd_sc_hd__inv_1
*I *5296:Y O *D sky130_fd_sc_hd__inv_1
*CAP
1 *5297:A 0.00019061
2 *5296:Y 0.00019061
3 *5297:A *5296:A 9.51149e-05
4 *5297:A *5325:A 2.82592e-05
5 *4554:A *5297:A 2.01431e-05
6 *167:28 *5297:A 6.71359e-05
*RES
1 *5296:Y *5297:A 21.9527 
*END

*D_NET *947 0.000473555
*CONN
*I *5298:A I *D sky130_fd_sc_hd__inv_1
*I *5297:Y O *D sky130_fd_sc_hd__inv_1
*CAP
1 *5298:A 0.000205163
2 *5297:Y 0.000205163
3 *4554:A *5298:A 3.33238e-05
4 *167:28 *5298:A 0
5 *196:48 *5298:A 2.99061e-05
*RES
1 *5297:Y *5298:A 30.6938 
*END

*D_NET *948 0.000163613
*CONN
*I *5299:A I *D sky130_fd_sc_hd__inv_1
*I *5298:Y O *D sky130_fd_sc_hd__inv_1
*CAP
1 *5299:A 3.41669e-05
2 *5298:Y 3.41669e-05
3 *196:48 *5299:A 9.52792e-05
*RES
1 *5298:Y *5299:A 19.4973 
*END

*D_NET *949 0.00016283
*CONN
*I *5300:A I *D sky130_fd_sc_hd__inv_1
*I *5299:Y O *D sky130_fd_sc_hd__inv_1
*CAP
1 *5300:A 3.3554e-05
2 *5299:Y 3.3554e-05
3 *196:48 *5300:A 9.57215e-05
*RES
1 *5299:Y *5300:A 19.4973 
*END

*D_NET *950 0.00016283
*CONN
*I *5301:A I *D sky130_fd_sc_hd__inv_1
*I *5300:Y O *D sky130_fd_sc_hd__inv_1
*CAP
1 *5301:A 3.3554e-05
2 *5300:Y 3.3554e-05
3 *196:48 *5301:A 9.57215e-05
*RES
1 *5300:Y *5301:A 19.4973 
*END

*D_NET *951 0.000702068
*CONN
*I *5326:A I *D sky130_fd_sc_hd__buf_1
*I *5302:A I *D sky130_fd_sc_hd__inv_1
*I *5301:Y O *D sky130_fd_sc_hd__inv_1
*CAP
1 *5326:A 0
2 *5302:A 2.84011e-05
3 *5301:Y 0.000244161
4 *951:12 0.000272562
5 *951:12 *5422:A 2.8266e-06
6 *4391:A2 *5302:A 7.38151e-05
7 *194:63 *951:12 0
8 *196:48 *951:12 8.03022e-05
*RES
1 *5301:Y *951:12 21.9161 
2 *951:12 *5302:A 9.99196 
3 *951:12 *5326:A 9.3 
*END

*D_NET *952 0.00016283
*CONN
*I *5303:A I *D sky130_fd_sc_hd__inv_1
*I *5302:Y O *D sky130_fd_sc_hd__inv_1
*CAP
1 *5303:A 3.3554e-05
2 *5302:Y 3.3554e-05
3 *4391:A2 *5303:A 9.57215e-05
*RES
1 *5302:Y *5303:A 19.4973 
*END

*D_NET *953 0.00016283
*CONN
*I *5304:A I *D sky130_fd_sc_hd__inv_1
*I *5303:Y O *D sky130_fd_sc_hd__inv_1
*CAP
1 *5304:A 3.3554e-05
2 *5303:Y 3.3554e-05
3 *4391:A2 *5304:A 9.57215e-05
*RES
1 *5303:Y *5304:A 19.4973 
*END

*D_NET *954 0.000303787
*CONN
*I *5305:A I *D sky130_fd_sc_hd__inv_1
*I *5304:Y O *D sky130_fd_sc_hd__inv_1
*CAP
1 *5305:A 6.26008e-05
2 *5304:Y 6.26008e-05
3 *4391:A2 *5305:A 0.000178585
*RES
1 *5304:Y *5305:A 20.2741 
*END

*D_NET *955 0.00049696
*CONN
*I *5307:A I *D sky130_fd_sc_hd__inv_1
*I *5305:Y O *D sky130_fd_sc_hd__inv_1
*CAP
1 *5307:A 0.000195875
2 *5305:Y 0.000195875
3 *115:20 *5307:A 2.80789e-05
4 *179:66 *5307:A 7.71303e-05
*RES
1 *5305:Y *5307:A 30.5688 
*END

*D_NET *956 0.000219174
*CONN
*I *5317:A I *D sky130_fd_sc_hd__inv_1
*I *5306:Y O *D sky130_fd_sc_hd__inv_1
*CAP
1 *5317:A 3.27964e-05
2 *5306:Y 3.27964e-05
3 *5317:A *5319:A 5.61827e-05
4 *4554:A *5317:A 2.03263e-05
5 *5306:A *5317:A 7.70723e-05
*RES
1 *5306:Y *5317:A 19.8634 
*END

*D_NET *957 0.00016283
*CONN
*I *5308:A I *D sky130_fd_sc_hd__inv_1
*I *5307:Y O *D sky130_fd_sc_hd__inv_1
*CAP
1 *5308:A 3.3554e-05
2 *5307:Y 3.3554e-05
3 *115:20 *5308:A 9.57215e-05
*RES
1 *5307:Y *5308:A 19.4973 
*END

*D_NET *958 0.00016283
*CONN
*I *5309:A I *D sky130_fd_sc_hd__inv_1
*I *5308:Y O *D sky130_fd_sc_hd__inv_1
*CAP
1 *5309:A 3.3554e-05
2 *5308:Y 3.3554e-05
3 *115:20 *5309:A 9.57215e-05
*RES
1 *5308:Y *5309:A 19.4973 
*END

*D_NET *959 0.00016283
*CONN
*I *5310:A I *D sky130_fd_sc_hd__inv_1
*I *5309:Y O *D sky130_fd_sc_hd__inv_1
*CAP
1 *5310:A 3.3554e-05
2 *5309:Y 3.3554e-05
3 *115:20 *5310:A 9.57215e-05
*RES
1 *5309:Y *5310:A 19.4973 
*END

*D_NET *960 0.000179438
*CONN
*I *5311:A I *D sky130_fd_sc_hd__inv_1
*I *5310:Y O *D sky130_fd_sc_hd__inv_1
*CAP
1 *5311:A 4.22876e-05
2 *5310:Y 4.22876e-05
3 *115:20 *5311:A 9.48627e-05
*RES
1 *5310:Y *5311:A 19.4973 
*END

*D_NET *961 0.000247354
*CONN
*I *5312:A I *D sky130_fd_sc_hd__inv_1
*I *5311:Y O *D sky130_fd_sc_hd__inv_1
*CAP
1 *5312:A 5.69414e-05
2 *5311:Y 5.69414e-05
3 *115:20 *5312:A 0.000133471
*RES
1 *5311:Y *5312:A 19.8634 
*END

*D_NET *962 0.000401643
*CONN
*I *5313:A I *D sky130_fd_sc_hd__inv_1
*I *5312:Y O *D sky130_fd_sc_hd__inv_1
*CAP
1 *5313:A 0.000171601
2 *5312:Y 0.000171601
3 *4391:A2 *5313:A 2.3541e-05
4 *178:48 *5313:A 3.49005e-05
*RES
1 *5312:Y *5313:A 30.1134 
*END

*D_NET *963 0.000250977
*CONN
*I *5314:A I *D sky130_fd_sc_hd__inv_1
*I *5313:Y O *D sky130_fd_sc_hd__inv_1
*CAP
1 *5314:A 9.89675e-05
2 *5313:Y 9.89675e-05
3 *5314:A *5316:A 0
4 *5314:A *5318:A 0
5 *4391:A2 *5314:A 5.30419e-05
*RES
1 *5313:Y *5314:A 20.3545 
*END

*D_NET *964 0.000163994
*CONN
*I *5315:A I *D sky130_fd_sc_hd__inv_1
*I *5314:Y O *D sky130_fd_sc_hd__inv_1
*CAP
1 *5315:A 3.45982e-05
2 *5314:Y 3.45982e-05
3 *4391:A2 *5315:A 9.47974e-05
*RES
1 *5314:Y *5315:A 19.4973 
*END

*D_NET *965 0.000347518
*CONN
*I *5316:A I *D sky130_fd_sc_hd__inv_1
*I *5315:Y O *D sky130_fd_sc_hd__inv_1
*CAP
1 *5316:A 0.000133387
2 *5315:Y 0.000133387
3 *5316:A *5318:A 2.39415e-05
4 *4391:A2 *5316:A 4.54448e-05
5 *4391:B2 *5316:A 1.13574e-05
6 *5314:A *5316:A 0
*RES
1 *5315:Y *5316:A 20.7116 
*END

*D_NET *966 0.000718189
*CONN
*I *5318:A I *D sky130_fd_sc_hd__inv_1
*I *5316:Y O *D sky130_fd_sc_hd__inv_1
*CAP
1 *5318:A 0.000225562
2 *5316:Y 0.000225562
3 *5318:A *5327:B 0.000110079
4 *4391:A2 *5318:A 3.57462e-05
5 *4391:B2 *5318:A 0
6 *5314:A *5318:A 0
7 *5316:A *5318:A 2.39415e-05
8 *174:28 *5318:A 0
9 *196:48 *5318:A 9.72992e-05
*RES
1 *5316:Y *5318:A 32.2295 
*END

*D_NET *967 0.000764969
*CONN
*I *5319:A I *D sky130_fd_sc_hd__inv_1
*I *5317:Y O *D sky130_fd_sc_hd__inv_1
*CAP
1 *5319:A 0.000317691
2 *5317:Y 0.000317691
3 *5319:A *5321:A 1.37411e-05
4 *5319:A *5323:A 3.42301e-05
5 *4554:A *5319:A 9.49691e-06
6 *5306:A *5319:A 1.59373e-05
7 *5317:A *5319:A 5.61827e-05
*RES
1 *5317:Y *5319:A 31.908 
*END

*D_NET *968 0.000295389
*CONN
*I *5327:B I *D sky130_fd_sc_hd__nand2_1
*I *5318:Y O *D sky130_fd_sc_hd__inv_1
*CAP
1 *5327:B 9.26551e-05
2 *5318:Y 9.26551e-05
3 *5318:A *5327:B 0.000110079
4 *174:28 *5327:B 0
*RES
1 *5318:Y *5327:B 29.0732 
*END

*D_NET *969 0.000164016
*CONN
*I *5320:A I *D sky130_fd_sc_hd__inv_1
*I *5319:Y O *D sky130_fd_sc_hd__inv_1
*CAP
1 *5320:A 5.4684e-05
2 *5319:Y 5.4684e-05
3 *5320:A *5321:A 5.46475e-05
*RES
1 *5319:Y *5320:A 19.8634 
*END

*D_NET *970 0.000479894
*CONN
*I *5321:A I *D sky130_fd_sc_hd__inv_1
*I *5320:Y O *D sky130_fd_sc_hd__inv_1
*CAP
1 *5321:A 0.000205753
2 *5320:Y 0.000205753
3 *5319:A *5321:A 1.37411e-05
4 *5320:A *5321:A 5.46475e-05
*RES
1 *5320:Y *5321:A 21.5866 
*END

*D_NET *971 0.000165936
*CONN
*I *5322:A I *D sky130_fd_sc_hd__inv_1
*I *5321:Y O *D sky130_fd_sc_hd__inv_1
*CAP
1 *5322:A 5.61043e-05
2 *5321:Y 5.61043e-05
3 *5322:A *5323:A 5.37273e-05
*RES
1 *5321:Y *5322:A 19.8634 
*END

*D_NET *972 0.000503453
*CONN
*I *5323:A I *D sky130_fd_sc_hd__inv_1
*I *5322:Y O *D sky130_fd_sc_hd__inv_1
*CAP
1 *5323:A 0.000202291
2 *5322:Y 0.000202291
3 *4554:A *5323:A 1.09136e-05
4 *5319:A *5323:A 3.42301e-05
5 *5322:A *5323:A 5.37273e-05
*RES
1 *5322:Y *5323:A 30.6759 
*END

*D_NET *973 0.000113565
*CONN
*I *5324:A I *D sky130_fd_sc_hd__inv_1
*I *5323:Y O *D sky130_fd_sc_hd__inv_1
*CAP
1 *5324:A 3.93725e-05
2 *5323:Y 3.93725e-05
3 *4554:A *5324:A 3.48196e-05
*RES
1 *5323:Y *5324:A 19.4973 
*END

*D_NET *974 0.00063002
*CONN
*I *5325:A I *D sky130_fd_sc_hd__inv_1
*I *5324:Y O *D sky130_fd_sc_hd__inv_1
*CAP
1 *5325:A 0.000108273
2 *5324:Y 0.000108273
3 *5325:A *5296:A 7.04257e-05
4 *4554:A *5325:A 0.00031479
5 *5297:A *5325:A 2.82592e-05
*RES
1 *5324:Y *5325:A 22.4348 
*END

*D_NET *975 0.000265358
*CONN
*I *5296:A I *D sky130_fd_sc_hd__inv_1
*I *5325:Y O *D sky130_fd_sc_hd__inv_1
*CAP
1 *5296:A 4.9909e-05
2 *5325:Y 4.9909e-05
3 *5297:A *5296:A 9.51149e-05
4 *5325:A *5296:A 7.04257e-05
*RES
1 *5325:Y *5296:A 20.417 
*END

*D_NET *976 0.000578023
*CONN
*I *4389:A2 I *D sky130_fd_sc_hd__mux4_2
*I *5326:X O *D sky130_fd_sc_hd__buf_1
*CAP
1 *4389:A2 0.000109571
2 *5326:X 0.000109571
3 *4389:A2 *4389:A3 0.000142856
4 *4391:A2 *4389:A2 0.000216026
*RES
1 *5326:X *4389:A2 21.6179 
*END

*D_NET *977 0.000317438
*CONN
*I *5359:A I *D sky130_fd_sc_hd__nand2_1
*I *4374:X O *D sky130_fd_sc_hd__and3_2
*CAP
1 *5359:A 7.56764e-05
2 *4374:X 7.56764e-05
3 *5359:A *5338:A 3.93346e-05
4 *4424:B *5359:A 9.90367e-05
5 *176:22 *5359:A 2.77143e-05
*RES
1 *4374:X *5359:A 20.8143 
*END

*D_NET *978 0.000258371
*CONN
*I *5338:A I *D sky130_fd_sc_hd__inv_1
*I *5359:Y O *D sky130_fd_sc_hd__nand2_1
*CAP
1 *5338:A 5.53492e-05
2 *5359:Y 5.53492e-05
3 *5359:A *5338:A 3.93346e-05
4 *176:22 *5338:A 0.000108338
*RES
1 *5359:Y *5338:A 20.2563 
*END

*D_NET *979 0.000174798
*CONN
*I *5329:A I *D sky130_fd_sc_hd__inv_1
*I *5328:Y O *D sky130_fd_sc_hd__inv_1
*CAP
1 *5329:A 1.2849e-05
2 *5328:Y 1.2849e-05
3 *4403:A *5329:A 9.57215e-05
4 *177:38 *5329:A 5.33783e-05
*RES
1 *5328:Y *5329:A 19.4973 
*END

*D_NET *980 0.000174798
*CONN
*I *5330:A I *D sky130_fd_sc_hd__inv_1
*I *5329:Y O *D sky130_fd_sc_hd__inv_1
*CAP
1 *5330:A 1.2849e-05
2 *5329:Y 1.2849e-05
3 *4403:A *5330:A 9.57215e-05
4 *177:38 *5330:A 5.33783e-05
*RES
1 *5329:Y *5330:A 19.4973 
*END

*D_NET *981 0.000212531
*CONN
*I *5331:A I *D sky130_fd_sc_hd__inv_1
*I *5330:Y O *D sky130_fd_sc_hd__inv_1
*CAP
1 *5331:A 1.05439e-05
2 *5330:Y 1.05439e-05
3 *4403:A *5331:A 9.57215e-05
4 *177:38 *5331:A 9.57215e-05
*RES
1 *5330:Y *5331:A 19.4973 
*END

*D_NET *982 0.000299235
*CONN
*I *5332:A I *D sky130_fd_sc_hd__inv_1
*I *5331:Y O *D sky130_fd_sc_hd__inv_1
*CAP
1 *5332:A 1.48454e-05
2 *5331:Y 1.48454e-05
3 *4403:A *5332:A 0.000134772
4 *177:38 *5332:A 0.000134772
*RES
1 *5331:Y *5332:A 19.8634 
*END

*D_NET *983 0.000788485
*CONN
*I *5333:A I *D sky130_fd_sc_hd__inv_1
*I *5332:Y O *D sky130_fd_sc_hd__inv_1
*CAP
1 *5333:A 0.000274707
2 *5332:Y 0.000274707
3 *5333:A *5358:A 1.37644e-05
4 *4424:C *5333:A 0
5 *4425:A *5333:A 0
6 *176:22 *5333:A 1.67305e-05
7 *177:38 *5333:A 0.000208575
*RES
1 *5332:Y *5333:A 31.4973 
*END

*D_NET *984 0.00474846
*CONN
*I *5358:A I *D sky130_fd_sc_hd__buf_1
*I *5334:A I *D sky130_fd_sc_hd__inv_1
*I *5333:Y O *D sky130_fd_sc_hd__inv_1
*CAP
1 *5358:A 0.00156812
2 *5334:A 0.000130773
3 *5333:Y 0
4 *984:4 0.00169889
5 *5358:A *5390:A 0.00012401
6 *5358:A *1017:10 9.25014e-06
7 *4370:C *5358:A 0.000180777
8 *4922:A *5358:A 0.000107312
9 *4933:A *5358:A 5.33783e-05
10 *4934:A *5358:A 8.86533e-05
11 *4935:A *5358:A 5.33783e-05
12 *4943:A *5358:A 1.02936e-05
13 *4943:B *5358:A 0.000135128
14 *5333:A *5358:A 1.37644e-05
15 *101:12 *5358:A 6.42338e-05
16 *176:16 *5358:A 5.33005e-05
17 *176:22 *5334:A 0.000124123
18 *176:22 *5358:A 0.00033307
*RES
1 *5333:Y *984:4 9.3 
2 *984:4 *5334:A 12.2866 
3 *984:4 *5358:A 40.3982 
*END

*D_NET *985 0.000182926
*CONN
*I *5335:A I *D sky130_fd_sc_hd__inv_1
*I *5334:Y O *D sky130_fd_sc_hd__inv_1
*CAP
1 *5335:A 5.29535e-05
2 *5334:Y 5.29535e-05
3 *176:22 *5335:A 7.70192e-05
*RES
1 *5334:Y *5335:A 19.908 
*END

*D_NET *986 0.000126309
*CONN
*I *5336:A I *D sky130_fd_sc_hd__inv_1
*I *5335:Y O *D sky130_fd_sc_hd__inv_1
*CAP
1 *5336:A 3.73036e-05
2 *5335:Y 3.73036e-05
3 *176:22 *5336:A 5.17013e-05
*RES
1 *5335:Y *5336:A 19.4973 
*END

*D_NET *987 0.000371692
*CONN
*I *5337:A I *D sky130_fd_sc_hd__inv_1
*I *5336:Y O *D sky130_fd_sc_hd__inv_1
*CAP
1 *5337:A 0.000156718
2 *5336:Y 0.000156718
3 *4424:C *5337:A 2.49963e-05
4 *176:22 *5337:A 3.32595e-05
*RES
1 *5336:Y *5337:A 30.1134 
*END

*D_NET *988 0.000218361
*CONN
*I *5339:A I *D sky130_fd_sc_hd__inv_1
*I *5337:Y O *D sky130_fd_sc_hd__inv_1
*CAP
1 *5339:A 8.2371e-05
2 *5337:Y 8.2371e-05
3 *4424:C *5339:A 5.36186e-05
*RES
1 *5337:Y *5339:A 20.3545 
*END

*D_NET *989 0.000125096
*CONN
*I *5349:A I *D sky130_fd_sc_hd__inv_1
*I *5338:Y O *D sky130_fd_sc_hd__inv_1
*CAP
1 *5349:A 3.58591e-05
2 *5338:Y 3.58591e-05
3 *176:22 *5349:A 5.33783e-05
*RES
1 *5338:Y *5349:A 19.4973 
*END

*D_NET *990 0.000157494
*CONN
*I *5340:A I *D sky130_fd_sc_hd__inv_1
*I *5339:Y O *D sky130_fd_sc_hd__inv_1
*CAP
1 *5340:A 3.13485e-05
2 *5339:Y 3.13485e-05
3 *4424:C *5340:A 9.47974e-05
*RES
1 *5339:Y *5340:A 19.4973 
*END

*D_NET *991 0.000323823
*CONN
*I *5341:A I *D sky130_fd_sc_hd__inv_1
*I *5340:Y O *D sky130_fd_sc_hd__inv_1
*CAP
1 *5341:A 0.000145282
2 *5340:Y 0.000145282
3 *4424:C *5341:A 3.32595e-05
4 *4911:A *5341:A 0
*RES
1 *5340:Y *5341:A 29.8545 
*END

*D_NET *992 0.000106793
*CONN
*I *5342:A I *D sky130_fd_sc_hd__inv_1
*I *5341:Y O *D sky130_fd_sc_hd__inv_1
*CAP
1 *5342:A 5.33963e-05
2 *5341:Y 5.33963e-05
*RES
1 *5341:Y *5342:A 19.4973 
*END

*D_NET *993 0.000106793
*CONN
*I *5343:A I *D sky130_fd_sc_hd__inv_1
*I *5342:Y O *D sky130_fd_sc_hd__inv_1
*CAP
1 *5343:A 5.33963e-05
2 *5342:Y 5.33963e-05
*RES
1 *5342:Y *5343:A 19.4973 
*END

*D_NET *994 0.000123347
*CONN
*I *5344:A I *D sky130_fd_sc_hd__inv_1
*I *5343:Y O *D sky130_fd_sc_hd__inv_1
*CAP
1 *5344:A 6.16736e-05
2 *5343:Y 6.16736e-05
*RES
1 *5343:Y *5344:A 19.4973 
*END

*D_NET *995 0.000106793
*CONN
*I *5345:A I *D sky130_fd_sc_hd__inv_1
*I *5344:Y O *D sky130_fd_sc_hd__inv_1
*CAP
1 *5345:A 5.33963e-05
2 *5344:Y 5.33963e-05
*RES
1 *5344:Y *5345:A 19.4973 
*END

*D_NET *996 0.000106793
*CONN
*I *5346:A I *D sky130_fd_sc_hd__inv_1
*I *5345:Y O *D sky130_fd_sc_hd__inv_1
*CAP
1 *5346:A 5.33963e-05
2 *5345:Y 5.33963e-05
*RES
1 *5345:Y *5346:A 19.4973 
*END

*D_NET *997 0.000106793
*CONN
*I *5347:A I *D sky130_fd_sc_hd__inv_1
*I *5346:Y O *D sky130_fd_sc_hd__inv_1
*CAP
1 *5347:A 5.33963e-05
2 *5346:Y 5.33963e-05
*RES
1 *5346:Y *5347:A 19.4973 
*END

*D_NET *998 0.00054128
*CONN
*I *5348:A I *D sky130_fd_sc_hd__inv_1
*I *5347:Y O *D sky130_fd_sc_hd__inv_1
*CAP
1 *5348:A 0.000256598
2 *5347:Y 0.000256598
3 *4426:A *5348:A 2.80853e-05
4 *5007:A *5348:A 0
*RES
1 *5347:Y *5348:A 31.0866 
*END

*D_NET *999 0.000156494
*CONN
*I *5350:A I *D sky130_fd_sc_hd__inv_1
*I *5348:Y O *D sky130_fd_sc_hd__inv_1
*CAP
1 *5350:A 3.03862e-05
2 *5348:Y 3.03862e-05
3 *4426:A *5350:A 9.57215e-05
*RES
1 *5348:Y *5350:A 19.4973 
*END

*D_NET *1000 0.000125096
*CONN
*I *5351:A I *D sky130_fd_sc_hd__inv_1
*I *5349:Y O *D sky130_fd_sc_hd__inv_1
*CAP
1 *5351:A 3.58591e-05
2 *5349:Y 3.58591e-05
3 *176:22 *5351:A 5.33783e-05
*RES
1 *5349:Y *5351:A 19.4973 
*END

*D_NET *1001 0.000569424
*CONN
*I *5359:B I *D sky130_fd_sc_hd__nand2_1
*I *5350:Y O *D sky130_fd_sc_hd__inv_1
*CAP
1 *5359:B 0.000152881
2 *5350:Y 0.000152881
3 *4424:A *5359:B 2.72967e-05
4 *4424:B *5359:B 0.000150625
5 *4426:A *5359:B 7.40303e-06
6 *177:16 *5359:B 7.83366e-05
*RES
1 *5350:Y *5359:B 30.6982 
*END

*D_NET *1002 0.000125096
*CONN
*I *5352:A I *D sky130_fd_sc_hd__inv_1
*I *5351:Y O *D sky130_fd_sc_hd__inv_1
*CAP
1 *5352:A 3.58591e-05
2 *5351:Y 3.58591e-05
3 *176:22 *5352:A 5.33783e-05
*RES
1 *5351:Y *5352:A 19.4973 
*END

*D_NET *1003 0.000421259
*CONN
*I *5353:A I *D sky130_fd_sc_hd__inv_1
*I *5352:Y O *D sky130_fd_sc_hd__inv_1
*CAP
1 *5353:A 0.000150247
2 *5352:Y 0.000150247
3 *4403:A *5353:A 7.18982e-05
4 *176:22 *5353:A 1.06618e-05
5 *177:38 *5353:A 3.82062e-05
*RES
1 *5352:Y *5353:A 30.2652 
*END

*D_NET *1004 0.000176603
*CONN
*I *5354:A I *D sky130_fd_sc_hd__inv_1
*I *5353:Y O *D sky130_fd_sc_hd__inv_1
*CAP
1 *5354:A 1.49615e-05
2 *5353:Y 1.49615e-05
3 *4403:A *5354:A 9.48618e-05
4 *177:38 *5354:A 5.18181e-05
*RES
1 *5353:Y *5354:A 19.4973 
*END

*D_NET *1005 0.000176738
*CONN
*I *5355:A I *D sky130_fd_sc_hd__inv_1
*I *5354:Y O *D sky130_fd_sc_hd__inv_1
*CAP
1 *5355:A 1.51196e-05
2 *5354:Y 1.51196e-05
3 *4403:A *5355:A 9.47974e-05
4 *177:38 *5355:A 5.17013e-05
*RES
1 *5354:Y *5355:A 19.4973 
*END

*D_NET *1006 0.000176847
*CONN
*I *5356:A I *D sky130_fd_sc_hd__inv_1
*I *5355:Y O *D sky130_fd_sc_hd__inv_1
*CAP
1 *5356:A 1.52423e-05
2 *5355:Y 1.52423e-05
3 *4403:A *5356:A 9.47974e-05
4 *177:38 *5356:A 5.15647e-05
*RES
1 *5355:Y *5356:A 19.4973 
*END

*D_NET *1007 0.000178208
*CONN
*I *5357:A I *D sky130_fd_sc_hd__inv_1
*I *5356:Y O *D sky130_fd_sc_hd__inv_1
*CAP
1 *5357:A 1.67814e-05
2 *5356:Y 1.67814e-05
3 *4403:A *5357:A 9.47974e-05
4 *177:38 *5357:A 4.9848e-05
*RES
1 *5356:Y *5357:A 19.4973 
*END

*D_NET *1008 0.000174931
*CONN
*I *5328:A I *D sky130_fd_sc_hd__inv_1
*I *5357:Y O *D sky130_fd_sc_hd__inv_1
*CAP
1 *5328:A 1.30049e-05
2 *5357:Y 1.30049e-05
3 *4403:A *5328:A 9.56581e-05
4 *177:38 *5328:A 5.32631e-05
*RES
1 *5357:Y *5328:A 19.4973 
*END

*D_NET *1009 0.000328229
*CONN
*I *4397:A2 I *D sky130_fd_sc_hd__mux4_2
*I *5358:X O *D sky130_fd_sc_hd__buf_1
*CAP
1 *4397:A2 9.26863e-05
2 *5358:X 9.26863e-05
3 *4399:A2 *4397:A2 0.000142856
*RES
1 *5358:X *4397:A2 19.9571 
*END

*D_NET *1010 0.000467852
*CONN
*I *5391:A I *D sky130_fd_sc_hd__nand2_1
*I *4375:X O *D sky130_fd_sc_hd__and3_2
*CAP
1 *5391:A 0.000137428
2 *4375:X 0.000137428
3 *5391:A *5382:A 6.48573e-05
4 *5391:A *5391:B 7.90536e-05
5 *100:35 *5391:A 4.9084e-05
*RES
1 *4375:X *5391:A 22.0464 
*END

*D_NET *1011 0.000322553
*CONN
*I *5370:A I *D sky130_fd_sc_hd__inv_1
*I *5391:Y O *D sky130_fd_sc_hd__nand2_1
*CAP
1 *5370:A 0.000142173
2 *5391:Y 0.000142173
3 *5370:A *5381:A 0
4 *4409:C *5370:A 3.82062e-05
5 *115:75 *5370:A 0
6 *194:63 *5370:A 0
*RES
1 *5391:Y *5370:A 30.2384 
*END

*D_NET *1012 0.000164013
*CONN
*I *5361:A I *D sky130_fd_sc_hd__inv_1
*I *5360:Y O *D sky130_fd_sc_hd__inv_1
*CAP
1 *5361:A 5.41977e-05
2 *5360:Y 5.41977e-05
3 *5361:A *5362:A 5.56173e-05
*RES
1 *5360:Y *5361:A 19.8634 
*END

*D_NET *1013 0.000546445
*CONN
*I *5362:A I *D sky130_fd_sc_hd__inv_1
*I *5361:Y O *D sky130_fd_sc_hd__inv_1
*CAP
1 *5362:A 0.000172184
2 *5361:Y 0.000172184
3 *5362:A *5365:A 1.65921e-05
4 *4397:S0 *5362:A 0.000129868
5 *4397:S1 *5362:A 0
6 *5361:A *5362:A 5.56173e-05
*RES
1 *5361:Y *5362:A 30.6759 
*END

*D_NET *1014 0.000968265
*CONN
*I *5363:A I *D sky130_fd_sc_hd__inv_1
*I *5362:Y O *D sky130_fd_sc_hd__inv_1
*CAP
1 *5363:A 0.000128533
2 *5362:Y 0.000128533
3 *5363:A *5365:A 9.90143e-06
4 *4397:S0 *5363:A 0.000354665
5 *101:12 *5363:A 0.000346632
*RES
1 *5362:Y *5363:A 32.542 
*END

*D_NET *1015 0.000924609
*CONN
*I *5364:A I *D sky130_fd_sc_hd__inv_1
*I *5363:Y O *D sky130_fd_sc_hd__inv_1
*CAP
1 *5364:A 0.000224963
2 *5363:Y 0.000224963
3 *5364:A *5388:A 7.92879e-05
4 *5364:A *1017:10 1.00442e-05
5 *4397:S0 *5364:A 5.53716e-06
6 *4423:B *5364:A 6.39262e-05
7 *101:12 *5364:A 0.000315887
*RES
1 *5363:Y *5364:A 32.6491 
*END

*D_NET *1016 0.000518733
*CONN
*I *5365:A I *D sky130_fd_sc_hd__inv_1
*I *5364:Y O *D sky130_fd_sc_hd__inv_1
*CAP
1 *5365:A 0.000139458
2 *5364:Y 0.000139458
3 *5365:A *1017:10 0.000213324
4 *5362:A *5365:A 1.65921e-05
5 *5363:A *5365:A 9.90143e-06
*RES
1 *5364:Y *5365:A 21.9527 
*END

*D_NET *1017 0.0019606
*CONN
*I *5366:A I *D sky130_fd_sc_hd__inv_1
*I *5390:A I *D sky130_fd_sc_hd__buf_1
*I *5365:Y O *D sky130_fd_sc_hd__inv_1
*CAP
1 *5366:A 8.90036e-06
2 *5390:A 0.000109199
3 *5365:Y 0.000305962
4 *1017:10 0.000424061
5 *4370:C *5390:A 0.000140933
6 *4398:S0 *5366:A 2.79827e-05
7 *4399:A2 *5366:A 2.79827e-05
8 *4422:B *5390:A 9.69119e-06
9 *4423:B *5390:A 0.000172375
10 *4423:B *1017:10 0.00013966
11 *5263:A *5390:A 0.000185643
12 *5358:A *5390:A 0.00012401
13 *5358:A *1017:10 9.25014e-06
14 *5364:A *1017:10 1.00442e-05
15 *5365:A *1017:10 0.000213324
16 *101:12 *5390:A 4.038e-06
17 *101:12 *1017:10 4.75428e-05
*RES
1 *5365:Y *1017:10 18.9518 
2 *1017:10 *5390:A 17.8179 
3 *1017:10 *5366:A 14.0813 
*END

*D_NET *1018 0.000633399
*CONN
*I *5367:A I *D sky130_fd_sc_hd__inv_1
*I *5366:Y O *D sky130_fd_sc_hd__inv_1
*CAP
1 *5367:A 0.00015503
2 *5366:Y 0.00015503
3 *4398:S0 *5367:A 1.89596e-05
4 *4423:B *5367:A 0.000151333
5 *100:12 *5367:A 0.000153047
*RES
1 *5366:Y *5367:A 30.9795 
*END

*D_NET *1019 0.000106793
*CONN
*I *5368:A I *D sky130_fd_sc_hd__inv_1
*I *5367:Y O *D sky130_fd_sc_hd__inv_1
*CAP
1 *5368:A 5.33963e-05
2 *5367:Y 5.33963e-05
*RES
1 *5367:Y *5368:A 19.4973 
*END

*D_NET *1020 0.000106793
*CONN
*I *5369:A I *D sky130_fd_sc_hd__inv_1
*I *5368:Y O *D sky130_fd_sc_hd__inv_1
*CAP
1 *5369:A 5.33963e-05
2 *5368:Y 5.33963e-05
*RES
1 *5368:Y *5369:A 19.4973 
*END

*D_NET *1021 0.000106793
*CONN
*I *5371:A I *D sky130_fd_sc_hd__inv_1
*I *5369:Y O *D sky130_fd_sc_hd__inv_1
*CAP
1 *5371:A 5.33963e-05
2 *5369:Y 5.33963e-05
*RES
1 *5369:Y *5371:A 19.4973 
*END

*D_NET *1022 0.000503627
*CONN
*I *5381:A I *D sky130_fd_sc_hd__inv_1
*I *5370:Y O *D sky130_fd_sc_hd__inv_1
*CAP
1 *5381:A 0.000152779
2 *5370:Y 0.000152779
3 *4371:A_N *5381:A 3.69047e-06
4 *4409:C *5381:A 1.81448e-05
5 *5370:A *5381:A 0
6 *115:75 *5381:A 0.000176234
7 *194:63 *5381:A 0
*RES
1 *5370:Y *5381:A 30.8723 
*END

*D_NET *1023 0.000106793
*CONN
*I *5372:A I *D sky130_fd_sc_hd__inv_1
*I *5371:Y O *D sky130_fd_sc_hd__inv_1
*CAP
1 *5372:A 5.33963e-05
2 *5371:Y 5.33963e-05
*RES
1 *5371:Y *5372:A 19.4973 
*END

*D_NET *1024 0.000107298
*CONN
*I *5373:A I *D sky130_fd_sc_hd__inv_1
*I *5372:Y O *D sky130_fd_sc_hd__inv_1
*CAP
1 *5373:A 5.36488e-05
2 *5372:Y 5.36488e-05
*RES
1 *5372:Y *5373:A 19.4973 
*END

*D_NET *1025 0.000125872
*CONN
*I *5374:A I *D sky130_fd_sc_hd__inv_1
*I *5373:Y O *D sky130_fd_sc_hd__inv_1
*CAP
1 *5374:A 6.2936e-05
2 *5373:Y 6.2936e-05
*RES
1 *5373:Y *5374:A 19.4973 
*END

*D_NET *1026 0.000106793
*CONN
*I *5375:A I *D sky130_fd_sc_hd__inv_1
*I *5374:Y O *D sky130_fd_sc_hd__inv_1
*CAP
1 *5375:A 5.33963e-05
2 *5374:Y 5.33963e-05
*RES
1 *5374:Y *5375:A 19.4973 
*END

*D_NET *1027 0.000106793
*CONN
*I *5376:A I *D sky130_fd_sc_hd__inv_1
*I *5375:Y O *D sky130_fd_sc_hd__inv_1
*CAP
1 *5376:A 5.33963e-05
2 *5375:Y 5.33963e-05
*RES
1 *5375:Y *5376:A 19.4973 
*END

*D_NET *1028 0.000123347
*CONN
*I *5377:A I *D sky130_fd_sc_hd__inv_1
*I *5376:Y O *D sky130_fd_sc_hd__inv_1
*CAP
1 *5377:A 6.16736e-05
2 *5376:Y 6.16736e-05
*RES
1 *5376:Y *5377:A 19.4973 
*END

*D_NET *1029 0.000610343
*CONN
*I *5378:A I *D sky130_fd_sc_hd__inv_1
*I *5377:Y O *D sky130_fd_sc_hd__inv_1
*CAP
1 *5378:A 0.000220374
2 *5377:Y 0.000220374
3 *5378:A *5379:A 0.000134804
4 *5378:A *5380:A 3.4792e-05
*RES
1 *5377:Y *5378:A 22.9616 
*END

*D_NET *1030 0.000248732
*CONN
*I *5379:A I *D sky130_fd_sc_hd__inv_1
*I *5378:Y O *D sky130_fd_sc_hd__inv_1
*CAP
1 *5379:A 5.6964e-05
2 *5378:Y 5.6964e-05
3 *5378:A *5379:A 0.000134804
*RES
1 *5378:Y *5379:A 20.3723 
*END

*D_NET *1031 0.000443461
*CONN
*I *5380:A I *D sky130_fd_sc_hd__inv_1
*I *5379:Y O *D sky130_fd_sc_hd__inv_1
*CAP
1 *5380:A 0.000141678
2 *5379:Y 0.000141678
3 *5380:A *5382:A 1.66856e-05
4 *4375:A *5380:A 0.000100831
5 *4425:B *5380:A 7.79781e-06
6 *5378:A *5380:A 3.4792e-05
*RES
1 *5379:Y *5380:A 30.2205 
*END

*D_NET *1032 0.000773914
*CONN
*I *5382:A I *D sky130_fd_sc_hd__inv_1
*I *5380:Y O *D sky130_fd_sc_hd__inv_1
*CAP
1 *5382:A 0.000244934
2 *5380:Y 0.000244934
3 *4375:C *5382:A 5.33005e-05
4 *5380:A *5382:A 1.66856e-05
5 *5391:A *5382:A 6.48573e-05
6 *100:35 *5382:A 0.000149201
*RES
1 *5380:Y *5382:A 23.0688 
*END

*D_NET *1033 0.000642699
*CONN
*I *5383:A I *D sky130_fd_sc_hd__inv_1
*I *5381:Y O *D sky130_fd_sc_hd__inv_1
*CAP
1 *5383:A 0.000164207
2 *5381:Y 0.000164207
3 *5383:A *5384:A 0
4 *5383:A *5385:A 0
5 *4371:A_N *5383:A 0.000159524
6 *115:75 *5383:A 0.000154762
*RES
1 *5381:Y *5383:A 31.3902 
*END

*D_NET *1034 0.00014436
*CONN
*I *5391:B I *D sky130_fd_sc_hd__nand2_1
*I *5382:Y O *D sky130_fd_sc_hd__inv_1
*CAP
1 *5391:B 1.06116e-05
2 *5382:Y 1.06116e-05
3 *5391:A *5391:B 7.90536e-05
4 *100:35 *5391:B 4.40835e-05
*RES
1 *5382:Y *5391:B 19.3411 
*END

*D_NET *1035 0.000417619
*CONN
*I *5384:A I *D sky130_fd_sc_hd__inv_1
*I *5383:Y O *D sky130_fd_sc_hd__inv_1
*CAP
1 *5384:A 0.000178843
2 *5383:Y 0.000178843
3 *5384:A *5385:A 3.92757e-05
4 *5384:A *5386:A 0
5 *4371:A_N *5384:A 2.06583e-05
6 *5383:A *5384:A 0
7 *115:75 *5384:A 0
*RES
1 *5383:Y *5384:A 30.5688 
*END

*D_NET *1036 0.0003537
*CONN
*I *5385:A I *D sky130_fd_sc_hd__inv_1
*I *5384:Y O *D sky130_fd_sc_hd__inv_1
*CAP
1 *5385:A 0.000145442
2 *5384:Y 0.000145442
3 *5385:A *5386:A 0
4 *4371:A_N *5385:A 2.3541e-05
5 *5383:A *5385:A 0
6 *5384:A *5385:A 3.92757e-05
*RES
1 *5384:Y *5385:A 30.1134 
*END

*D_NET *1037 0.00092206
*CONN
*I *5386:A I *D sky130_fd_sc_hd__inv_1
*I *5385:Y O *D sky130_fd_sc_hd__inv_1
*CAP
1 *5386:A 0.000311166
2 *5385:Y 0.000311166
3 *5386:A *5387:A 0.000154762
4 *4371:A_N *5386:A 7.90536e-05
5 *5384:A *5386:A 0
6 *5385:A *5386:A 0
7 *176:16 *5386:A 6.59118e-05
*RES
1 *5385:Y *5386:A 33.2741 
*END

*D_NET *1038 0.000713619
*CONN
*I *5387:A I *D sky130_fd_sc_hd__inv_1
*I *5386:Y O *D sky130_fd_sc_hd__inv_1
*CAP
1 *5387:A 0.00013709
2 *5386:Y 0.00013709
3 *4371:B *5387:A 7.78256e-05
4 *5386:A *5387:A 0.000154762
5 *102:8 *5387:A 5.79417e-05
6 *176:16 *5387:A 0.000148911
*RES
1 *5386:Y *5387:A 31.3902 
*END

*D_NET *1039 0.000449213
*CONN
*I *5388:A I *D sky130_fd_sc_hd__inv_1
*I *5387:Y O *D sky130_fd_sc_hd__inv_1
*CAP
1 *5388:A 9.1147e-05
2 *5387:Y 9.1147e-05
3 *4371:B *5388:A 3.28686e-05
4 *4423:B *5388:A 0.000154762
5 *5364:A *5388:A 7.92879e-05
*RES
1 *5387:Y *5388:A 30.1134 
*END

*D_NET *1040 0.000243404
*CONN
*I *5389:A I *D sky130_fd_sc_hd__inv_1
*I *5388:Y O *D sky130_fd_sc_hd__inv_1
*CAP
1 *5389:A 0.000121702
2 *5388:Y 0.000121702
*RES
1 *5388:Y *5389:A 20.3545 
*END

*D_NET *1041 0.000142732
*CONN
*I *5360:A I *D sky130_fd_sc_hd__inv_1
*I *5389:Y O *D sky130_fd_sc_hd__inv_1
*CAP
1 *5360:A 7.1366e-05
2 *5389:Y 7.1366e-05
*RES
1 *5389:Y *5360:A 19.4973 
*END

*D_NET *1042 0.000450325
*CONN
*I *4397:A3 I *D sky130_fd_sc_hd__mux4_2
*I *5390:X O *D sky130_fd_sc_hd__buf_1
*CAP
1 *4397:A3 0.000196357
2 *5390:X 0.000196357
3 *5263:A *4397:A3 5.76121e-05
4 *101:12 *4397:A3 0
*RES
1 *5390:X *4397:A3 30.2964 
*END

*D_NET *1043 0.000576124
*CONN
*I *5423:A I *D sky130_fd_sc_hd__nand2_1
*I *4409:X O *D sky130_fd_sc_hd__and3_2
*CAP
1 *5423:A 0.000155405
2 *4409:X 0.000155405
3 *5423:A *5402:A 4.22908e-05
4 *5423:A *5414:A 0.000117628
5 *5423:A *5423:B 7.90536e-05
6 *102:49 *5423:A 2.63424e-05
7 *175:16 *5423:A 0
*RES
1 *4409:X *5423:A 22.4571 
*END

*D_NET *1044 0.000248252
*CONN
*I *5402:A I *D sky130_fd_sc_hd__inv_1
*I *5423:Y O *D sky130_fd_sc_hd__nand2_1
*CAP
1 *5402:A 4.79271e-05
2 *5423:Y 4.79271e-05
3 *5423:A *5402:A 4.22908e-05
4 *102:49 *5402:A 0.000110106
*RES
1 *5423:Y *5402:A 20.2563 
*END

*D_NET *1045 0.000519133
*CONN
*I *5393:A I *D sky130_fd_sc_hd__inv_1
*I *5392:Y O *D sky130_fd_sc_hd__inv_1
*CAP
1 *5393:A 0.000162305
2 *5392:Y 0.000162305
3 *5393:A *5392:A 2.56694e-05
4 *5393:A *5421:A 9.25014e-06
5 *114:10 *5393:A 0.000126439
6 *115:20 *5393:A 3.3164e-05
7 *178:14 *5393:A 0
*RES
1 *5392:Y *5393:A 30.6313 
*END

*D_NET *1046 0.000735354
*CONN
*I *5394:A I *D sky130_fd_sc_hd__inv_1
*I *5393:Y O *D sky130_fd_sc_hd__inv_1
*CAP
1 *5394:A 0.000306012
2 *5393:Y 0.000306012
3 *5394:A *5392:A 1.06618e-05
4 *5394:A *5395:A 7.44723e-05
5 *5394:A *5421:A 3.81963e-05
*RES
1 *5393:Y *5394:A 24.3009 
*END

*D_NET *1047 0.000182729
*CONN
*I *5395:A I *D sky130_fd_sc_hd__inv_1
*I *5394:Y O *D sky130_fd_sc_hd__inv_1
*CAP
1 *5395:A 4.43023e-05
2 *5394:Y 4.43023e-05
3 *5395:A *5396:A 1.96517e-05
4 *5394:A *5395:A 7.44723e-05
*RES
1 *5394:Y *5395:A 19.8634 
*END

*D_NET *1048 0.000335265
*CONN
*I *5396:A I *D sky130_fd_sc_hd__inv_1
*I *5395:Y O *D sky130_fd_sc_hd__inv_1
*CAP
1 *5396:A 0.000117179
2 *5395:Y 0.000117179
3 *5396:A *5392:A 0
4 *5395:A *5396:A 1.96517e-05
5 *115:20 *5396:A 1.37644e-05
6 *178:14 *5396:A 6.74911e-05
*RES
1 *5395:Y *5396:A 29.8545 
*END

*D_NET *1049 0.000139675
*CONN
*I *5397:A I *D sky130_fd_sc_hd__inv_1
*I *5396:Y O *D sky130_fd_sc_hd__inv_1
*CAP
1 *5397:A 4.54174e-05
2 *5396:Y 4.54174e-05
3 *115:20 *5397:A 4.88402e-05
*RES
1 *5396:Y *5397:A 19.4973 
*END

*D_NET *1050 0.00125416
*CONN
*I *5422:A I *D sky130_fd_sc_hd__buf_1
*I *5398:A I *D sky130_fd_sc_hd__inv_1
*I *5397:Y O *D sky130_fd_sc_hd__inv_1
*CAP
1 *5422:A 0.000402902
2 *5398:A 1.49606e-05
3 *5397:Y 4.57971e-05
4 *1050:6 0.000463659
5 *4391:A2 *5422:A 3.11193e-05
6 *115:20 *5398:A 1.37644e-05
7 *115:20 *1050:6 6.55592e-05
8 *178:14 *5422:A 0
9 *179:66 *5422:A 0.000139913
10 *194:63 *5422:A 7.36559e-05
11 *951:12 *5422:A 2.8266e-06
*RES
1 *5397:Y *1050:6 10.4518 
2 *1050:6 *5398:A 9.58125 
3 *1050:6 *5422:A 33.5321 
*END

*D_NET *1051 0.000125096
*CONN
*I *5399:A I *D sky130_fd_sc_hd__inv_1
*I *5398:Y O *D sky130_fd_sc_hd__inv_1
*CAP
1 *5399:A 3.58591e-05
2 *5398:Y 3.58591e-05
3 *115:20 *5399:A 5.33783e-05
*RES
1 *5398:Y *5399:A 19.4973 
*END

*D_NET *1052 0.000150597
*CONN
*I *5400:A I *D sky130_fd_sc_hd__inv_1
*I *5399:Y O *D sky130_fd_sc_hd__inv_1
*CAP
1 *5400:A 4.39962e-05
2 *5399:Y 4.39962e-05
3 *5400:A *5403:A 1.37644e-05
4 *115:20 *5400:A 4.88402e-05
*RES
1 *5399:Y *5400:A 19.4973 
*END

*D_NET *1053 0.000233245
*CONN
*I *5401:A I *D sky130_fd_sc_hd__inv_1
*I *5400:Y O *D sky130_fd_sc_hd__inv_1
*CAP
1 *5401:A 2.59321e-05
2 *5400:Y 2.59321e-05
3 *5401:A *5403:A 5.62995e-05
4 *115:20 *5401:A 0.000125082
*RES
1 *5400:Y *5401:A 19.8634 
*END

*D_NET *1054 0.000617582
*CONN
*I *5403:A I *D sky130_fd_sc_hd__inv_1
*I *5401:Y O *D sky130_fd_sc_hd__inv_1
*CAP
1 *5403:A 0.000206351
2 *5401:Y 0.000206351
3 *5400:A *5403:A 1.37644e-05
4 *5401:A *5403:A 5.62995e-05
5 *115:20 *5403:A 1.08059e-05
6 *194:63 *5403:A 0.00012401
*RES
1 *5401:Y *5403:A 31.042 
*END

*D_NET *1055 0.000289315
*CONN
*I *5413:A I *D sky130_fd_sc_hd__inv_1
*I *5402:Y O *D sky130_fd_sc_hd__inv_1
*CAP
1 *5413:A 4.98249e-05
2 *5402:Y 4.98249e-05
3 *5413:A *5415:A 6.63297e-05
4 *102:49 *5413:A 0.000123336
*RES
1 *5402:Y *5413:A 20.6848 
*END

*D_NET *1056 0.000832349
*CONN
*I *5404:A I *D sky130_fd_sc_hd__inv_1
*I *5403:Y O *D sky130_fd_sc_hd__inv_1
*CAP
1 *5404:A 0.000363948
2 *5403:Y 0.000363948
3 *5404:A *5405:A 7.51545e-05
4 *5404:A *5406:A 1.27261e-05
5 *5404:A *5408:A 1.37743e-05
6 *5404:A *5409:A 2.79708e-06
*RES
1 *5403:Y *5404:A 23.6402 
*END

*D_NET *1057 0.000173893
*CONN
*I *5405:A I *D sky130_fd_sc_hd__inv_1
*I *5404:Y O *D sky130_fd_sc_hd__inv_1
*CAP
1 *5405:A 2.92808e-05
2 *5404:Y 2.92808e-05
3 *5405:A *5406:A 4.01768e-05
4 *5404:A *5405:A 7.51545e-05
*RES
1 *5404:Y *5405:A 19.8634 
*END

*D_NET *1058 0.000562302
*CONN
*I *5406:A I *D sky130_fd_sc_hd__inv_1
*I *5405:Y O *D sky130_fd_sc_hd__inv_1
*CAP
1 *5406:A 0.0002547
2 *5405:Y 0.0002547
3 *5406:A *5408:A 0
4 *5406:A *5409:A 0
5 *5404:A *5406:A 1.27261e-05
6 *5405:A *5406:A 4.01768e-05
*RES
1 *5405:Y *5406:A 31.3902 
*END

*D_NET *1059 0.000106793
*CONN
*I *5407:A I *D sky130_fd_sc_hd__inv_1
*I *5406:Y O *D sky130_fd_sc_hd__inv_1
*CAP
1 *5407:A 5.33963e-05
2 *5406:Y 5.33963e-05
*RES
1 *5406:Y *5407:A 19.4973 
*END

*D_NET *1060 0.000451305
*CONN
*I *5408:A I *D sky130_fd_sc_hd__inv_1
*I *5407:Y O *D sky130_fd_sc_hd__inv_1
*CAP
1 *5408:A 0.000179583
2 *5407:Y 0.000179583
3 *5408:A *5409:A 7.83659e-05
4 *5404:A *5408:A 1.37743e-05
5 *5406:A *5408:A 0
6 *194:63 *5408:A 0
*RES
1 *5407:Y *5408:A 30.5688 
*END

*D_NET *1061 0.000391834
*CONN
*I *5409:A I *D sky130_fd_sc_hd__inv_1
*I *5408:Y O *D sky130_fd_sc_hd__inv_1
*CAP
1 *5409:A 0.000155336
2 *5408:Y 0.000155336
3 *5404:A *5409:A 2.79708e-06
4 *5406:A *5409:A 0
5 *5408:A *5409:A 7.83659e-05
6 *194:63 *5409:A 0
*RES
1 *5408:Y *5409:A 30.1134 
*END

*D_NET *1062 0.000251218
*CONN
*I *5410:A I *D sky130_fd_sc_hd__inv_1
*I *5409:Y O *D sky130_fd_sc_hd__inv_1
*CAP
1 *5410:A 0.000117261
2 *5409:Y 0.000117261
3 *5410:A *5411:A 1.66955e-05
*RES
1 *5409:Y *5410:A 20.7205 
*END

*D_NET *1063 0.000797168
*CONN
*I *5411:A I *D sky130_fd_sc_hd__inv_1
*I *5410:Y O *D sky130_fd_sc_hd__inv_1
*CAP
1 *5411:A 0.000158491
2 *5410:Y 0.000158491
3 *5411:A *5412:A 9.57215e-05
4 *5410:A *5411:A 1.66955e-05
5 *101:48 *5411:A 0.000230475
6 *174:22 *5411:A 8.94885e-05
7 *194:63 *5411:A 4.78056e-05
*RES
1 *5410:Y *5411:A 32.158 
*END

*D_NET *1064 0.000212531
*CONN
*I *5412:A I *D sky130_fd_sc_hd__inv_1
*I *5411:Y O *D sky130_fd_sc_hd__inv_1
*CAP
1 *5412:A 1.05439e-05
2 *5411:Y 1.05439e-05
3 *5411:A *5412:A 9.57215e-05
4 *174:22 *5412:A 9.57215e-05
*RES
1 *5411:Y *5412:A 19.4973 
*END

*D_NET *1065 0.000876614
*CONN
*I *5414:A I *D sky130_fd_sc_hd__inv_1
*I *5412:Y O *D sky130_fd_sc_hd__inv_1
*CAP
1 *5414:A 0.000140507
2 *5412:Y 0.000140507
3 *5423:A *5414:A 0.000117628
4 *98:77 *5414:A 0.000146937
5 *102:49 *5414:A 0.000180055
6 *174:22 *5414:A 1.59935e-05
7 *175:10 *5414:A 7.6644e-05
8 *175:16 *5414:A 1.92905e-05
9 *194:63 *5414:A 3.90513e-05
*RES
1 *5412:Y *5414:A 32.2116 
*END

*D_NET *1066 0.000700852
*CONN
*I *5415:A I *D sky130_fd_sc_hd__inv_1
*I *5413:Y O *D sky130_fd_sc_hd__inv_1
*CAP
1 *5415:A 0.000217969
2 *5413:Y 0.000217969
3 *4371:A_N *5415:A 0.000100823
4 *4552:A *5415:A 2.80853e-05
5 *5413:A *5415:A 6.63297e-05
6 *101:48 *5415:A 1.37743e-05
7 *178:14 *5415:A 5.59013e-05
*RES
1 *5413:Y *5415:A 31.3902 
*END

*D_NET *1067 0.00014436
*CONN
*I *5423:B I *D sky130_fd_sc_hd__nand2_1
*I *5414:Y O *D sky130_fd_sc_hd__inv_1
*CAP
1 *5423:B 1.06116e-05
2 *5414:Y 1.06116e-05
3 *5423:A *5423:B 7.90536e-05
4 *102:49 *5423:B 4.40835e-05
*RES
1 *5414:Y *5423:B 19.3411 
*END

*D_NET *1068 0.000186625
*CONN
*I *5416:A I *D sky130_fd_sc_hd__inv_1
*I *5415:Y O *D sky130_fd_sc_hd__inv_1
*CAP
1 *5416:A 1.21265e-05
2 *5415:Y 1.21265e-05
3 *4552:A *5416:A 9.57215e-05
4 *101:48 *5416:A 6.665e-05
*RES
1 *5415:Y *5416:A 19.4973 
*END

*D_NET *1069 0.000299235
*CONN
*I *5417:A I *D sky130_fd_sc_hd__inv_1
*I *5416:Y O *D sky130_fd_sc_hd__inv_1
*CAP
1 *5417:A 1.48454e-05
2 *5416:Y 1.48454e-05
3 *4552:A *5417:A 0.000134772
4 *101:48 *5417:A 0.000134772
*RES
1 *5416:Y *5417:A 19.8634 
*END

*D_NET *1070 0.000529431
*CONN
*I *5418:A I *D sky130_fd_sc_hd__inv_1
*I *5417:Y O *D sky130_fd_sc_hd__inv_1
*CAP
1 *5418:A 0.000203282
2 *5417:Y 0.000203282
3 *4552:A *5418:A 0
4 *101:48 *5418:A 0.000122866
5 *178:14 *5418:A 0
*RES
1 *5417:Y *5418:A 30.6759 
*END

*D_NET *1071 0.000106793
*CONN
*I *5419:A I *D sky130_fd_sc_hd__inv_1
*I *5418:Y O *D sky130_fd_sc_hd__inv_1
*CAP
1 *5419:A 5.33963e-05
2 *5418:Y 5.33963e-05
*RES
1 *5418:Y *5419:A 19.4973 
*END

*D_NET *1072 0.000208953
*CONN
*I *5420:A I *D sky130_fd_sc_hd__inv_1
*I *5419:Y O *D sky130_fd_sc_hd__inv_1
*CAP
1 *5420:A 5.87554e-05
2 *5419:Y 5.87554e-05
3 *5420:A *5421:A 2.43061e-05
4 *4551:A *5420:A 6.71359e-05
*RES
1 *5419:Y *5420:A 19.8634 
*END

*D_NET *1073 0.000601096
*CONN
*I *5421:A I *D sky130_fd_sc_hd__inv_1
*I *5420:Y O *D sky130_fd_sc_hd__inv_1
*CAP
1 *5421:A 0.00022054
2 *5420:Y 0.00022054
3 *4551:A *5421:A 1.66955e-05
4 *5393:A *5421:A 9.25014e-06
5 *5394:A *5421:A 3.81963e-05
6 *5420:A *5421:A 2.43061e-05
7 *114:10 *5421:A 7.15687e-05
8 *178:14 *5421:A 0
*RES
1 *5420:Y *5421:A 31.3902 
*END

*D_NET *1074 0.000309473
*CONN
*I *5392:A I *D sky130_fd_sc_hd__inv_1
*I *5421:Y O *D sky130_fd_sc_hd__inv_1
*CAP
1 *5392:A 0.000130844
2 *5421:Y 0.000130844
3 *5393:A *5392:A 2.56694e-05
4 *5394:A *5392:A 1.06618e-05
5 *5396:A *5392:A 0
6 *114:10 *5392:A 0
7 *115:20 *5392:A 1.14548e-05
*RES
1 *5421:Y *5392:A 29.8098 
*END

*D_NET *1075 0.00061302
*CONN
*I *4389:A3 I *D sky130_fd_sc_hd__mux4_2
*I *5422:X O *D sky130_fd_sc_hd__buf_1
*CAP
1 *4389:A3 0.000198434
2 *5422:X 0.000198434
3 *4389:A1 *4389:A3 0
4 *4389:A2 *4389:A3 0.000142856
5 *4391:A2 *4389:A3 7.32955e-05
*RES
1 *5422:X *4389:A3 21.6179 
*END

*D_NET *1076 0.000548865
*CONN
*I *5455:A I *D sky130_fd_sc_hd__nand2_1
*I *4410:X O *D sky130_fd_sc_hd__and3_2
*CAP
1 *5455:A 0.000254794
2 *4410:X 0.000254794
3 *5455:A *5554:A 0
4 *5455:A *5556:A 3.92757e-05
*RES
1 *4410:X *5455:A 31.3143 
*END

*D_NET *1077 0.000288775
*CONN
*I *5434:A I *D sky130_fd_sc_hd__inv_1
*I *5455:Y O *D sky130_fd_sc_hd__nand2_1
*CAP
1 *5434:A 0.000144388
2 *5455:Y 0.000144388
3 *5434:A *5554:A 0
*RES
1 *5455:Y *5434:A 29.9348 
*END

*D_NET *1078 0.000118761
*CONN
*I *5425:A I *D sky130_fd_sc_hd__inv_1
*I *5424:Y O *D sky130_fd_sc_hd__inv_1
*CAP
1 *5425:A 3.26913e-05
2 *5424:Y 3.26913e-05
3 *5425:A *5427:A 5.33783e-05
*RES
1 *5424:Y *5425:A 19.4973 
*END

*D_NET *1079 0.000162983
*CONN
*I *5426:A I *D sky130_fd_sc_hd__inv_1
*I *5425:Y O *D sky130_fd_sc_hd__inv_1
*CAP
1 *5426:A 5.33418e-05
2 *5425:Y 5.33418e-05
3 *5426:A *5427:A 5.62995e-05
*RES
1 *5425:Y *5426:A 19.8634 
*END

*D_NET *1080 0.000773433
*CONN
*I *5427:A I *D sky130_fd_sc_hd__inv_1
*I *5426:Y O *D sky130_fd_sc_hd__inv_1
*CAP
1 *5427:A 0.000324996
2 *5426:Y 0.000324996
3 *5427:A *5424:A 1.37644e-05
4 *5427:A *5451:A 0
5 *5425:A *5427:A 5.33783e-05
6 *5426:A *5427:A 5.62995e-05
*RES
1 *5426:Y *5427:A 32.2741 
*END

*D_NET *1081 0.00106281
*CONN
*I *5428:A I *D sky130_fd_sc_hd__inv_1
*I *5427:Y O *D sky130_fd_sc_hd__inv_1
*CAP
1 *5428:A 0.00045775
2 *5427:Y 0.00045775
3 *5428:A *5429:A 5.33783e-05
4 *5428:A *5430:A 2.89598e-05
5 *5428:A *5431:A 5.33783e-05
6 *5428:A *5432:A 5.81997e-06
7 *5428:A *5454:A 5.77224e-06
*RES
1 *5427:Y *5428:A 24.7696 
*END

*D_NET *1082 0.000126258
*CONN
*I *5429:A I *D sky130_fd_sc_hd__inv_1
*I *5428:Y O *D sky130_fd_sc_hd__inv_1
*CAP
1 *5429:A 1.77922e-05
2 *5428:Y 1.77922e-05
3 *5429:A *5454:A 3.72958e-05
4 *5428:A *5429:A 5.33783e-05
*RES
1 *5428:Y *5429:A 19.4973 
*END

*D_NET *1083 0.000725787
*CONN
*I *5430:A I *D sky130_fd_sc_hd__inv_1
*I *5454:A I *D sky130_fd_sc_hd__buf_1
*I *5429:Y O *D sky130_fd_sc_hd__inv_1
*CAP
1 *5430:A 9.51795e-05
2 *5454:A 0.0002317
3 *5429:Y 0
4 *1083:4 0.000326879
5 *5454:A *5432:A 0
6 *5454:A *5486:A 0
7 *5428:A *5430:A 2.89598e-05
8 *5428:A *5454:A 5.77224e-06
9 *5429:A *5454:A 3.72958e-05
*RES
1 *5429:Y *1083:4 9.3 
2 *1083:4 *5454:A 21.8089 
3 *1083:4 *5430:A 11.3536 
*END

*D_NET *1084 0.000128858
*CONN
*I *5431:A I *D sky130_fd_sc_hd__inv_1
*I *5430:Y O *D sky130_fd_sc_hd__inv_1
*CAP
1 *5431:A 3.34958e-05
2 *5430:Y 3.34958e-05
3 *5431:A *5432:A 8.48822e-06
4 *5428:A *5431:A 5.33783e-05
*RES
1 *5430:Y *5431:A 19.4973 
*END

*D_NET *1085 0.000407977
*CONN
*I *5432:A I *D sky130_fd_sc_hd__inv_1
*I *5431:Y O *D sky130_fd_sc_hd__inv_1
*CAP
1 *5432:A 0.000194768
2 *5431:Y 0.000194768
3 *5432:A *5486:A 4.1331e-06
4 *5428:A *5432:A 5.81997e-06
5 *5431:A *5432:A 8.48822e-06
6 *5454:A *5432:A 0
*RES
1 *5431:Y *5432:A 30.5688 
*END

*D_NET *1086 0.000106793
*CONN
*I *5433:A I *D sky130_fd_sc_hd__inv_1
*I *5432:Y O *D sky130_fd_sc_hd__inv_1
*CAP
1 *5433:A 5.33963e-05
2 *5432:Y 5.33963e-05
*RES
1 *5432:Y *5433:A 19.4973 
*END

*D_NET *1087 0.000106793
*CONN
*I *5435:A I *D sky130_fd_sc_hd__inv_1
*I *5433:Y O *D sky130_fd_sc_hd__inv_1
*CAP
1 *5435:A 5.33963e-05
2 *5433:Y 5.33963e-05
*RES
1 *5433:Y *5435:A 19.4973 
*END

*D_NET *1088 0.000204553
*CONN
*I *5445:A I *D sky130_fd_sc_hd__inv_1
*I *5434:Y O *D sky130_fd_sc_hd__inv_1
*CAP
1 *5445:A 0.000102277
2 *5434:Y 0.000102277
*RES
1 *5434:Y *5445:A 20.3188 
*END

*D_NET *1089 0.000106921
*CONN
*I *5436:A I *D sky130_fd_sc_hd__inv_1
*I *5435:Y O *D sky130_fd_sc_hd__inv_1
*CAP
1 *5436:A 5.34607e-05
2 *5435:Y 5.34607e-05
*RES
1 *5435:Y *5436:A 19.4973 
*END

*D_NET *1090 0.000107061
*CONN
*I *5437:A I *D sky130_fd_sc_hd__inv_1
*I *5436:Y O *D sky130_fd_sc_hd__inv_1
*CAP
1 *5437:A 5.35304e-05
2 *5436:Y 5.35304e-05
*RES
1 *5436:Y *5437:A 19.4973 
*END

*D_NET *1091 0.00016806
*CONN
*I *5438:A I *D sky130_fd_sc_hd__inv_1
*I *5437:Y O *D sky130_fd_sc_hd__inv_1
*CAP
1 *5438:A 7.57675e-05
2 *5437:Y 7.57675e-05
3 *5438:A *5439:A 1.65251e-05
*RES
1 *5437:Y *5438:A 19.8634 
*END

*D_NET *1092 0.000352544
*CONN
*I *5439:A I *D sky130_fd_sc_hd__inv_1
*I *5438:Y O *D sky130_fd_sc_hd__inv_1
*CAP
1 *5439:A 0.000168009
2 *5438:Y 0.000168009
3 *5438:A *5439:A 1.65251e-05
*RES
1 *5438:Y *5439:A 29.8098 
*END

*D_NET *1093 0.000227816
*CONN
*I *5440:A I *D sky130_fd_sc_hd__inv_1
*I *5439:Y O *D sky130_fd_sc_hd__inv_1
*CAP
1 *5440:A 0.000113908
2 *5439:Y 0.000113908
*RES
1 *5439:Y *5440:A 20.3545 
*END

*D_NET *1094 0.000107061
*CONN
*I *5441:A I *D sky130_fd_sc_hd__inv_1
*I *5440:Y O *D sky130_fd_sc_hd__inv_1
*CAP
1 *5441:A 5.35304e-05
2 *5440:Y 5.35304e-05
*RES
1 *5440:Y *5441:A 19.4973 
*END

*D_NET *1095 0.000106793
*CONN
*I *5442:A I *D sky130_fd_sc_hd__inv_1
*I *5441:Y O *D sky130_fd_sc_hd__inv_1
*CAP
1 *5442:A 5.33963e-05
2 *5441:Y 5.33963e-05
*RES
1 *5441:Y *5442:A 19.4973 
*END

*D_NET *1096 0.000106793
*CONN
*I *5443:A I *D sky130_fd_sc_hd__inv_1
*I *5442:Y O *D sky130_fd_sc_hd__inv_1
*CAP
1 *5443:A 5.33963e-05
2 *5442:Y 5.33963e-05
*RES
1 *5442:Y *5443:A 19.4973 
*END

*D_NET *1097 0.000106793
*CONN
*I *5444:A I *D sky130_fd_sc_hd__inv_1
*I *5443:Y O *D sky130_fd_sc_hd__inv_1
*CAP
1 *5444:A 5.33963e-05
2 *5443:Y 5.33963e-05
*RES
1 *5443:Y *5444:A 19.4973 
*END

*D_NET *1098 0.000106793
*CONN
*I *5446:A I *D sky130_fd_sc_hd__inv_1
*I *5444:Y O *D sky130_fd_sc_hd__inv_1
*CAP
1 *5446:A 5.33963e-05
2 *5444:Y 5.33963e-05
*RES
1 *5444:Y *5446:A 19.4973 
*END

*D_NET *1099 0.000350557
*CONN
*I *5447:A I *D sky130_fd_sc_hd__inv_1
*I *5445:Y O *D sky130_fd_sc_hd__inv_1
*CAP
1 *5447:A 0.000175279
2 *5445:Y 0.000175279
*RES
1 *5445:Y *5447:A 30.1134 
*END

*D_NET *1100 9.45134e-05
*CONN
*I *5455:B I *D sky130_fd_sc_hd__nand2_1
*I *5446:Y O *D sky130_fd_sc_hd__inv_1
*CAP
1 *5455:B 4.54114e-05
2 *5446:Y 4.54114e-05
3 *5455:B *5556:A 3.69047e-06
*RES
1 *5446:Y *5455:B 19.3411 
*END

*D_NET *1101 0.000245821
*CONN
*I *5448:A I *D sky130_fd_sc_hd__inv_1
*I *5447:Y O *D sky130_fd_sc_hd__inv_1
*CAP
1 *5448:A 0.00012291
2 *5447:Y 0.00012291
*RES
1 *5447:Y *5448:A 20.7652 
*END

*D_NET *1102 0.000106793
*CONN
*I *5449:A I *D sky130_fd_sc_hd__inv_1
*I *5448:Y O *D sky130_fd_sc_hd__inv_1
*CAP
1 *5449:A 5.33963e-05
2 *5448:Y 5.33963e-05
*RES
1 *5448:Y *5449:A 19.4973 
*END

*D_NET *1103 0.000156051
*CONN
*I *5450:A I *D sky130_fd_sc_hd__inv_1
*I *5449:Y O *D sky130_fd_sc_hd__inv_1
*CAP
1 *5450:A 7.80254e-05
2 *5449:Y 7.80254e-05
*RES
1 *5449:Y *5450:A 19.908 
*END

*D_NET *1104 0.000431767
*CONN
*I *5451:A I *D sky130_fd_sc_hd__inv_1
*I *5450:Y O *D sky130_fd_sc_hd__inv_1
*CAP
1 *5451:A 0.000215883
2 *5450:Y 0.000215883
3 *5427:A *5451:A 0
*RES
1 *5450:Y *5451:A 30.6759 
*END

*D_NET *1105 0.000107046
*CONN
*I *5452:A I *D sky130_fd_sc_hd__inv_1
*I *5451:Y O *D sky130_fd_sc_hd__inv_1
*CAP
1 *5452:A 5.35229e-05
2 *5451:Y 5.35229e-05
*RES
1 *5451:Y *5452:A 19.4973 
*END

*D_NET *1106 0.000106936
*CONN
*I *5453:A I *D sky130_fd_sc_hd__inv_1
*I *5452:Y O *D sky130_fd_sc_hd__inv_1
*CAP
1 *5453:A 5.34682e-05
2 *5452:Y 5.34682e-05
*RES
1 *5452:Y *5453:A 19.4973 
*END

*D_NET *1107 0.000117698
*CONN
*I *5424:A I *D sky130_fd_sc_hd__inv_1
*I *5453:Y O *D sky130_fd_sc_hd__inv_1
*CAP
1 *5424:A 5.19667e-05
2 *5453:Y 5.19667e-05
3 *5427:A *5424:A 1.37644e-05
*RES
1 *5453:Y *5424:A 19.4973 
*END

*D_NET *1108 0.00046431
*CONN
*I *4394:A0 I *D sky130_fd_sc_hd__mux4_2
*I *5454:X O *D sky130_fd_sc_hd__buf_1
*CAP
1 *4394:A0 0.00016536
2 *5454:X 0.00016536
3 *4394:A0 *4394:A1 0.00013359
*RES
1 *5454:X *4394:A0 29.9929 
*END

*D_NET *1109 8.53821e-05
*CONN
*I *5487:A I *D sky130_fd_sc_hd__nand2_1
*I *4411:X O *D sky130_fd_sc_hd__and3_2
*CAP
1 *5487:A 2.72578e-05
2 *4411:X 2.72578e-05
3 *174:55 *5487:A 3.08664e-05
*RES
1 *4411:X *5487:A 19.1357 
*END

*D_NET *1110 0.00049039
*CONN
*I *5466:A I *D sky130_fd_sc_hd__inv_1
*I *5487:Y O *D sky130_fd_sc_hd__nand2_1
*CAP
1 *5466:A 0.000176466
2 *5487:Y 0.000176466
3 *5466:A *5477:A 7.66438e-05
4 *5466:A *5487:B 6.0813e-05
5 *99:31 *5466:A 0
*RES
1 *5487:Y *5466:A 30.6759 
*END

*D_NET *1111 0.00024802
*CONN
*I *5457:A I *D sky130_fd_sc_hd__inv_1
*I *5456:Y O *D sky130_fd_sc_hd__inv_1
*CAP
1 *5457:A 2.03276e-05
2 *5456:Y 2.03276e-05
3 *4396:B *5457:A 7.35025e-05
4 *99:8 *5457:A 0.000133862
*RES
1 *5456:Y *5457:A 19.8634 
*END

*D_NET *1112 0.000329844
*CONN
*I *5458:A I *D sky130_fd_sc_hd__inv_1
*I *5457:Y O *D sky130_fd_sc_hd__inv_1
*CAP
1 *5458:A 0.000142208
2 *5457:Y 0.000142208
3 *5458:A *5465:A 0
4 *5458:A *5557:A 0
5 *99:8 *5458:A 3.51764e-05
6 *99:31 *5458:A 1.02504e-05
*RES
1 *5457:Y *5458:A 29.8098 
*END

*D_NET *1113 0.000196252
*CONN
*I *5459:A I *D sky130_fd_sc_hd__inv_1
*I *5458:Y O *D sky130_fd_sc_hd__inv_1
*CAP
1 *5459:A 9.81259e-05
2 *5458:Y 9.81259e-05
*RES
1 *5458:Y *5459:A 20.3545 
*END

*D_NET *1114 0.000155941
*CONN
*I *5460:A I *D sky130_fd_sc_hd__inv_1
*I *5459:Y O *D sky130_fd_sc_hd__inv_1
*CAP
1 *5460:A 7.79706e-05
2 *5459:Y 7.79706e-05
*RES
1 *5459:Y *5460:A 19.908 
*END

*D_NET *1115 0.000710078
*CONN
*I *5461:A I *D sky130_fd_sc_hd__inv_1
*I *5460:Y O *D sky130_fd_sc_hd__inv_1
*CAP
1 *5461:A 0.000210551
2 *5460:Y 0.000210551
3 *5461:A *5462:A 3.53644e-05
4 *5461:A *5463:A 9.32498e-05
5 *5461:A *5464:A 9.52792e-05
6 *5461:A *5465:A 4.54318e-05
7 *5461:A *5486:A 1.96517e-05
*RES
1 *5460:Y *5461:A 23.2563 
*END

*D_NET *1116 0.000965575
*CONN
*I *5486:A I *D sky130_fd_sc_hd__buf_1
*I *5462:A I *D sky130_fd_sc_hd__inv_1
*I *5461:Y O *D sky130_fd_sc_hd__inv_1
*CAP
1 *5486:A 0.000254477
2 *5462:A 9.88301e-05
3 *5461:Y 0
4 *1116:4 0.000353307
5 *5462:A *5463:A 0.000101184
6 *5486:A *4394:A1 5.01213e-05
7 *5486:A *5463:A 9.22103e-06
8 *4394:S1 *5486:A 0
9 *4395:B2 *5486:A 3.92854e-05
10 *5432:A *5486:A 4.1331e-06
11 *5454:A *5486:A 0
12 *5461:A *5462:A 3.53644e-05
13 *5461:A *5486:A 1.96517e-05
*RES
1 *5461:Y *1116:4 9.3 
2 *1116:4 *5462:A 11.6705 
3 *1116:4 *5486:A 23.1125 
*END

*D_NET *1117 0.000432038
*CONN
*I *5463:A I *D sky130_fd_sc_hd__inv_1
*I *5462:Y O *D sky130_fd_sc_hd__inv_1
*CAP
1 *5463:A 0.000114192
2 *5462:Y 0.000114192
3 *5461:A *5463:A 9.32498e-05
4 *5462:A *5463:A 0.000101184
5 *5486:A *5463:A 9.22103e-06
*RES
1 *5462:Y *5463:A 21.283 
*END

*D_NET *1118 0.000164775
*CONN
*I *5464:A I *D sky130_fd_sc_hd__inv_1
*I *5463:Y O *D sky130_fd_sc_hd__inv_1
*CAP
1 *5464:A 3.47479e-05
2 *5463:Y 3.47479e-05
3 *5461:A *5464:A 9.52792e-05
*RES
1 *5463:Y *5464:A 19.4973 
*END

*D_NET *1119 0.000479583
*CONN
*I *5465:A I *D sky130_fd_sc_hd__inv_1
*I *5464:Y O *D sky130_fd_sc_hd__inv_1
*CAP
1 *5465:A 0.000198268
2 *5464:Y 0.000198268
3 *4395:A1 *5465:A 2.3541e-05
4 *4395:B2 *5465:A 0
5 *4396:B *5465:A 1.40749e-05
6 *5458:A *5465:A 0
7 *5461:A *5465:A 4.54318e-05
8 *99:31 *5465:A 0
*RES
1 *5464:Y *5465:A 30.6313 
*END

*D_NET *1120 0.000904671
*CONN
*I *5467:A I *D sky130_fd_sc_hd__inv_1
*I *5465:Y O *D sky130_fd_sc_hd__inv_1
*CAP
1 *5467:A 0.000170523
2 *5465:Y 0.000170523
3 *5467:A *4392:A0 6.98368e-05
4 *5467:A *5468:A 9.27788e-05
5 *5467:A *5469:A 3.52408e-05
6 *4396:B *5467:A 3.33174e-05
7 *99:31 *5467:A 0
8 *120:28 *5467:A 4.46186e-06
9 *120:30 *5467:A 5.10822e-05
10 *178:73 *5467:A 1.02504e-05
11 *178:122 *5467:A 0.000266658
*RES
1 *5465:Y *5467:A 32.5866 
*END

*D_NET *1121 0.000362803
*CONN
*I *5477:A I *D sky130_fd_sc_hd__inv_1
*I *5466:Y O *D sky130_fd_sc_hd__inv_1
*CAP
1 *5477:A 7.17046e-05
2 *5466:Y 7.17046e-05
3 *5477:A *5479:A 1.22507e-05
4 *5477:A *5487:B 0.000130499
5 *5466:A *5477:A 7.66438e-05
*RES
1 *5466:Y *5477:A 20.8723 
*END

*D_NET *1122 0.000222952
*CONN
*I *5468:A I *D sky130_fd_sc_hd__inv_1
*I *5467:Y O *D sky130_fd_sc_hd__inv_1
*CAP
1 *5468:A 1.86974e-05
2 *5467:Y 1.86974e-05
3 *5468:A *4392:A0 9.27788e-05
4 *5467:A *5468:A 9.27788e-05
*RES
1 *5467:Y *5468:A 19.4973 
*END

*D_NET *1123 0.000197245
*CONN
*I *5469:A I *D sky130_fd_sc_hd__inv_1
*I *5468:Y O *D sky130_fd_sc_hd__inv_1
*CAP
1 *5469:A 2.25847e-05
2 *5468:Y 2.25847e-05
3 *5469:A *4392:A0 9.27788e-05
4 *5467:A *5469:A 3.52408e-05
5 *178:65 *5469:A 1.37743e-05
6 *178:122 *5469:A 1.02821e-05
*RES
1 *5468:Y *5469:A 19.4973 
*END

*D_NET *1124 0.000847877
*CONN
*I *5470:A I *D sky130_fd_sc_hd__inv_1
*I *5469:Y O *D sky130_fd_sc_hd__inv_1
*CAP
1 *5470:A 0.000219146
2 *5469:Y 0.000219146
3 *5470:A *4392:A0 0.000204782
4 *99:31 *5470:A 0.000121842
5 *103:18 *5470:A 2.3541e-05
6 *179:91 *5470:A 5.94205e-05
*RES
1 *5469:Y *5470:A 31.4527 
*END

*D_NET *1125 0.000669426
*CONN
*I *5471:A I *D sky130_fd_sc_hd__inv_1
*I *5470:Y O *D sky130_fd_sc_hd__inv_1
*CAP
1 *5471:A 0.000249634
2 *5470:Y 0.000249634
3 *5471:A *5472:A 7.44453e-05
4 *103:18 *5471:A 9.57125e-05
*RES
1 *5470:Y *5471:A 22.408 
*END

*D_NET *1126 0.000246929
*CONN
*I *5472:A I *D sky130_fd_sc_hd__inv_1
*I *5471:Y O *D sky130_fd_sc_hd__inv_1
*CAP
1 *5472:A 1.90511e-05
2 *5471:Y 1.90511e-05
3 *5471:A *5472:A 7.44453e-05
4 *103:18 *5472:A 0.000134381
*RES
1 *5471:Y *5472:A 19.8634 
*END

*D_NET *1127 0.000391391
*CONN
*I *5473:A I *D sky130_fd_sc_hd__inv_1
*I *5472:Y O *D sky130_fd_sc_hd__inv_1
*CAP
1 *5473:A 0.000143046
2 *5472:Y 0.000143046
3 *5473:A *5475:A 1.40749e-05
4 *99:31 *5473:A 0
5 *178:73 *5473:A 5.80217e-05
6 *179:91 *5473:A 3.32012e-05
*RES
1 *5472:Y *5473:A 30.1134 
*END

*D_NET *1128 0.000246444
*CONN
*I *5474:A I *D sky130_fd_sc_hd__inv_1
*I *5473:Y O *D sky130_fd_sc_hd__inv_1
*CAP
1 *5474:A 0.000105022
2 *5473:Y 0.000105022
3 *5474:A *5475:A 3.64009e-05
*RES
1 *5473:Y *5474:A 20.7205 
*END

*D_NET *1129 0.000547594
*CONN
*I *5475:A I *D sky130_fd_sc_hd__inv_1
*I *5474:Y O *D sky130_fd_sc_hd__inv_1
*CAP
1 *5475:A 0.000213661
2 *5474:Y 0.000213661
3 *5473:A *5475:A 1.40749e-05
4 *5474:A *5475:A 3.64009e-05
5 *99:31 *5475:A 0
6 *178:73 *5475:A 6.97972e-05
*RES
1 *5474:Y *5475:A 31.0866 
*END

*D_NET *1130 0.000125064
*CONN
*I *5476:A I *D sky130_fd_sc_hd__inv_1
*I *5475:Y O *D sky130_fd_sc_hd__inv_1
*CAP
1 *5476:A 6.2532e-05
2 *5475:Y 6.2532e-05
*RES
1 *5475:Y *5476:A 19.4973 
*END

*D_NET *1131 0.000133652
*CONN
*I *5478:A I *D sky130_fd_sc_hd__inv_1
*I *5476:Y O *D sky130_fd_sc_hd__inv_1
*CAP
1 *5478:A 6.6826e-05
2 *5476:Y 6.6826e-05
*RES
1 *5476:Y *5478:A 19.4973 
*END

*D_NET *1132 0.00048805
*CONN
*I *5479:A I *D sky130_fd_sc_hd__inv_1
*I *5477:Y O *D sky130_fd_sc_hd__inv_1
*CAP
1 *5479:A 0.000212274
2 *5477:Y 0.000212274
3 *5479:A *5480:A 1.64433e-05
4 *5479:A *5481:A 3.48076e-05
5 *5477:A *5479:A 1.22507e-05
6 *99:31 *5479:A 0
*RES
1 *5477:Y *5479:A 30.9259 
*END

*D_NET *1133 0.000874794
*CONN
*I *5487:B I *D sky130_fd_sc_hd__nand2_1
*I *5478:Y O *D sky130_fd_sc_hd__inv_1
*CAP
1 *5487:B 0.00032754
2 *5478:Y 0.00032754
3 *4760:A *5487:B 0
4 *5466:A *5487:B 6.0813e-05
5 *5477:A *5487:B 0.000130499
6 *99:31 *5487:B 0
7 *174:55 *5487:B 2.84026e-05
*RES
1 *5478:Y *5487:B 33.4304 
*END

*D_NET *1134 0.000181918
*CONN
*I *5480:A I *D sky130_fd_sc_hd__inv_1
*I *5479:Y O *D sky130_fd_sc_hd__inv_1
*CAP
1 *5480:A 5.50289e-05
2 *5479:Y 5.50289e-05
3 *5480:A *5481:A 5.54168e-05
4 *5479:A *5480:A 1.64433e-05
*RES
1 *5479:Y *5480:A 19.8634 
*END

*D_NET *1135 0.000461775
*CONN
*I *5481:A I *D sky130_fd_sc_hd__inv_1
*I *5480:Y O *D sky130_fd_sc_hd__inv_1
*CAP
1 *5481:A 0.000175188
2 *5480:Y 0.000175188
3 *5481:A *5482:A 2.11743e-05
4 *5479:A *5481:A 3.48076e-05
5 *5480:A *5481:A 5.54168e-05
*RES
1 *5480:Y *5481:A 21.9527 
*END

*D_NET *1136 0.000608452
*CONN
*I *5482:A I *D sky130_fd_sc_hd__inv_1
*I *5481:Y O *D sky130_fd_sc_hd__inv_1
*CAP
1 *5482:A 0.000240194
2 *5481:Y 0.000240194
3 *5482:A *5483:A 6.39073e-05
4 *5481:A *5482:A 2.11743e-05
5 *99:31 *5482:A 0
6 *103:18 *5482:A 4.29818e-05
*RES
1 *5481:Y *5482:A 32.0509 
*END

*D_NET *1137 0.000253008
*CONN
*I *5483:A I *D sky130_fd_sc_hd__inv_1
*I *5482:Y O *D sky130_fd_sc_hd__inv_1
*CAP
1 *5483:A 2.78148e-05
2 *5482:Y 2.78148e-05
3 *5482:A *5483:A 6.39073e-05
4 *103:18 *5483:A 0.000133471
*RES
1 *5482:Y *5483:A 19.8634 
*END

*D_NET *1138 0.000570555
*CONN
*I *5484:A I *D sky130_fd_sc_hd__inv_1
*I *5483:Y O *D sky130_fd_sc_hd__inv_1
*CAP
1 *5484:A 0.000221284
2 *5483:Y 0.000221284
3 *5484:A *4392:A0 1.64433e-05
4 *99:31 *5484:A 0
5 *103:18 *5484:A 7.82904e-05
6 *179:91 *5484:A 3.3254e-05
*RES
1 *5483:Y *5484:A 30.85 
*END

*D_NET *1139 0.000302131
*CONN
*I *5485:A I *D sky130_fd_sc_hd__inv_1
*I *5484:Y O *D sky130_fd_sc_hd__inv_1
*CAP
1 *5485:A 4.58111e-05
2 *5484:Y 4.58111e-05
3 *5485:A *4392:A0 0.000106627
4 *179:91 *5485:A 0.000103883
*RES
1 *5484:Y *5485:A 20.417 
*END

*D_NET *1140 0.000498504
*CONN
*I *5456:A I *D sky130_fd_sc_hd__inv_1
*I *5485:Y O *D sky130_fd_sc_hd__inv_1
*CAP
1 *5456:A 0.000189203
2 *5485:Y 0.000189203
3 *5456:A *5582:A 0
4 *4396:B *5456:A 1.37411e-05
5 *99:8 *5456:A 2.8066e-05
6 *99:31 *5456:A 0
7 *178:65 *5456:A 7.82904e-05
*RES
1 *5485:Y *5456:A 30.5688 
*END

*D_NET *1141 0.000379383
*CONN
*I *4394:A1 I *D sky130_fd_sc_hd__mux4_2
*I *5486:X O *D sky130_fd_sc_hd__buf_1
*CAP
1 *4394:A1 9.78359e-05
2 *5486:X 9.78359e-05
3 *4394:A0 *4394:A1 0.00013359
4 *5486:A *4394:A1 5.01213e-05
*RES
1 *5486:X *4394:A1 29.8857 
*END

*D_NET *1142 0.000387389
*CONN
*I *5519:A I *D sky130_fd_sc_hd__nand2_1
*I *4412:X O *D sky130_fd_sc_hd__and3_2
*CAP
1 *5519:A 0.000193694
2 *4412:X 0.000193694
3 *5519:A *5536:A 0
*RES
1 *4412:X *5519:A 30.4393 
*END

*D_NET *1143 0.000248373
*CONN
*I *5498:A I *D sky130_fd_sc_hd__inv_1
*I *5519:Y O *D sky130_fd_sc_hd__nand2_1
*CAP
1 *5498:A 0.000112171
2 *5519:Y 0.000112171
3 *5498:A *5509:A 2.40313e-05
*RES
1 *5519:Y *5498:A 20.6223 
*END

*D_NET *1144 0.000106793
*CONN
*I *5489:A I *D sky130_fd_sc_hd__inv_1
*I *5488:Y O *D sky130_fd_sc_hd__inv_1
*CAP
1 *5489:A 5.33963e-05
2 *5488:Y 5.33963e-05
*RES
1 *5488:Y *5489:A 19.4973 
*END

*D_NET *1145 0.000106793
*CONN
*I *5490:A I *D sky130_fd_sc_hd__inv_1
*I *5489:Y O *D sky130_fd_sc_hd__inv_1
*CAP
1 *5490:A 5.33963e-05
2 *5489:Y 5.33963e-05
*RES
1 *5489:Y *5490:A 19.4973 
*END

*D_NET *1146 0.000754358
*CONN
*I *5491:A I *D sky130_fd_sc_hd__inv_1
*I *5490:Y O *D sky130_fd_sc_hd__inv_1
*CAP
1 *5491:A 0.000377179
2 *5490:Y 0.000377179
*RES
1 *5490:Y *5491:A 32.5777 
*END

*D_NET *1147 0.000574203
*CONN
*I *5492:A I *D sky130_fd_sc_hd__inv_1
*I *5491:Y O *D sky130_fd_sc_hd__inv_1
*CAP
1 *5492:A 0.000214816
2 *5491:Y 0.000214816
3 *5492:A *5493:A 0.000124018
4 *5492:A *5494:A 2.05538e-05
*RES
1 *5491:Y *5492:A 22.7563 
*END

*D_NET *1148 0.000332711
*CONN
*I *5493:A I *D sky130_fd_sc_hd__inv_1
*I *5492:Y O *D sky130_fd_sc_hd__inv_1
*CAP
1 *5493:A 5.1008e-05
2 *5492:Y 5.1008e-05
3 *5493:A *5494:A 8.99812e-05
4 *5493:A *1149:6 1.66955e-05
5 *5492:A *5493:A 0.000124018
*RES
1 *5492:Y *5493:A 20.6848 
*END

*D_NET *1149 0.000840823
*CONN
*I *5518:A I *D sky130_fd_sc_hd__buf_1
*I *5494:A I *D sky130_fd_sc_hd__inv_1
*I *5493:Y O *D sky130_fd_sc_hd__inv_1
*CAP
1 *5518:A 9.78203e-05
2 *5494:A 0.000239415
3 *5493:Y 1.95606e-05
4 *1149:6 0.000356796
5 *5518:A *5550:A 0
6 *5492:A *5494:A 2.05538e-05
7 *5493:A *5494:A 8.99812e-05
8 *5493:A *1149:6 1.66955e-05
*RES
1 *5493:Y *1149:6 9.63036 
2 *1149:6 *5494:A 12.9027 
3 *1149:6 *5518:A 19.9429 
*END

*D_NET *1150 0.000106793
*CONN
*I *5495:A I *D sky130_fd_sc_hd__inv_1
*I *5494:Y O *D sky130_fd_sc_hd__inv_1
*CAP
1 *5495:A 5.33963e-05
2 *5494:Y 5.33963e-05
*RES
1 *5494:Y *5495:A 19.4973 
*END

*D_NET *1151 0.000106793
*CONN
*I *5496:A I *D sky130_fd_sc_hd__inv_1
*I *5495:Y O *D sky130_fd_sc_hd__inv_1
*CAP
1 *5496:A 5.33963e-05
2 *5495:Y 5.33963e-05
*RES
1 *5495:Y *5496:A 19.4973 
*END

*D_NET *1152 0.000371742
*CONN
*I *5497:A I *D sky130_fd_sc_hd__inv_1
*I *5496:Y O *D sky130_fd_sc_hd__inv_1
*CAP
1 *5497:A 0.00013263
2 *5496:Y 0.00013263
3 *5497:A *5516:A 9.58203e-05
4 *5497:A *5517:A 1.06618e-05
*RES
1 *5496:Y *5497:A 21.283 
*END

*D_NET *1153 0.000541987
*CONN
*I *5499:A I *D sky130_fd_sc_hd__inv_1
*I *5497:Y O *D sky130_fd_sc_hd__inv_1
*CAP
1 *5499:A 0.000261168
2 *5497:Y 0.000261168
3 *5499:A *5500:A 0
4 *5499:A *5516:A 1.96517e-05
5 *5499:A *5517:A 0
*RES
1 *5497:Y *5499:A 31.8009 
*END

*D_NET *1154 0.000420984
*CONN
*I *5509:A I *D sky130_fd_sc_hd__inv_1
*I *5498:Y O *D sky130_fd_sc_hd__inv_1
*CAP
1 *5509:A 0.000198477
2 *5498:Y 0.000198477
3 *5498:A *5509:A 2.40313e-05
*RES
1 *5498:Y *5509:A 30.5688 
*END

*D_NET *1155 0.000624631
*CONN
*I *5500:A I *D sky130_fd_sc_hd__inv_1
*I *5499:Y O *D sky130_fd_sc_hd__inv_1
*CAP
1 *5500:A 0.00030769
2 *5499:Y 0.00030769
3 *5500:A *5513:A 9.25014e-06
4 *5499:A *5500:A 0
*RES
1 *5499:Y *5500:A 31.8009 
*END

*D_NET *1156 0.000106793
*CONN
*I *5501:A I *D sky130_fd_sc_hd__inv_1
*I *5500:Y O *D sky130_fd_sc_hd__inv_1
*CAP
1 *5501:A 5.33963e-05
2 *5500:Y 5.33963e-05
*RES
1 *5500:Y *5501:A 19.4973 
*END

*D_NET *1157 0.000155673
*CONN
*I *5502:A I *D sky130_fd_sc_hd__inv_1
*I *5501:Y O *D sky130_fd_sc_hd__inv_1
*CAP
1 *5502:A 7.78365e-05
2 *5501:Y 7.78365e-05
*RES
1 *5501:Y *5502:A 19.908 
*END

*D_NET *1158 0.000106796
*CONN
*I *5503:A I *D sky130_fd_sc_hd__inv_1
*I *5502:Y O *D sky130_fd_sc_hd__inv_1
*CAP
1 *5503:A 5.33982e-05
2 *5502:Y 5.33982e-05
*RES
1 *5502:Y *5503:A 19.4973 
*END

*D_NET *1159 0.000549445
*CONN
*I *5504:A I *D sky130_fd_sc_hd__inv_1
*I *5503:Y O *D sky130_fd_sc_hd__inv_1
*CAP
1 *5504:A 0.000187953
2 *5503:Y 0.000187953
3 *5504:A *5505:A 3.28686e-05
4 *5504:A *5506:A 2.3541e-05
5 *5504:A *5507:A 0.00011713
*RES
1 *5503:Y *5504:A 22.1045 
*END

*D_NET *1160 0.000563676
*CONN
*I *5505:A I *D sky130_fd_sc_hd__inv_1
*I *5504:Y O *D sky130_fd_sc_hd__inv_1
*CAP
1 *5505:A 0.000202759
2 *5504:Y 0.000202759
3 *5505:A *5506:A 6.93944e-05
4 *5505:A *5507:A 5.58941e-05
5 *5504:A *5505:A 3.28686e-05
*RES
1 *5504:Y *5505:A 31.4795 
*END

*D_NET *1161 0.000397901
*CONN
*I *5506:A I *D sky130_fd_sc_hd__inv_1
*I *5505:Y O *D sky130_fd_sc_hd__inv_1
*CAP
1 *5506:A 0.000152483
2 *5505:Y 0.000152483
3 *5504:A *5506:A 2.3541e-05
4 *5505:A *5506:A 6.93944e-05
*RES
1 *5505:Y *5506:A 30.1134 
*END

*D_NET *1162 0.00068051
*CONN
*I *5507:A I *D sky130_fd_sc_hd__inv_1
*I *5506:Y O *D sky130_fd_sc_hd__inv_1
*CAP
1 *5507:A 0.000253743
2 *5506:Y 0.000253743
3 *5504:A *5507:A 0.00011713
4 *5505:A *5507:A 5.58941e-05
*RES
1 *5506:Y *5507:A 31.8902 
*END

*D_NET *1163 0.000107065
*CONN
*I *5508:A I *D sky130_fd_sc_hd__inv_1
*I *5507:Y O *D sky130_fd_sc_hd__inv_1
*CAP
1 *5508:A 5.35325e-05
2 *5507:Y 5.35325e-05
*RES
1 *5507:Y *5508:A 19.4973 
*END

*D_NET *1164 0.000345809
*CONN
*I *5510:A I *D sky130_fd_sc_hd__inv_1
*I *5508:Y O *D sky130_fd_sc_hd__inv_1
*CAP
1 *5510:A 0.000172904
2 *5508:Y 0.000172904
*RES
1 *5508:Y *5510:A 30.158 
*END

*D_NET *1165 0.000106793
*CONN
*I *5511:A I *D sky130_fd_sc_hd__inv_1
*I *5509:Y O *D sky130_fd_sc_hd__inv_1
*CAP
1 *5511:A 5.33963e-05
2 *5509:Y 5.33963e-05
*RES
1 *5509:Y *5511:A 19.4973 
*END

*D_NET *1166 0.000137096
*CONN
*I *5519:B I *D sky130_fd_sc_hd__nand2_1
*I *5510:Y O *D sky130_fd_sc_hd__inv_1
*CAP
1 *5519:B 6.85479e-05
2 *5510:Y 6.85479e-05
*RES
1 *5510:Y *5519:B 19.7518 
*END

*D_NET *1167 0.000258005
*CONN
*I *5512:A I *D sky130_fd_sc_hd__inv_1
*I *5511:Y O *D sky130_fd_sc_hd__inv_1
*CAP
1 *5512:A 0.00010696
2 *5511:Y 0.00010696
3 *5512:A *5513:A 4.40835e-05
*RES
1 *5511:Y *5512:A 20.6848 
*END

*D_NET *1168 0.000401215
*CONN
*I *5513:A I *D sky130_fd_sc_hd__inv_1
*I *5512:Y O *D sky130_fd_sc_hd__inv_1
*CAP
1 *5513:A 0.00017394
2 *5512:Y 0.00017394
3 *5500:A *5513:A 9.25014e-06
4 *5512:A *5513:A 4.40835e-05
*RES
1 *5512:Y *5513:A 30.2652 
*END

*D_NET *1169 0.000106793
*CONN
*I *5514:A I *D sky130_fd_sc_hd__inv_1
*I *5513:Y O *D sky130_fd_sc_hd__inv_1
*CAP
1 *5514:A 5.33963e-05
2 *5513:Y 5.33963e-05
*RES
1 *5513:Y *5514:A 19.4973 
*END

*D_NET *1170 0.000106793
*CONN
*I *5515:A I *D sky130_fd_sc_hd__inv_1
*I *5514:Y O *D sky130_fd_sc_hd__inv_1
*CAP
1 *5515:A 5.33963e-05
2 *5514:Y 5.33963e-05
*RES
1 *5514:Y *5515:A 19.4973 
*END

*D_NET *1171 0.00036693
*CONN
*I *5516:A I *D sky130_fd_sc_hd__inv_1
*I *5515:Y O *D sky130_fd_sc_hd__inv_1
*CAP
1 *5516:A 0.000125729
2 *5515:Y 0.000125729
3 *5497:A *5516:A 9.58203e-05
4 *5499:A *5516:A 1.96517e-05
*RES
1 *5515:Y *5516:A 21.408 
*END

*D_NET *1172 0.000437444
*CONN
*I *5517:A I *D sky130_fd_sc_hd__inv_1
*I *5516:Y O *D sky130_fd_sc_hd__inv_1
*CAP
1 *5517:A 0.000213391
2 *5516:Y 0.000213391
3 *5497:A *5517:A 1.06618e-05
4 *5499:A *5517:A 0
*RES
1 *5516:Y *5517:A 30.9795 
*END

*D_NET *1173 0.000106793
*CONN
*I *5488:A I *D sky130_fd_sc_hd__inv_1
*I *5517:Y O *D sky130_fd_sc_hd__inv_1
*CAP
1 *5488:A 5.33963e-05
2 *5517:Y 5.33963e-05
*RES
1 *5517:Y *5488:A 19.4973 
*END

*D_NET *1174 0.000478998
*CONN
*I *4394:A2 I *D sky130_fd_sc_hd__mux4_2
*I *5518:X O *D sky130_fd_sc_hd__buf_1
*CAP
1 *4394:A2 0.000139501
2 *5518:X 0.000139501
3 *4394:A2 *4394:A3 0.000144773
4 *4394:A2 *5550:A 5.52238e-05
*RES
1 *5518:X *4394:A2 21.6179 
*END

*D_NET *1175 6.37568e-05
*CONN
*I *5551:A I *D sky130_fd_sc_hd__nand2_1
*I *4413:X O *D sky130_fd_sc_hd__and3_2
*CAP
1 *5551:A 3.18784e-05
2 *4413:X 3.18784e-05
*RES
1 *4413:X *5551:A 19.1357 
*END

*D_NET *1176 0.000754794
*CONN
*I *5530:A I *D sky130_fd_sc_hd__inv_1
*I *5551:Y O *D sky130_fd_sc_hd__nand2_1
*CAP
1 *5530:A 0.000160651
2 *5551:Y 0.000160651
3 *5530:A *5541:A 5.33783e-05
4 *5530:A *5543:A 1.66856e-05
5 *5530:A *5551:B 0.000306917
6 *4412:B *5530:A 0
7 *103:24 *5530:A 5.65123e-05
8 *174:94 *5530:A 0
*RES
1 *5551:Y *5530:A 32.1312 
*END

*D_NET *1177 0.000299235
*CONN
*I *5521:A I *D sky130_fd_sc_hd__inv_1
*I *5520:Y O *D sky130_fd_sc_hd__inv_1
*CAP
1 *5521:A 1.48454e-05
2 *5520:Y 1.48454e-05
3 *5521:A *5520:A 0.000134772
4 *120:124 *5521:A 0.000134772
*RES
1 *5520:Y *5521:A 19.8634 
*END

*D_NET *1178 0.000523207
*CONN
*I *5522:A I *D sky130_fd_sc_hd__inv_1
*I *5521:Y O *D sky130_fd_sc_hd__inv_1
*CAP
1 *5522:A 0.000149038
2 *5521:Y 0.000149038
3 *5522:A *5520:A 0.000181543
4 *120:124 *5522:A 4.35881e-05
*RES
1 *5521:Y *5522:A 21.8857 
*END

*D_NET *1179 0.000582246
*CONN
*I *5523:A I *D sky130_fd_sc_hd__inv_1
*I *5522:Y O *D sky130_fd_sc_hd__inv_1
*CAP
1 *5523:A 0.000215647
2 *5522:Y 0.000215647
3 *5523:A *5526:A 2.80853e-05
4 *120:124 *5523:A 0.000122866
*RES
1 *5522:Y *5523:A 30.6759 
*END

*D_NET *1180 0.000228123
*CONN
*I *5524:A I *D sky130_fd_sc_hd__inv_1
*I *5523:Y O *D sky130_fd_sc_hd__inv_1
*CAP
1 *5524:A 4.42944e-05
2 *5523:Y 4.42944e-05
3 *5524:A *5526:A 0.000139534
*RES
1 *5523:Y *5524:A 19.908 
*END

*D_NET *1181 0.000156494
*CONN
*I *5525:A I *D sky130_fd_sc_hd__inv_1
*I *5524:Y O *D sky130_fd_sc_hd__inv_1
*CAP
1 *5525:A 3.03862e-05
2 *5524:Y 3.03862e-05
3 *5525:A *5526:A 9.57215e-05
*RES
1 *5524:Y *5525:A 19.4973 
*END

*D_NET *1182 0.00126132
*CONN
*I *5550:A I *D sky130_fd_sc_hd__buf_1
*I *5526:A I *D sky130_fd_sc_hd__inv_1
*I *5525:Y O *D sky130_fd_sc_hd__inv_1
*CAP
1 *5550:A 0.000220973
2 *5526:A 0.000250403
3 *5525:Y 0
4 *1182:4 0.000471376
5 *4394:A2 *5550:A 5.52238e-05
6 *4394:S0 *5550:A 0
7 *4394:S1 *5550:A 0
8 *5518:A *5550:A 0
9 *5523:A *5526:A 2.80853e-05
10 *5524:A *5526:A 0.000139534
11 *5525:A *5526:A 9.57215e-05
*RES
1 *5525:Y *1182:4 9.3 
2 *1182:4 *5526:A 14.0366 
3 *1182:4 *5550:A 22.3268 
*END

*D_NET *1183 0.000106793
*CONN
*I *5527:A I *D sky130_fd_sc_hd__inv_1
*I *5526:Y O *D sky130_fd_sc_hd__inv_1
*CAP
1 *5527:A 5.33963e-05
2 *5526:Y 5.33963e-05
*RES
1 *5526:Y *5527:A 19.4973 
*END

*D_NET *1184 0.000106793
*CONN
*I *5528:A I *D sky130_fd_sc_hd__inv_1
*I *5527:Y O *D sky130_fd_sc_hd__inv_1
*CAP
1 *5528:A 5.33963e-05
2 *5527:Y 5.33963e-05
*RES
1 *5527:Y *5528:A 19.4973 
*END

*D_NET *1185 0.000106793
*CONN
*I *5529:A I *D sky130_fd_sc_hd__inv_1
*I *5528:Y O *D sky130_fd_sc_hd__inv_1
*CAP
1 *5529:A 5.33963e-05
2 *5528:Y 5.33963e-05
*RES
1 *5528:Y *5529:A 19.4973 
*END

*D_NET *1186 0.000106793
*CONN
*I *5531:A I *D sky130_fd_sc_hd__inv_1
*I *5529:Y O *D sky130_fd_sc_hd__inv_1
*CAP
1 *5531:A 5.33963e-05
2 *5529:Y 5.33963e-05
*RES
1 *5529:Y *5531:A 19.4973 
*END

*D_NET *1187 0.000174798
*CONN
*I *5541:A I *D sky130_fd_sc_hd__inv_1
*I *5530:Y O *D sky130_fd_sc_hd__inv_1
*CAP
1 *5541:A 1.2849e-05
2 *5530:Y 1.2849e-05
3 *5530:A *5541:A 5.33783e-05
4 *103:24 *5541:A 9.57215e-05
*RES
1 *5530:Y *5541:A 19.4973 
*END

*D_NET *1188 0.000106793
*CONN
*I *5532:A I *D sky130_fd_sc_hd__inv_1
*I *5531:Y O *D sky130_fd_sc_hd__inv_1
*CAP
1 *5532:A 5.33963e-05
2 *5531:Y 5.33963e-05
*RES
1 *5531:Y *5532:A 19.4973 
*END

*D_NET *1189 0.000336159
*CONN
*I *5533:A I *D sky130_fd_sc_hd__inv_1
*I *5532:Y O *D sky130_fd_sc_hd__inv_1
*CAP
1 *5533:A 0.00015404
2 *5532:Y 0.00015404
3 *5533:A *5537:A 0
4 *120:124 *5533:A 2.80789e-05
*RES
1 *5532:Y *5533:A 29.8545 
*END

*D_NET *1190 0.000156494
*CONN
*I *5534:A I *D sky130_fd_sc_hd__inv_1
*I *5533:Y O *D sky130_fd_sc_hd__inv_1
*CAP
1 *5534:A 3.03862e-05
2 *5533:Y 3.03862e-05
3 *120:124 *5534:A 9.57215e-05
*RES
1 *5533:Y *5534:A 19.4973 
*END

*D_NET *1191 0.000410901
*CONN
*I *5535:A I *D sky130_fd_sc_hd__inv_1
*I *5534:Y O *D sky130_fd_sc_hd__inv_1
*CAP
1 *5535:A 6.43456e-05
2 *5534:Y 6.43456e-05
3 *4412:B *5535:A 6.57036e-05
4 *4412:C *5535:A 0.000151806
5 *120:124 *5535:A 6.46999e-05
*RES
1 *5534:Y *5535:A 20.6848 
*END

*D_NET *1192 0.000365207
*CONN
*I *5536:A I *D sky130_fd_sc_hd__inv_1
*I *5535:Y O *D sky130_fd_sc_hd__inv_1
*CAP
1 *5536:A 0.0001258
2 *5535:Y 0.0001258
3 *5536:A *5537:A 7.83659e-05
4 *4412:C *5536:A 3.52408e-05
5 *5519:A *5536:A 0
*RES
1 *5535:Y *5536:A 29.8098 
*END

*D_NET *1193 0.00081531
*CONN
*I *5537:A I *D sky130_fd_sc_hd__inv_1
*I *5536:Y O *D sky130_fd_sc_hd__inv_1
*CAP
1 *5537:A 0.00024438
2 *5536:Y 0.00024438
3 *4412:A *5537:A 0
4 *4413:C *5537:A 0.000241198
5 *4654:A *5537:A 6.98553e-06
6 *5533:A *5537:A 0
7 *5536:A *5537:A 7.83659e-05
*RES
1 *5536:Y *5537:A 32.542 
*END

*D_NET *1194 0.00056758
*CONN
*I *5538:A I *D sky130_fd_sc_hd__inv_1
*I *5537:Y O *D sky130_fd_sc_hd__inv_1
*CAP
1 *5538:A 0.000110007
2 *5537:Y 0.000110007
3 *5538:A *5539:A 7.06164e-05
4 *5538:A *5540:A 4.12921e-06
5 *4654:A *5538:A 0.00027282
*RES
1 *5537:Y *5538:A 21.8857 
*END

*D_NET *1195 0.000203481
*CONN
*I *5539:A I *D sky130_fd_sc_hd__inv_1
*I *5538:Y O *D sky130_fd_sc_hd__inv_1
*CAP
1 *5539:A 4.08928e-05
2 *5538:Y 4.08928e-05
3 *5539:A *5540:A 5.10792e-05
4 *5538:A *5539:A 7.06164e-05
*RES
1 *5538:Y *5539:A 19.8634 
*END

*D_NET *1196 0.000514569
*CONN
*I *5540:A I *D sky130_fd_sc_hd__inv_1
*I *5539:Y O *D sky130_fd_sc_hd__inv_1
*CAP
1 *5540:A 0.000197088
2 *5539:Y 0.000197088
3 *4412:A *5540:A 3.34687e-05
4 *5538:A *5540:A 4.12921e-06
5 *5539:A *5540:A 5.10792e-05
6 *103:30 *5540:A 3.17163e-05
*RES
1 *5539:Y *5540:A 30.6759 
*END

*D_NET *1197 0.000160033
*CONN
*I *5542:A I *D sky130_fd_sc_hd__inv_1
*I *5540:Y O *D sky130_fd_sc_hd__inv_1
*CAP
1 *5542:A 4.40676e-05
2 *5540:Y 4.40676e-05
3 *103:24 *5542:A 7.18982e-05
*RES
1 *5540:Y *5542:A 19.4973 
*END

*D_NET *1198 0.000181412
*CONN
*I *5543:A I *D sky130_fd_sc_hd__inv_1
*I *5541:Y O *D sky130_fd_sc_hd__inv_1
*CAP
1 *5543:A 2.84397e-05
2 *5541:Y 2.84397e-05
3 *5543:A *5551:B 1.21258e-05
4 *5530:A *5543:A 1.66856e-05
5 *103:24 *5543:A 9.57215e-05
*RES
1 *5541:Y *5543:A 19.4973 
*END

*D_NET *1199 0.00115136
*CONN
*I *5551:B I *D sky130_fd_sc_hd__nand2_1
*I *5542:Y O *D sky130_fd_sc_hd__inv_1
*CAP
1 *5551:B 0.000396327
2 *5542:Y 0.000396327
3 *5530:A *5551:B 0.000306917
4 *5543:A *5551:B 1.21258e-05
5 *103:24 *5551:B 3.96585e-05
6 *174:94 *5551:B 0
*RES
1 *5542:Y *5551:B 33.5732 
*END

*D_NET *1200 0.000220337
*CONN
*I *5544:A I *D sky130_fd_sc_hd__inv_1
*I *5543:Y O *D sky130_fd_sc_hd__inv_1
*CAP
1 *5544:A 4.27826e-05
2 *5543:Y 4.27826e-05
3 *103:24 *5544:A 0.000134772
*RES
1 *5543:Y *5544:A 19.8634 
*END

*D_NET *1201 0.000315998
*CONN
*I *5545:A I *D sky130_fd_sc_hd__inv_1
*I *5544:Y O *D sky130_fd_sc_hd__inv_1
*CAP
1 *5545:A 0.000136886
2 *5544:Y 0.000136886
3 *4412:B *5545:A 0
4 *4654:A *5545:A 6.98553e-06
5 *103:24 *5545:A 3.52408e-05
*RES
1 *5544:Y *5545:A 29.8098 
*END

*D_NET *1202 0.000610272
*CONN
*I *5546:A I *D sky130_fd_sc_hd__inv_1
*I *5545:Y O *D sky130_fd_sc_hd__inv_1
*CAP
1 *5546:A 9.43087e-05
2 *5545:Y 9.43087e-05
3 *5546:A *5547:A 7.51545e-05
4 *5546:A *5548:A 3.79596e-05
5 *4654:A *5546:A 0.000308541
*RES
1 *5545:Y *5546:A 22.408 
*END

*D_NET *1203 0.000188754
*CONN
*I *5547:A I *D sky130_fd_sc_hd__inv_1
*I *5546:Y O *D sky130_fd_sc_hd__inv_1
*CAP
1 *5547:A 2.86501e-05
2 *5546:Y 2.86501e-05
3 *5547:A *5548:A 5.62995e-05
4 *5546:A *5547:A 7.51545e-05
*RES
1 *5546:Y *5547:A 19.8634 
*END

*D_NET *1204 0.000585227
*CONN
*I *5548:A I *D sky130_fd_sc_hd__inv_1
*I *5547:Y O *D sky130_fd_sc_hd__inv_1
*CAP
1 *5548:A 0.000212207
2 *5547:Y 0.000212207
3 *4654:A *5548:A 6.65548e-05
4 *5546:A *5548:A 3.79596e-05
5 *5547:A *5548:A 5.62995e-05
*RES
1 *5547:Y *5548:A 22.3634 
*END

*D_NET *1205 0.00047596
*CONN
*I *5549:A I *D sky130_fd_sc_hd__inv_1
*I *5548:Y O *D sky130_fd_sc_hd__inv_1
*CAP
1 *5549:A 0.000178452
2 *5548:Y 0.000178452
3 *5549:A *5520:A 1.66856e-05
4 *4654:A *5549:A 3.52408e-05
5 *120:124 *5549:A 6.71295e-05
*RES
1 *5548:Y *5549:A 30.5241 
*END

*D_NET *1206 0.000651899
*CONN
*I *5520:A I *D sky130_fd_sc_hd__inv_1
*I *5549:Y O *D sky130_fd_sc_hd__inv_1
*CAP
1 *5520:A 0.000120446
2 *5549:Y 0.000120446
3 *5521:A *5520:A 0.000134772
4 *5522:A *5520:A 0.000181543
5 *5549:A *5520:A 1.66856e-05
6 *120:124 *5520:A 7.80059e-05
*RES
1 *5549:Y *5520:A 22.658 
*END

*D_NET *1207 0.000582848
*CONN
*I *4394:A3 I *D sky130_fd_sc_hd__mux4_2
*I *5550:X O *D sky130_fd_sc_hd__buf_1
*CAP
1 *4394:A3 0.000219038
2 *5550:X 0.000219038
3 *4394:A2 *4394:A3 0.000144773
*RES
1 *5550:X *4394:A3 21.6179 
*END

*D_NET *1208 0.000104357
*CONN
*I *5583:A I *D sky130_fd_sc_hd__nand2_1
*I *4414:X O *D sky130_fd_sc_hd__and3_2
*CAP
1 *5583:A 7.67105e-06
2 *4414:X 7.67105e-06
3 *5583:A *5583:B 5.71472e-05
4 *4414:C *5583:A 3.18676e-05
*RES
1 *4414:X *5583:A 19.1357 
*END

*D_NET *1209 0.000381494
*CONN
*I *5562:A I *D sky130_fd_sc_hd__inv_1
*I *5583:Y O *D sky130_fd_sc_hd__nand2_1
*CAP
1 *5562:A 0.000159433
2 *5583:Y 0.000159433
3 *5562:A *4521:CLK 0
4 *5562:A *5575:A 6.26281e-05
5 *4414:B *5562:A 0
*RES
1 *5583:Y *5562:A 30.6491 
*END

*D_NET *1210 0.000106793
*CONN
*I *5553:A I *D sky130_fd_sc_hd__inv_1
*I *5552:Y O *D sky130_fd_sc_hd__inv_1
*CAP
1 *5553:A 5.33963e-05
2 *5552:Y 5.33963e-05
*RES
1 *5552:Y *5553:A 19.4973 
*END

*D_NET *1211 0.000442301
*CONN
*I *5554:A I *D sky130_fd_sc_hd__inv_1
*I *5553:Y O *D sky130_fd_sc_hd__inv_1
*CAP
1 *5554:A 0.00022115
2 *5553:Y 0.00022115
3 *5434:A *5554:A 0
4 *5455:A *5554:A 0
*RES
1 *5553:Y *5554:A 30.6759 
*END

*D_NET *1212 0.000204553
*CONN
*I *5555:A I *D sky130_fd_sc_hd__inv_1
*I *5554:Y O *D sky130_fd_sc_hd__inv_1
*CAP
1 *5555:A 0.000102277
2 *5554:Y 0.000102277
*RES
1 *5554:Y *5555:A 20.3188 
*END

*D_NET *1213 0.000605821
*CONN
*I *5556:A I *D sky130_fd_sc_hd__inv_1
*I *5555:Y O *D sky130_fd_sc_hd__inv_1
*CAP
1 *5556:A 0.000281427
2 *5555:Y 0.000281427
3 *5455:A *5556:A 3.92757e-05
4 *5455:B *5556:A 3.69047e-06
5 *174:55 *5556:A 0
*RES
1 *5555:Y *5556:A 31.5688 
*END

*D_NET *1214 0.000973981
*CONN
*I *5557:A I *D sky130_fd_sc_hd__inv_1
*I *5556:Y O *D sky130_fd_sc_hd__inv_1
*CAP
1 *5557:A 0.000462352
2 *5556:Y 0.000462352
3 *5557:A *5582:A 4.46186e-06
4 *4396:B *5557:A 1.67305e-05
5 *5458:A *5557:A 0
6 *99:8 *5557:A 2.80853e-05
*RES
1 *5556:Y *5557:A 33.5509 
*END

*D_NET *1215 0.000581995
*CONN
*I *5558:A I *D sky130_fd_sc_hd__inv_1
*I *5582:A I *D sky130_fd_sc_hd__buf_1
*I *5557:Y O *D sky130_fd_sc_hd__inv_1
*CAP
1 *5558:A 1.34808e-05
2 *5582:A 0.000187141
3 *5557:Y 1.11162e-05
4 *1215:6 0.000211739
5 *4396:B *5558:A 3.21545e-05
6 *4396:B *1215:6 1.66856e-05
7 *5456:A *5582:A 0
8 *5557:A *5582:A 4.46186e-06
9 *99:8 *5558:A 7.18982e-05
10 *99:8 *1215:6 3.33174e-05
*RES
1 *5557:Y *1215:6 9.63036 
2 *1215:6 *5582:A 21.1571 
3 *1215:6 *5558:A 9.99196 
*END

*D_NET *1216 0.000174798
*CONN
*I *5559:A I *D sky130_fd_sc_hd__inv_1
*I *5558:Y O *D sky130_fd_sc_hd__inv_1
*CAP
1 *5559:A 1.2849e-05
2 *5558:Y 1.2849e-05
3 *4396:B *5559:A 5.33783e-05
4 *99:8 *5559:A 9.57215e-05
*RES
1 *5558:Y *5559:A 19.4973 
*END

*D_NET *1217 0.000174798
*CONN
*I *5560:A I *D sky130_fd_sc_hd__inv_1
*I *5559:Y O *D sky130_fd_sc_hd__inv_1
*CAP
1 *5560:A 1.2849e-05
2 *5559:Y 1.2849e-05
3 *4396:B *5560:A 5.33783e-05
4 *99:8 *5560:A 9.57215e-05
*RES
1 *5559:Y *5560:A 19.4973 
*END

*D_NET *1218 0.000174798
*CONN
*I *5561:A I *D sky130_fd_sc_hd__inv_1
*I *5560:Y O *D sky130_fd_sc_hd__inv_1
*CAP
1 *5561:A 1.2849e-05
2 *5560:Y 1.2849e-05
3 *4396:B *5561:A 5.33783e-05
4 *99:8 *5561:A 9.57215e-05
*RES
1 *5560:Y *5561:A 19.4973 
*END

*D_NET *1219 0.000174798
*CONN
*I *5563:A I *D sky130_fd_sc_hd__inv_1
*I *5561:Y O *D sky130_fd_sc_hd__inv_1
*CAP
1 *5563:A 1.2849e-05
2 *5561:Y 1.2849e-05
3 *4396:B *5563:A 5.33783e-05
4 *99:8 *5563:A 9.57215e-05
*RES
1 *5561:Y *5563:A 19.4973 
*END

*D_NET *1220 0.000162983
*CONN
*I *5573:A I *D sky130_fd_sc_hd__inv_1
*I *5562:Y O *D sky130_fd_sc_hd__inv_1
*CAP
1 *5573:A 5.33418e-05
2 *5562:Y 5.33418e-05
3 *5573:A *5575:A 5.62995e-05
*RES
1 *5562:Y *5573:A 19.8634 
*END

*D_NET *1221 0.000187039
*CONN
*I *5564:A I *D sky130_fd_sc_hd__inv_1
*I *5563:Y O *D sky130_fd_sc_hd__inv_1
*CAP
1 *5564:A 2.27613e-05
2 *5563:Y 2.27613e-05
3 *4396:B *5564:A 4.88402e-05
4 *99:8 *5564:A 9.26762e-05
*RES
1 *5563:Y *5564:A 19.4973 
*END

*D_NET *1222 0.000175581
*CONN
*I *5565:A I *D sky130_fd_sc_hd__inv_1
*I *5564:Y O *D sky130_fd_sc_hd__inv_1
*CAP
1 *5565:A 1.34619e-05
2 *5564:Y 1.34619e-05
3 *4396:B *5565:A 5.33783e-05
4 *99:8 *5565:A 9.52792e-05
*RES
1 *5564:Y *5565:A 19.4973 
*END

*D_NET *1223 0.000174798
*CONN
*I *5566:A I *D sky130_fd_sc_hd__inv_1
*I *5565:Y O *D sky130_fd_sc_hd__inv_1
*CAP
1 *5566:A 1.2849e-05
2 *5565:Y 1.2849e-05
3 *4396:B *5566:A 5.33783e-05
4 *99:8 *5566:A 9.57215e-05
*RES
1 *5565:Y *5566:A 19.4973 
*END

*D_NET *1224 0.000849883
*CONN
*I *5567:A I *D sky130_fd_sc_hd__inv_1
*I *5566:Y O *D sky130_fd_sc_hd__inv_1
*CAP
1 *5567:A 0.00029901
2 *5566:Y 0.00029901
3 *5567:A *5568:A 9.91086e-05
4 *99:8 *5567:A 7.61109e-05
5 *120:14 *5567:A 7.6644e-05
6 *174:55 *5567:A 0
*RES
1 *5566:Y *5567:A 32.9527 
*END

*D_NET *1225 0.00057641
*CONN
*I *5568:A I *D sky130_fd_sc_hd__inv_1
*I *5567:Y O *D sky130_fd_sc_hd__inv_1
*CAP
1 *5568:A 0.000157198
2 *5567:Y 0.000157198
3 *5568:A *5569:A 1.96517e-05
4 *4410:A *5568:A 4.42158e-05
5 *5567:A *5568:A 9.91086e-05
6 *174:43 *5568:A 9.90367e-05
7 *174:55 *5568:A 0
*RES
1 *5567:Y *5568:A 31.2295 
*END

*D_NET *1226 0.000180176
*CONN
*I *5569:A I *D sky130_fd_sc_hd__inv_1
*I *5568:Y O *D sky130_fd_sc_hd__inv_1
*CAP
1 *5569:A 2.44877e-05
2 *5568:Y 2.44877e-05
3 *4410:A *5569:A 9.27788e-05
4 *5568:A *5569:A 1.96517e-05
5 *174:43 *5569:A 1.87703e-05
*RES
1 *5568:Y *5569:A 19.4973 
*END

*D_NET *1227 0.00016283
*CONN
*I *5570:A I *D sky130_fd_sc_hd__inv_1
*I *5569:Y O *D sky130_fd_sc_hd__inv_1
*CAP
1 *5570:A 1.45079e-05
2 *5569:Y 1.45079e-05
3 *4410:A *5570:A 9.57215e-05
4 *174:43 *5570:A 3.80922e-05
*RES
1 *5569:Y *5570:A 19.4973 
*END

*D_NET *1228 0.00016283
*CONN
*I *5571:A I *D sky130_fd_sc_hd__inv_1
*I *5570:Y O *D sky130_fd_sc_hd__inv_1
*CAP
1 *5571:A 1.45079e-05
2 *5570:Y 1.45079e-05
3 *4410:A *5571:A 9.57215e-05
4 *174:43 *5571:A 3.80922e-05
*RES
1 *5570:Y *5571:A 19.4973 
*END

*D_NET *1229 0.00016283
*CONN
*I *5572:A I *D sky130_fd_sc_hd__inv_1
*I *5571:Y O *D sky130_fd_sc_hd__inv_1
*CAP
1 *5572:A 1.45079e-05
2 *5571:Y 1.45079e-05
3 *4410:A *5572:A 9.57215e-05
4 *174:43 *5572:A 3.80922e-05
*RES
1 *5571:Y *5572:A 19.4973 
*END

*D_NET *1230 0.00016283
*CONN
*I *5574:A I *D sky130_fd_sc_hd__inv_1
*I *5572:Y O *D sky130_fd_sc_hd__inv_1
*CAP
1 *5574:A 1.45079e-05
2 *5572:Y 1.45079e-05
3 *4410:A *5574:A 9.57215e-05
4 *174:43 *5574:A 3.80922e-05
*RES
1 *5572:Y *5574:A 19.4973 
*END

*D_NET *1231 0.00071318
*CONN
*I *5575:A I *D sky130_fd_sc_hd__inv_1
*I *5573:Y O *D sky130_fd_sc_hd__inv_1
*CAP
1 *5575:A 0.000297126
2 *5573:Y 0.000297126
3 *5562:A *5575:A 6.26281e-05
4 *5573:A *5575:A 5.62995e-05
*RES
1 *5573:Y *5575:A 31.908 
*END

*D_NET *1232 0.000859813
*CONN
*I *5583:B I *D sky130_fd_sc_hd__nand2_1
*I *5574:Y O *D sky130_fd_sc_hd__inv_1
*CAP
1 *5583:B 8.9857e-05
2 *5574:Y 8.9857e-05
3 *4410:A *5583:B 0.000164756
4 *4414:C *5583:B 8.00346e-05
5 *5583:A *5583:B 5.71472e-05
6 *174:43 *5583:B 0.000378161
*RES
1 *5574:Y *5583:B 23.0554 
*END

*D_NET *1233 0.000106793
*CONN
*I *5576:A I *D sky130_fd_sc_hd__inv_1
*I *5575:Y O *D sky130_fd_sc_hd__inv_1
*CAP
1 *5576:A 5.33963e-05
2 *5575:Y 5.33963e-05
*RES
1 *5575:Y *5576:A 19.4973 
*END

*D_NET *1234 0.00050804
*CONN
*I *5577:A I *D sky130_fd_sc_hd__inv_1
*I *5576:Y O *D sky130_fd_sc_hd__inv_1
*CAP
1 *5577:A 0.00016595
2 *5576:Y 0.00016595
3 *5577:A *5578:A 0.000134772
4 *5577:A *5579:A 4.13672e-05
*RES
1 *5576:Y *5577:A 22.1045 
*END

*D_NET *1235 0.000239643
*CONN
*I *5578:A I *D sky130_fd_sc_hd__inv_1
*I *5577:Y O *D sky130_fd_sc_hd__inv_1
*CAP
1 *5578:A 2.42856e-05
2 *5577:Y 2.42856e-05
3 *5578:A *5579:A 5.62995e-05
4 *5577:A *5578:A 0.000134772
*RES
1 *5577:Y *5578:A 19.8634 
*END

*D_NET *1236 0.000391469
*CONN
*I *5579:A I *D sky130_fd_sc_hd__inv_1
*I *5578:Y O *D sky130_fd_sc_hd__inv_1
*CAP
1 *5579:A 0.000146901
2 *5578:Y 0.000146901
3 *5577:A *5579:A 4.13672e-05
4 *5578:A *5579:A 5.62995e-05
*RES
1 *5578:Y *5579:A 21.5866 
*END

*D_NET *1237 0.000106793
*CONN
*I *5580:A I *D sky130_fd_sc_hd__inv_1
*I *5579:Y O *D sky130_fd_sc_hd__inv_1
*CAP
1 *5580:A 5.33963e-05
2 *5579:Y 5.33963e-05
*RES
1 *5579:Y *5580:A 19.4973 
*END

*D_NET *1238 0.000106793
*CONN
*I *5581:A I *D sky130_fd_sc_hd__inv_1
*I *5580:Y O *D sky130_fd_sc_hd__inv_1
*CAP
1 *5581:A 5.33963e-05
2 *5580:Y 5.33963e-05
*RES
1 *5580:Y *5581:A 19.4973 
*END

*D_NET *1239 0.000106793
*CONN
*I *5552:A I *D sky130_fd_sc_hd__inv_1
*I *5581:Y O *D sky130_fd_sc_hd__inv_1
*CAP
1 *5552:A 5.33963e-05
2 *5581:Y 5.33963e-05
*RES
1 *5581:Y *5552:A 19.4973 
*END

*D_NET *1240 0.00237466
*CONN
*I *4392:A0 I *D sky130_fd_sc_hd__mux4_2
*I *5582:X O *D sky130_fd_sc_hd__buf_1
*CAP
1 *4392:A0 0.000672973
2 *5582:X 0.000672973
3 *5467:A *4392:A0 6.98368e-05
4 *5468:A *4392:A0 9.27788e-05
5 *5469:A *4392:A0 9.27788e-05
6 *5470:A *4392:A0 0.000204782
7 *5484:A *4392:A0 1.64433e-05
8 *5485:A *4392:A0 0.000106627
9 *178:65 *4392:A0 5.44602e-05
10 *178:122 *4392:A0 0.000200715
11 *179:91 *4392:A0 0.000190289
*RES
1 *5582:X *4392:A0 31.1893 
*END

*D_NET *1241 0.00068333
*CONN
*I *5615:A I *D sky130_fd_sc_hd__nand2_1
*I *4415:X O *D sky130_fd_sc_hd__and3_2
*CAP
1 *5615:A 0.000213902
2 *4415:X 0.000213902
3 *5615:A *5605:A 4.99272e-05
4 *5615:A *5607:A 7.90536e-05
5 *5615:A *5615:B 1.97695e-05
6 *4365:A *5615:A 0.000106776
*RES
1 *4415:X *5615:A 23.2786 
*END

*D_NET *1242 0.000312837
*CONN
*I *5594:A I *D sky130_fd_sc_hd__inv_1
*I *5615:Y O *D sky130_fd_sc_hd__nand2_1
*CAP
1 *5594:A 4.28644e-05
2 *5615:Y 4.28644e-05
3 *5594:A *5605:A 0.000122866
4 *5594:A *5607:A 1.74352e-05
5 *5594:A *5615:B 6.79511e-05
6 *4365:A *5594:A 1.8855e-05
*RES
1 *5615:Y *5594:A 20.4929 
*END

*D_NET *1243 0.000625613
*CONN
*I *5585:A I *D sky130_fd_sc_hd__inv_1
*I *5584:Y O *D sky130_fd_sc_hd__inv_1
*CAP
1 *5585:A 0.000260807
2 *5584:Y 0.000260807
3 *5585:A *5584:A 4.10607e-05
4 *5585:A *5612:A 6.29385e-05
5 *120:30 *5585:A 0
6 *179:93 *5585:A 0
*RES
1 *5584:Y *5585:A 31.4973 
*END

*D_NET *1244 0.000108778
*CONN
*I *5586:A I *D sky130_fd_sc_hd__inv_1
*I *5585:Y O *D sky130_fd_sc_hd__inv_1
*CAP
1 *5586:A 4.84196e-05
2 *5585:Y 4.84196e-05
3 *5586:A *5588:A 1.19393e-05
*RES
1 *5585:Y *5586:A 19.4973 
*END

*D_NET *1245 0.000172502
*CONN
*I *5587:A I *D sky130_fd_sc_hd__inv_1
*I *5586:Y O *D sky130_fd_sc_hd__inv_1
*CAP
1 *5587:A 6.88113e-05
2 *5586:Y 6.88113e-05
3 *5587:A *5588:A 3.4879e-05
*RES
1 *5586:Y *5587:A 19.8634 
*END

*D_NET *1246 0.00064308
*CONN
*I *5588:A I *D sky130_fd_sc_hd__inv_1
*I *5587:Y O *D sky130_fd_sc_hd__inv_1
*CAP
1 *5588:A 0.00024504
2 *5587:Y 0.00024504
3 *5588:A *5614:A 2.80789e-05
4 *5586:A *5588:A 1.19393e-05
5 *5587:A *5588:A 3.4879e-05
6 *103:24 *5588:A 2.80789e-05
7 *179:93 *5588:A 3.34672e-05
8 *179:128 *5588:A 1.65558e-05
*RES
1 *5587:Y *5588:A 31.3902 
*END

*D_NET *1247 0.000222952
*CONN
*I *5589:A I *D sky130_fd_sc_hd__inv_1
*I *5588:Y O *D sky130_fd_sc_hd__inv_1
*CAP
1 *5589:A 1.86974e-05
2 *5588:Y 1.86974e-05
3 *5589:A *5614:A 9.27788e-05
4 *103:24 *5589:A 9.27788e-05
*RES
1 *5588:Y *5589:A 19.4973 
*END

*D_NET *1248 0.00169677
*CONN
*I *5614:A I *D sky130_fd_sc_hd__buf_1
*I *5590:A I *D sky130_fd_sc_hd__inv_1
*I *5589:Y O *D sky130_fd_sc_hd__inv_1
*CAP
1 *5614:A 0.000120657
2 *5590:A 0.000399546
3 *5589:Y 0
4 *1248:4 0.000520203
5 *4661:A *5590:A 0
6 *5588:A *5614:A 2.80789e-05
7 *5589:A *5614:A 9.27788e-05
8 *103:18 *5614:A 3.57366e-05
9 *103:24 *5590:A 0.000109421
10 *103:24 *5614:A 0.000118994
11 *179:91 *5614:A 0.000271352
12 *179:93 *5590:A 0
*RES
1 *5589:Y *1248:4 9.3 
2 *1248:4 *5590:A 24.1437 
3 *1248:4 *5614:A 13.6661 
*END

*D_NET *1249 0.000161922
*CONN
*I *5591:A I *D sky130_fd_sc_hd__inv_1
*I *5590:Y O *D sky130_fd_sc_hd__inv_1
*CAP
1 *5591:A 7.26132e-05
2 *5590:Y 7.26132e-05
3 *5591:A *5592:A 1.66955e-05
*RES
1 *5590:Y *5591:A 19.8634 
*END

*D_NET *1250 0.000315684
*CONN
*I *5592:A I *D sky130_fd_sc_hd__inv_1
*I *5591:Y O *D sky130_fd_sc_hd__inv_1
*CAP
1 *5592:A 0.000149494
2 *5591:Y 0.000149494
3 *4659:A *5592:A 0
4 *5591:A *5592:A 1.66955e-05
5 *179:93 *5592:A 0
*RES
1 *5591:Y *5592:A 29.8545 
*END

*D_NET *1251 0.000338311
*CONN
*I *5593:A I *D sky130_fd_sc_hd__inv_1
*I *5592:Y O *D sky130_fd_sc_hd__inv_1
*CAP
1 *5593:A 0.00016453
2 *5592:Y 0.00016453
3 *5593:A *5596:A 9.25014e-06
4 *179:93 *5593:A 0
*RES
1 *5592:Y *5593:A 30.1134 
*END

*D_NET *1252 0.000291001
*CONN
*I *5595:A I *D sky130_fd_sc_hd__inv_1
*I *5593:Y O *D sky130_fd_sc_hd__inv_1
*CAP
1 *5595:A 0.000124942
2 *5593:Y 0.000124942
3 *5595:A *5596:A 4.11175e-05
*RES
1 *5593:Y *5595:A 20.917 
*END

*D_NET *1253 0.000600314
*CONN
*I *5605:A I *D sky130_fd_sc_hd__inv_1
*I *5594:Y O *D sky130_fd_sc_hd__inv_1
*CAP
1 *5605:A 6.92817e-05
2 *5594:Y 6.92817e-05
3 *5605:A *5607:A 9.22103e-06
4 *4365:A *5605:A 0.000279736
5 *5594:A *5605:A 0.000122866
6 *5615:A *5605:A 4.99272e-05
*RES
1 *5594:Y *5605:A 21.8232 
*END

*D_NET *1254 0.000415921
*CONN
*I *5596:A I *D sky130_fd_sc_hd__inv_1
*I *5595:Y O *D sky130_fd_sc_hd__inv_1
*CAP
1 *5596:A 0.000182777
2 *5595:Y 0.000182777
3 *5593:A *5596:A 9.25014e-06
4 *5595:A *5596:A 4.11175e-05
5 *179:93 *5596:A 0
*RES
1 *5595:Y *5596:A 30.8277 
*END

*D_NET *1255 0.000598822
*CONN
*I *5597:A I *D sky130_fd_sc_hd__inv_1
*I *5596:Y O *D sky130_fd_sc_hd__inv_1
*CAP
1 *5597:A 0.000261067
2 *5596:Y 0.000261067
3 *5597:A *5598:A 7.51545e-05
4 *5597:A *5599:A 1.53439e-06
*RES
1 *5596:Y *5597:A 22.408 
*END

*D_NET *1256 0.000175055
*CONN
*I *5598:A I *D sky130_fd_sc_hd__inv_1
*I *5597:Y O *D sky130_fd_sc_hd__inv_1
*CAP
1 *5598:A 3.026e-05
2 *5597:Y 3.026e-05
3 *5598:A *5599:A 3.93804e-05
4 *5597:A *5598:A 7.51545e-05
*RES
1 *5597:Y *5598:A 19.8634 
*END

*D_NET *1257 0.000544713
*CONN
*I *5599:A I *D sky130_fd_sc_hd__inv_1
*I *5598:Y O *D sky130_fd_sc_hd__inv_1
*CAP
1 *5599:A 0.000226095
2 *5598:Y 0.000226095
3 *5599:A *5601:A 2.8266e-06
4 *5597:A *5599:A 1.53439e-06
5 *5598:A *5599:A 3.93804e-05
6 *98:16 *5599:A 2.3541e-05
7 *174:71 *5599:A 2.524e-05
*RES
1 *5598:Y *5599:A 30.9348 
*END

*D_NET *1258 0.000743781
*CONN
*I *5600:A I *D sky130_fd_sc_hd__inv_1
*I *5599:Y O *D sky130_fd_sc_hd__inv_1
*CAP
1 *5600:A 0.000250592
2 *5599:Y 0.000250592
3 *5600:A *5601:A 3.69697e-05
4 *174:71 *5600:A 0.000205626
5 *179:99 *5600:A 0
*RES
1 *5599:Y *5600:A 31.4527 
*END

*D_NET *1259 0.000443786
*CONN
*I *5601:A I *D sky130_fd_sc_hd__inv_1
*I *5600:Y O *D sky130_fd_sc_hd__inv_1
*CAP
1 *5601:A 0.00017391
2 *5600:Y 0.00017391
3 *5599:A *5601:A 2.8266e-06
4 *5600:A *5601:A 3.69697e-05
5 *98:16 *5601:A 2.80853e-05
6 *174:71 *5601:A 2.80853e-05
*RES
1 *5600:Y *5601:A 30.2652 
*END

*D_NET *1260 0.000212531
*CONN
*I *5602:A I *D sky130_fd_sc_hd__inv_1
*I *5601:Y O *D sky130_fd_sc_hd__inv_1
*CAP
1 *5602:A 1.05439e-05
2 *5601:Y 1.05439e-05
3 *98:16 *5602:A 9.57215e-05
4 *174:71 *5602:A 9.57215e-05
*RES
1 *5601:Y *5602:A 19.4973 
*END

*D_NET *1261 0.000212531
*CONN
*I *5603:A I *D sky130_fd_sc_hd__inv_1
*I *5602:Y O *D sky130_fd_sc_hd__inv_1
*CAP
1 *5603:A 1.05439e-05
2 *5602:Y 1.05439e-05
3 *98:16 *5603:A 9.57215e-05
4 *174:71 *5603:A 9.57215e-05
*RES
1 *5602:Y *5603:A 19.4973 
*END

*D_NET *1262 0.000212531
*CONN
*I *5604:A I *D sky130_fd_sc_hd__inv_1
*I *5603:Y O *D sky130_fd_sc_hd__inv_1
*CAP
1 *5604:A 1.05439e-05
2 *5603:Y 1.05439e-05
3 *98:16 *5604:A 9.57215e-05
4 *174:71 *5604:A 9.57215e-05
*RES
1 *5603:Y *5604:A 19.4973 
*END

*D_NET *1263 0.000425383
*CONN
*I *5606:A I *D sky130_fd_sc_hd__inv_1
*I *5604:Y O *D sky130_fd_sc_hd__inv_1
*CAP
1 *5606:A 0.000127199
2 *5604:Y 0.000127199
3 *98:16 *5606:A 1.96517e-05
4 *179:93 *5606:A 7.29667e-05
5 *179:99 *5606:A 7.83659e-05
*RES
1 *5604:Y *5606:A 30.158 
*END

*D_NET *1264 0.000633798
*CONN
*I *5607:A I *D sky130_fd_sc_hd__inv_1
*I *5605:Y O *D sky130_fd_sc_hd__inv_1
*CAP
1 *5607:A 0.000229292
2 *5605:Y 0.000229292
3 *5607:A *5609:A 2.80853e-05
4 *5607:A *5610:A 2.80853e-05
5 *5607:A *5611:A 0
6 *5607:A *5615:B 1.33343e-05
7 *5594:A *5607:A 1.74352e-05
8 *5605:A *5607:A 9.22103e-06
9 *5615:A *5607:A 7.90536e-05
10 *120:36 *5607:A 0
11 *179:93 *5607:A 0
*RES
1 *5605:Y *5607:A 31.0866 
*END

*D_NET *1265 0.00034212
*CONN
*I *5615:B I *D sky130_fd_sc_hd__nand2_1
*I *5606:Y O *D sky130_fd_sc_hd__inv_1
*CAP
1 *5615:B 0.000106139
2 *5606:Y 0.000106139
3 *4365:A *5615:B 2.87866e-05
4 *5594:A *5615:B 6.79511e-05
5 *5607:A *5615:B 1.33343e-05
6 *5615:A *5615:B 1.97695e-05
*RES
1 *5606:Y *5615:B 21.0018 
*END

*D_NET *1266 0.000291886
*CONN
*I *5608:A I *D sky130_fd_sc_hd__inv_1
*I *5607:Y O *D sky130_fd_sc_hd__inv_1
*CAP
1 *5608:A 2.96636e-05
2 *5607:Y 2.96636e-05
3 *5608:A *5609:A 0.000100511
4 *5608:A *5610:A 0.000132047
*RES
1 *5607:Y *5608:A 19.8634 
*END

*D_NET *1267 0.000483366
*CONN
*I *5609:A I *D sky130_fd_sc_hd__inv_1
*I *5608:Y O *D sky130_fd_sc_hd__inv_1
*CAP
1 *5609:A 0.000149893
2 *5608:Y 0.000149893
3 *5609:A *5610:A 5.49831e-05
4 *5607:A *5609:A 2.80853e-05
5 *5608:A *5609:A 0.000100511
*RES
1 *5608:Y *5609:A 21.9482 
*END

*D_NET *1268 0.000749205
*CONN
*I *5610:A I *D sky130_fd_sc_hd__inv_1
*I *5609:Y O *D sky130_fd_sc_hd__inv_1
*CAP
1 *5610:A 0.000211415
2 *5609:Y 0.000211415
3 *5610:A *5611:A 0.000111259
4 *5607:A *5610:A 2.80853e-05
5 *5608:A *5610:A 0.000132047
6 *5609:A *5610:A 5.49831e-05
*RES
1 *5609:Y *5610:A 23.3098 
*END

*D_NET *1269 0.0009225
*CONN
*I *5611:A I *D sky130_fd_sc_hd__inv_1
*I *5610:Y O *D sky130_fd_sc_hd__inv_1
*CAP
1 *5611:A 0.000380684
2 *5610:Y 0.000380684
3 *5611:A *5584:A 0
4 *5611:A *5613:A 4.98726e-05
5 *5607:A *5611:A 0
6 *5610:A *5611:A 0.000111259
7 *120:30 *5611:A 0
8 *179:93 *5611:A 0
*RES
1 *5610:Y *5611:A 33.7652 
*END

*D_NET *1270 0.000186015
*CONN
*I *5612:A I *D sky130_fd_sc_hd__inv_1
*I *5611:Y O *D sky130_fd_sc_hd__inv_1
*CAP
1 *5612:A 2.66608e-05
2 *5611:Y 2.66608e-05
3 *5612:A *5584:A 1.34554e-05
4 *5612:A *5613:A 5.62995e-05
5 *5585:A *5612:A 6.29385e-05
*RES
1 *5611:Y *5612:A 19.8634 
*END

*D_NET *1271 0.00054242
*CONN
*I *5613:A I *D sky130_fd_sc_hd__inv_1
*I *5612:Y O *D sky130_fd_sc_hd__inv_1
*CAP
1 *5613:A 0.000110399
2 *5612:Y 0.000110399
3 *5613:A *5584:A 0.000215451
4 *5611:A *5613:A 4.98726e-05
5 *5612:A *5613:A 5.62995e-05
*RES
1 *5612:Y *5613:A 21.9527 
*END

*D_NET *1272 0.000862079
*CONN
*I *5584:A I *D sky130_fd_sc_hd__inv_1
*I *5613:Y O *D sky130_fd_sc_hd__inv_1
*CAP
1 *5584:A 0.000296056
2 *5613:Y 0.000296056
3 *5585:A *5584:A 4.10607e-05
4 *5611:A *5584:A 0
5 *5612:A *5584:A 1.34554e-05
6 *5613:A *5584:A 0.000215451
*RES
1 *5613:Y *5584:A 23.4884 
*END

*D_NET *1273 0.000273586
*CONN
*I *4392:A1 I *D sky130_fd_sc_hd__mux4_2
*I *5614:X O *D sky130_fd_sc_hd__buf_1
*CAP
1 *4392:A1 0.000109181
2 *5614:X 0.000109181
3 *178:122 *4392:A1 5.52238e-05
4 *179:128 *4392:A1 0
*RES
1 *5614:X *4392:A1 29.475 
*END

*D_NET *1274 0.000392961
*CONN
*I *4521:CLK I *D sky130_fd_sc_hd__dfrtp_2
*I *4404:X O *D sky130_fd_sc_hd__a22o_2
*CAP
1 *4521:CLK 0.00016128
2 *4404:X 0.00016128
3 *5562:A *4521:CLK 0
4 *174:28 *4521:CLK 1.32552e-05
5 *174:43 *4521:CLK 5.71472e-05
*RES
1 *4404:X *4521:CLK 30.1893 
*END

*D_NET *1275 0.00619092
*CONN
*I *4378:B I *D sky130_fd_sc_hd__or2_2
*I *4452:B I *D sky130_fd_sc_hd__and4_2
*I *4379:B I *D sky130_fd_sc_hd__or4b_2
*I *4447:B I *D sky130_fd_sc_hd__and3_2
*I *4448:A2 I *D sky130_fd_sc_hd__a21oi_2
*I *4444:S I *D sky130_fd_sc_hd__mux2_1
*I *4445:B I *D sky130_fd_sc_hd__nand2_2
*I *4526:Q O *D sky130_fd_sc_hd__dfrtp_2
*CAP
1 *4378:B 0.000125696
2 *4452:B 0.000235656
3 *4379:B 0
4 *4447:B 0
5 *4448:A2 2.03441e-05
6 *4444:S 0.000106022
7 *4445:B 0.00043182
8 *4526:Q 0.00047129
9 *1275:65 0.000421114
10 *1275:58 0.000479014
11 *1275:47 0.00053951
12 *1275:43 0.000840808
13 *1275:24 0.000634995
14 *4378:B *4378:A 8.86989e-05
15 *4378:B *1282:36 4.58192e-05
16 *4448:A2 *4448:A1 5.7661e-06
17 *4452:B *4452:A 5.01117e-05
18 *4452:B *1283:12 1.19309e-05
19 *4452:B *1284:19 8.9163e-05
20 *1275:43 *1282:36 4.71451e-05
21 *1275:47 *1282:44 0.000158629
22 *1275:58 *4448:B1 0.000263524
23 *1275:58 *1282:44 5.03772e-05
24 *1275:58 *1282:59 8.25897e-05
25 *1275:65 *1283:39 1.02936e-05
26 *4444:A0 *4444:S 2.89016e-05
27 *4444:A0 *1275:43 0
28 *4446:A1 *4378:B 0
29 *4446:A1 *4445:B 2.8266e-06
30 *4446:A3 *4445:B 0
31 *4446:B2 *4445:B 5.52238e-05
32 *4446:B2 *1275:43 3.73163e-05
33 *4519:RESET_B *4378:B 6.20948e-05
34 *4527:D *4445:B 5.52302e-05
35 *4527:D *1275:24 2.51343e-06
36 *4527:D *1275:43 1.15281e-05
37 *4527:RESET_B *4445:B 0
38 *104:32 *4452:B 0.000225193
39 *104:32 *1275:65 0.000227532
40 *113:12 *1275:43 0.000170091
41 *167:14 *4444:S 6.5185e-05
42 *167:14 *4445:B 3.69697e-05
43 *180:121 *4444:S 0
44 *191:10 *4452:B 0
*RES
1 *4526:Q *4445:B 34.1536 
2 *4526:Q *1275:24 9.83571 
3 *1275:24 *4444:S 20.4786 
4 *1275:24 *1275:43 11.6071 
5 *1275:43 *1275:47 8.73214 
6 *1275:47 *4448:A2 9.72857 
7 *1275:47 *1275:58 5.78571 
8 *1275:58 *4447:B 9.3 
9 *1275:58 *1275:65 2.58929 
10 *1275:65 *4379:B 9.3 
11 *1275:65 *4452:B 22.7286 
12 *1275:43 *4378:B 16.5857 
*END

*D_NET *1276 0.00539882
*CONN
*I *4477:D I *D sky130_fd_sc_hd__and4_2
*I *4381:C I *D sky130_fd_sc_hd__or4b_2
*I *4475:C I *D sky130_fd_sc_hd__nand4_2
*I *4474:B1 I *D sky130_fd_sc_hd__a31o_2
*I *4536:Q O *D sky130_fd_sc_hd__dfrtp_2
*CAP
1 *4477:D 0.000188038
2 *4381:C 2.23854e-05
3 *4475:C 2.23854e-05
4 *4474:B1 9.12849e-05
5 *4536:Q 0.000317695
6 *1276:36 0.000680785
7 *1276:23 0.000596959
8 *1276:10 0.000513191
9 *4474:B1 *1290:51 1.37292e-05
10 *4477:D *4381:A 0.000250078
11 *4477:D *4381:D_N 9.56446e-06
12 *4477:D *1286:71 4.1331e-06
13 *1276:23 *4475:B 5.33005e-05
14 *4442:A2 *4474:B1 0.000198691
15 *4442:A2 *1276:10 0.000157252
16 *4476:B *1276:10 2.72545e-05
17 *4476:C *4474:B1 5.41054e-05
18 *4476:C *1276:10 1.08359e-05
19 *4481:A2 *4474:B1 5.64954e-05
20 *4481:B1 *4381:C 0
21 *4481:B1 *4477:D 0.000170379
22 *4481:B1 *1276:36 0.000522017
23 *4535:RESET_B *4475:C 0
24 *4535:RESET_B *1276:10 0.000263656
25 *4535:RESET_B *1276:23 5.52302e-05
26 *4536:D *1276:10 0
27 *4536:RESET_B *1276:10 3.35381e-05
28 *4544:A *4477:D 3.18676e-05
29 *4544:A *1276:36 5.33433e-05
30 *105:45 *1276:36 0.000171289
31 *105:57 *1276:23 9.90367e-05
32 *105:57 *1276:36 0.000307336
33 *109:14 *4477:D 0.000239627
34 *148:30 *4474:B1 3.34295e-05
35 *166:6 *1276:36 0.000118098
36 *166:13 *1276:23 3.69047e-06
37 *166:13 *1276:36 2.81228e-05
*RES
1 *4536:Q *1276:10 19.7464 
2 *1276:10 *4474:B1 16.9607 
3 *1276:10 *1276:23 6.67857 
4 *1276:23 *4475:C 9.72857 
5 *1276:23 *1276:36 11.6607 
6 *1276:36 *4381:C 9.72857 
7 *1276:36 *4477:D 23.2286 
*END

*D_NET *1277 0.00342152
*CONN
*I *4566:A I *D sky130_fd_sc_hd__dlygate4sd3_1
*I *4381:B I *D sky130_fd_sc_hd__or4b_2
*I *4477:C I *D sky130_fd_sc_hd__and4_2
*I *4537:Q O *D sky130_fd_sc_hd__dfrtp_2
*CAP
1 *4566:A 0.000102977
2 *4381:B 0.000213638
3 *4477:C 0.000167367
4 *4537:Q 0
5 *1277:8 0.000461905
6 *1277:6 0.000183876
7 *4477:C *4380:A 5.33005e-05
8 *4477:C *4380:B 8.62935e-05
9 *4477:C *4477:A 0.000224168
10 *4477:C *4477:B 0.00013437
11 *4481:B1 *4381:B 0.000311793
12 *4483:B1 *4566:A 1.41029e-05
13 *183:16 *4477:C 0.000121573
14 *183:16 *4566:A 0.000312036
15 *183:16 *1277:8 0.000320024
16 *191:10 *4477:C 0.00012501
17 *191:10 *4566:A 0.000277599
18 *191:10 *1277:8 0.000311488
*RES
1 *4537:Q *1277:6 13.8 
2 *1277:6 *1277:8 4.07143 
3 *1277:8 *4477:C 19.2821 
4 *1277:8 *4381:B 16.8 
5 *1277:6 *4566:A 17.8714 
*END

*D_NET *1278 0.00625134
*CONN
*I *4564:A I *D sky130_fd_sc_hd__dlygate4sd3_1
*I *4485:B I *D sky130_fd_sc_hd__and2_2
*I *4382:B I *D sky130_fd_sc_hd__or4_2
*I *4484:A1 I *D sky130_fd_sc_hd__a31o_2
*I *4482:A1 I *D sky130_fd_sc_hd__a21oi_2
*I *4538:Q O *D sky130_fd_sc_hd__dfrtp_2
*CAP
1 *4564:A 9.51292e-05
2 *4485:B 0.000206226
3 *4382:B 0.00029513
4 *4484:A1 7.40096e-05
5 *4482:A1 0
6 *4538:Q 0
7 *1278:25 0.000493709
8 *1278:23 0.000591034
9 *1278:8 0.000421883
10 *1278:4 0.000256774
11 *4382:B *4484:B1 0.000222189
12 *4484:A1 *4484:B1 0
13 *4485:B *4485:A 0.000472908
14 *4485:B *4489:A 2.28598e-05
15 *4485:B *1280:10 3.18676e-05
16 *4485:B *1280:27 1.02778e-05
17 *1278:23 *1279:10 0
18 *1278:25 *1279:12 0
19 *4479:B *4382:B 5.33005e-05
20 *4479:C *4382:B 9.35114e-06
21 *4480:B *4564:A 0.000142856
22 *4480:B *1278:23 0.000145411
23 *4482:A2 *1278:8 7.06243e-05
24 *4482:A2 *1278:23 9.16218e-05
25 *4482:B1 *1278:8 9.90431e-05
26 *4486:B *4382:B 9.71197e-05
27 *4489:B *4382:B 4.78056e-05
28 *4489:B *4484:A1 0
29 *4489:C *4485:B 0.000567275
30 *4572:A *1278:23 7.69776e-06
31 *4572:A *1278:25 1.59145e-05
32 *4573:A *4564:A 0
33 *105:35 *4485:B 0.000282794
34 *110:12 *4484:A1 0
35 *112:132 *4484:A1 8.6229e-06
36 *157:10 *4382:B 2.94004e-05
37 *157:21 *4484:A1 5.54204e-05
38 *157:21 *1278:23 2.15339e-05
39 *157:21 *1278:25 0.000352294
40 *181:101 *4564:A 0.000270302
41 *183:16 *1278:23 0.00019776
42 *191:10 *4485:B 0.000161881
43 *194:26 *1278:23 2.06178e-05
44 *195:22 *4484:A1 1.94879e-05
45 *195:22 *1278:25 0.000289208
*RES
1 *4538:Q *1278:4 9.3 
2 *1278:4 *1278:8 3.32143 
3 *1278:8 *4482:A1 9.3 
4 *1278:8 *1278:23 10.3036 
5 *1278:23 *1278:25 4.67857 
6 *1278:25 *4484:A1 15.1393 
7 *1278:25 *4382:B 28.4964 
8 *1278:23 *4485:B 22.5679 
9 *1278:4 *4564:A 21.3 
*END

*D_NET *1279 0.00379129
*CONN
*I *4485:A I *D sky130_fd_sc_hd__and2_2
*I *4382:A I *D sky130_fd_sc_hd__or4_2
*I *4484:B1 I *D sky130_fd_sc_hd__a31o_2
*I *4539:Q O *D sky130_fd_sc_hd__dfrtp_2
*CAP
1 *4485:A 0.000113863
2 *4382:A 1.64648e-05
3 *4484:B1 0.000201453
4 *4539:Q 0.000545639
5 *1279:12 0.000321645
6 *1279:10 0.00076323
7 *4485:A *4489:A 0.000349003
8 *4382:B *4484:B1 0.000222189
9 *4479:C *4484:B1 7.20217e-06
10 *4480:B *1279:10 5.33005e-05
11 *4484:A1 *4484:B1 0
12 *4485:B *4485:A 0.000472908
13 *4486:B *4382:A 2.89114e-05
14 *4489:B *4484:B1 3.49882e-05
15 *4489:B *4485:A 1.4862e-05
16 *4489:B *1279:12 0.000115194
17 *4539:D *4382:A 2.89114e-05
18 *4539:D *1279:10 0.000115745
19 *4539:D *1279:12 1.87991e-05
20 *4539:RESET_B *1279:10 7.6997e-05
21 *4572:A *1279:10 0
22 *157:10 *4484:B1 0.000143375
23 *181:101 *1279:10 4.94936e-05
24 *191:10 *4485:A 9.71197e-05
25 *195:22 *4484:B1 0
26 *195:22 *1279:12 0
27 *1278:23 *1279:10 0
28 *1278:25 *1279:12 0
*RES
1 *4539:Q *1279:10 21.9964 
2 *1279:10 *1279:12 2.25 
3 *1279:12 *4484:B1 18.8357 
4 *1279:12 *4382:A 14.3357 
5 *1279:10 *4485:A 18.4429 
*END

*D_NET *1280 0.00600392
*CONN
*I *4382:D I *D sky130_fd_sc_hd__or4_2
*I *4488:B1 I *D sky130_fd_sc_hd__a21oi_2
*I *4489:A I *D sky130_fd_sc_hd__and4_2
*I *4540:Q O *D sky130_fd_sc_hd__dfrtp_2
*CAP
1 *4382:D 0.000139729
2 *4488:B1 0.000327834
3 *4489:A 0.00011815
4 *4540:Q 0.000958778
5 *1280:27 0.000614526
6 *1280:10 0.00122389
7 *4382:D *4382:C 0.000140019
8 *4479:A *4488:B1 2.05622e-05
9 *4479:B *4488:B1 0
10 *4485:A *4489:A 0.000349003
11 *4485:B *4489:A 2.28598e-05
12 *4485:B *1280:10 3.18676e-05
13 *4485:B *1280:27 1.02778e-05
14 *4488:A1 *4488:B1 5.33005e-05
15 *4488:A2 *4488:B1 0.000410583
16 *4489:B *4489:A 9.91033e-05
17 *4489:D *4489:A 0.000218679
18 *4492:A2 *4488:B1 8.33751e-05
19 *4540:CLK *1280:10 0.000136019
20 *4540:D *1280:10 5.71472e-05
21 *4540:RESET_B *1280:10 4.44285e-05
22 *4569:A *4382:D 5.33005e-05
23 *4569:A *4488:B1 5.59013e-05
24 *4569:A *1280:27 0.000107223
25 *105:35 *1280:10 5.9182e-05
26 *105:35 *1280:27 0
27 *161:6 *4489:A 1.24368e-05
28 *161:6 *1280:10 0.000130143
29 *161:17 *4488:B1 9.15804e-05
30 *161:17 *1280:27 7.83587e-05
31 *165:22 *4488:B1 0.00021159
32 *172:10 *4382:D 0.000144075
*RES
1 *4540:Q *1280:10 22.3 
2 *1280:10 *4489:A 13.1214 
3 *1280:10 *1280:27 7.23214 
4 *1280:27 *4488:B1 21.8714 
5 *1280:27 *4382:D 17.2286 
*END

*D_NET *1281 0.00304801
*CONN
*I *4561:A I *D sky130_fd_sc_hd__dlygate4sd3_1
*I *4382:C I *D sky130_fd_sc_hd__or4_2
*I *4541:Q O *D sky130_fd_sc_hd__dfrtp_2
*CAP
1 *4561:A 3.21518e-05
2 *4382:C 0.000697919
3 *4541:Q 9.78013e-05
4 *1281:10 0.000827872
5 *4382:D *4382:C 0.000140019
6 *4486:B *4382:C 0.00039665
7 *4548:A *4382:C 3.20883e-05
8 *4569:A *4382:C 8.09857e-05
9 *181:41 *1281:10 0
10 *182:16 *4382:C 0.000742522
*RES
1 *4541:Q *1281:10 19.9429 
2 *1281:10 *4382:C 25.0321 
3 *1281:10 *4561:A 9.83571 
*END

*D_NET *1282 0.00544149
*CONN
*I *4378:A I *D sky130_fd_sc_hd__or2_2
*I *4452:A I *D sky130_fd_sc_hd__and4_2
*I *4379:A I *D sky130_fd_sc_hd__or4b_2
*I *4447:A I *D sky130_fd_sc_hd__and3_2
*I *4448:A1 I *D sky130_fd_sc_hd__a21oi_2
*I *4568:A I *D sky130_fd_sc_hd__dlygate4sd3_1
*I *4445:A I *D sky130_fd_sc_hd__nand2_2
*I *4527:Q O *D sky130_fd_sc_hd__dfrtp_2
*CAP
1 *4378:A 0.000160615
2 *4452:A 0.000152836
3 *4379:A 0
4 *4447:A 0
5 *4448:A1 1.70795e-05
6 *4568:A 0
7 *4445:A 0.000189276
8 *4527:Q 0
9 *1282:68 0.000260389
10 *1282:59 0.000445342
11 *1282:44 0.000597975
12 *1282:36 0.000589674
13 *1282:23 0.000392252
14 *1282:6 0.000395575
15 *4452:A *4458:A 0
16 *4452:A *1284:19 0
17 *1282:59 *4447:C 1.61893e-05
18 *1282:59 *4448:B1 0.000242544
19 *1282:59 *1283:39 4.59075e-05
20 *1282:68 *4379:D_N 0
21 *1282:68 *4447:C 0
22 *1282:68 *1283:39 5.52238e-05
23 *4378:B *4378:A 8.86989e-05
24 *4378:B *1282:36 4.58192e-05
25 *4444:A0 *1282:36 0
26 *4446:A3 *4445:A 0
27 *4446:A3 *1282:23 0
28 *4448:A2 *4448:A1 5.7661e-06
29 *4449:B *1282:23 0
30 *4449:B *1282:36 0
31 *4449:B *1282:44 0.000137983
32 *4449:B *1282:59 1.24368e-05
33 *4450:B2 *1282:23 0
34 *4450:B2 *1282:36 0
35 *4452:B *4452:A 5.01117e-05
36 *4519:RESET_B *4378:A 0.00012096
37 *4519:RESET_B *1282:36 3.34295e-05
38 *104:32 *4452:A 7.48091e-05
39 *104:32 *1282:68 4.33174e-05
40 *107:12 *4452:A 3.18676e-05
41 *191:10 *4452:A 5.63007e-05
42 *194:53 *4445:A 0.000276211
43 *194:63 *4445:A 0.000128379
44 *196:10 *4445:A 0
45 *196:10 *1282:23 0
46 *196:48 *4445:A 0.000378629
47 *201:10 *1282:44 5.71472e-05
48 *1275:43 *1282:36 4.71451e-05
49 *1275:47 *1282:44 0.000158629
50 *1275:58 *1282:44 5.03772e-05
51 *1275:58 *1282:59 8.25897e-05
*RES
1 *4527:Q *1282:6 13.8 
2 *1282:6 *4445:A 19.8179 
3 *1282:6 *1282:23 3.16071 
4 *1282:23 *4568:A 13.8 
5 *1282:23 *1282:36 4.125 
6 *1282:36 *1282:44 9.28571 
7 *1282:44 *4448:A1 9.72857 
8 *1282:44 *1282:59 6.03571 
9 *1282:59 *4447:A 9.3 
10 *1282:59 *1282:68 2.19643 
11 *1282:68 *4379:A 9.3 
12 *1282:68 *4452:A 21.9071 
13 *1282:36 *4378:A 16.6214 
*END

*D_NET *1283 0.00208271
*CONN
*I *4379:C I *D sky130_fd_sc_hd__or4b_2
*I *4447:C I *D sky130_fd_sc_hd__and3_2
*I *4448:B1 I *D sky130_fd_sc_hd__a21oi_2
*I *4452:C I *D sky130_fd_sc_hd__and4_2
*I *4563:A I *D sky130_fd_sc_hd__dlygate4sd3_1
*I *4528:Q O *D sky130_fd_sc_hd__dfrtp_2
*CAP
1 *4379:C 0
2 *4447:C 1.79444e-05
3 *4448:B1 6.82548e-05
4 *4452:C 8.88865e-05
5 *4563:A 0.0001846
6 *4528:Q 0.000114958
7 *1283:39 0.000123275
8 *1283:37 0.000221675
9 *1283:12 0.000203845
10 *1283:12 *1284:10 0
11 *1283:12 *1284:19 0
12 *4385:A *1283:37 4.75428e-05
13 *4452:B *1283:12 1.19309e-05
14 *104:32 *1283:37 1.0562e-05
15 *104:32 *1283:39 5.03772e-05
16 *104:43 *1283:37 1.02969e-05
17 *112:29 *4452:C 6.33058e-05
18 *112:29 *1283:37 9.76689e-05
19 *191:10 *1283:12 6.97972e-05
20 *191:10 *1283:37 6.41079e-05
21 *1275:58 *4448:B1 0.000263524
22 *1275:65 *1283:39 1.02936e-05
23 *1282:59 *4447:C 1.61893e-05
24 *1282:59 *4448:B1 0.000242544
25 *1282:59 *1283:39 4.59075e-05
26 *1282:68 *4447:C 0
27 *1282:68 *1283:39 5.52238e-05
*RES
1 *4528:Q *1283:12 20.4786 
2 *1283:12 *4563:A 9.3 
3 *1283:12 *4452:C 11.0679 
4 *4563:A *1283:37 22.6214 
5 *1283:37 *1283:39 1.35714 
6 *1283:39 *4448:B1 11.8893 
7 *1283:39 *4447:C 9.72857 
8 *1283:37 *4379:C 9.3 
*END

*D_NET *1284 0.00234979
*CONN
*I *4458:A I *D sky130_fd_sc_hd__and3_2
*I *4451:B1 I *D sky130_fd_sc_hd__a21oi_2
*I *4379:D_N I *D sky130_fd_sc_hd__or4b_2
*I *4452:D I *D sky130_fd_sc_hd__and4_2
*I *4529:Q O *D sky130_fd_sc_hd__dfrtp_2
*CAP
1 *4458:A 0.000105069
2 *4451:B1 0.00010599
3 *4379:D_N 7.20898e-05
4 *4452:D 0
5 *4529:Q 0.000380059
6 *1284:21 0.00017808
7 *1284:19 0.000230442
8 *1284:10 0.000505432
9 *4451:A2 *4458:A 0.000128146
10 *4452:A *4458:A 0
11 *4452:A *1284:19 0
12 *4452:B *1284:19 8.9163e-05
13 *4453:A *1284:19 3.2006e-05
14 *4454:B *4451:B1 3.08664e-05
15 *4478:B *4458:A 2.41865e-05
16 *104:32 *4379:D_N 0.00012219
17 *104:32 *4451:B1 0.000300761
18 *112:42 *4458:A 7.80714e-06
19 *112:42 *1284:19 3.75052e-05
20 *191:10 *4458:A 0
21 *1282:68 *4379:D_N 0
22 *1283:12 *1284:10 0
23 *1283:12 *1284:19 0
*RES
1 *4529:Q *1284:10 18.2464 
2 *1284:10 *4452:D 13.8 
3 *1284:10 *1284:19 3.16071 
4 *1284:19 *1284:21 4.5 
5 *1284:21 *4379:D_N 11.0991 
6 *1284:21 *4451:B1 12.3 
7 *1284:19 *4458:A 16.05 
*END

*D_NET *1285 0.00642447
*CONN
*I *4455:A I *D sky130_fd_sc_hd__and3_2
*I *4465:A I *D sky130_fd_sc_hd__and4_2
*I *4381:A I *D sky130_fd_sc_hd__or4b_2
*I *4458:B I *D sky130_fd_sc_hd__and3_2
*I *4567:A I *D sky130_fd_sc_hd__dlygate4sd3_1
*I *4530:Q O *D sky130_fd_sc_hd__dfrtp_2
*CAP
1 *4455:A 2.65532e-05
2 *4465:A 0
3 *4381:A 0.000241805
4 *4458:B 0.00013872
5 *4567:A 0.000333564
6 *4530:Q 0.00131805
7 *1285:63 0.000484571
8 *1285:40 0.000423535
9 *1285:38 0.00105309
10 *4381:A *4381:D_N 6.84951e-05
11 *4381:A *4465:B 2.59355e-05
12 *4458:B *4458:C 0.000269385
13 *1285:38 *4458:C 2.09897e-05
14 *1285:38 *1286:38 7.6644e-05
15 *1285:40 *4458:C 4.17433e-05
16 *1285:63 *4381:D_N 9.66977e-05
17 *1285:63 *4458:C 0.000240572
18 *1285:63 *4465:B 1.38323e-05
19 *1285:63 *4465:D 1.67864e-05
20 *1285:63 *1288:38 0.000194336
21 *4456:B1 *1285:38 5.27506e-05
22 *4457:B *4567:A 0.000225204
23 *4457:B *1285:38 2.47833e-05
24 *4459:B1 *1285:38 1.38323e-05
25 *4460:A2 *1285:38 9.60875e-05
26 *4460:B1 *4567:A 0
27 *4460:B1 *1285:38 5.33005e-05
28 *4464:C *4458:B 9.25014e-06
29 *4467:B *1285:38 0
30 *4477:D *4381:A 0.000250078
31 *4478:B *4381:A 4.2313e-06
32 *4478:B *4458:B 5.89612e-05
33 *4478:B *1285:63 3.22387e-05
34 *4478:C *1285:63 0.000117726
35 *4481:B1 *4381:A 2.6269e-05
36 *4531:RESET_B *4567:A 0
37 *109:14 *4381:A 5.87675e-05
38 *112:59 *4458:B 4.98968e-05
39 *112:59 *1285:63 0
40 *148:18 *1285:38 0
41 *155:10 *4381:A 1.46148e-05
42 *166:46 *4455:A 2.84109e-05
43 *166:46 *4458:B 0.000168902
44 *166:46 *1285:40 4.58194e-05
45 *169:40 *1285:38 8.03354e-06
*RES
1 *4530:Q *4567:A 32.6536 
2 *4530:Q *1285:38 30.6772 
3 *1285:38 *1285:40 0.946429 
4 *1285:40 *4458:B 22.7643 
5 *1285:40 *1285:63 15.2321 
6 *1285:63 *4381:A 23.4607 
7 *1285:63 *4465:A 9.3 
8 *1285:38 *4455:A 9.83571 
*END

*D_NET *1286 0.00906259
*CONN
*I *4461:A1 I *D sky130_fd_sc_hd__a21oi_2
*I *4462:A I *D sky130_fd_sc_hd__and3_2
*I *4381:D_N I *D sky130_fd_sc_hd__or4b_2
*I *4465:B I *D sky130_fd_sc_hd__and4_2
*I *4458:C I *D sky130_fd_sc_hd__and3_2
*I *4459:A1 I *D sky130_fd_sc_hd__a21oi_2
*I *4460:A1 I *D sky130_fd_sc_hd__o21a_2
*I *4531:Q O *D sky130_fd_sc_hd__dfrtp_2
*CAP
1 *4461:A1 0
2 *4462:A 2.23854e-05
3 *4381:D_N 0.000452624
4 *4465:B 0.000115812
5 *4458:C 0.000370661
6 *4459:A1 1.1624e-05
7 *4460:A1 0
8 *4531:Q 0.000640945
9 *1286:71 0.000718885
10 *1286:50 0.000661253
11 *1286:48 0.00032471
12 *1286:38 0.00048814
13 *1286:19 0.000456487
14 *1286:10 0.000759851
15 *4381:D_N *1288:26 2.89114e-05
16 *4381:D_N *1288:38 1.98839e-05
17 *4458:C *4465:D 3.34295e-05
18 *4465:B *1288:38 5.33005e-05
19 *1286:48 *1287:17 8.17274e-05
20 *1286:50 *1287:17 0.000309018
21 *1286:50 *1287:21 1.39841e-05
22 *1286:71 *1287:21 1.50072e-05
23 *1286:71 *1288:38 9.58126e-05
24 *4381:A *4381:D_N 6.84951e-05
25 *4381:A *4465:B 2.59355e-05
26 *4458:B *4458:C 0.000269385
27 *4459:B1 *4459:A1 5.52238e-05
28 *4460:A2 *4459:A1 5.52238e-05
29 *4460:A2 *1286:19 0.000170654
30 *4460:A2 *1286:38 3.17148e-05
31 *4463:B *1286:48 0.000172026
32 *4464:C *1286:71 4.13122e-06
33 *4466:A *4458:C 5.84171e-05
34 *4466:C *1286:50 5.5033e-05
35 *4477:D *4381:D_N 9.56446e-06
36 *4477:D *1286:71 4.1331e-06
37 *4478:B *4381:D_N 7.53168e-05
38 *4478:B *1286:71 9.97164e-05
39 *4478:C *4381:D_N 3.53761e-05
40 *4478:C *1286:71 0.000136958
41 *4479:B *4381:D_N 0
42 *4479:C *4381:D_N 3.10819e-05
43 *4481:B1 *4381:D_N 0.000180837
44 *4529:D *1286:10 0
45 *4529:D *1286:19 0
46 *4529:D *1286:38 0
47 *4529:RESET_B *1286:10 0.000226658
48 *4531:RESET_B *1286:10 9.23695e-05
49 *4547:A *1286:38 8.27532e-05
50 *104:16 *1286:48 2.26327e-05
51 *109:14 *1286:71 0
52 *138:30 *4458:C 0
53 *140:8 *1286:38 1.96263e-05
54 *140:18 *1286:48 9.54798e-06
55 *140:44 *1286:48 0.000247614
56 *145:10 *4462:A 0
57 *155:10 *4381:D_N 0.000262464
58 *166:46 *4458:C 1.46148e-05
59 *166:46 *1286:38 4.16878e-05
60 *166:46 *1286:48 2.59355e-05
61 *166:54 *1286:38 7.4456e-05
62 *169:40 *1286:10 0.000166528
63 *169:40 *1286:19 2.82057e-05
64 *169:40 *1286:38 4.33438e-05
65 *1285:38 *4458:C 2.09897e-05
66 *1285:38 *1286:38 7.6644e-05
67 *1285:40 *4458:C 4.17433e-05
68 *1285:63 *4381:D_N 9.66977e-05
69 *1285:63 *4458:C 0.000240572
70 *1285:63 *4465:B 1.38323e-05
*RES
1 *4531:Q *1286:10 23.3714 
2 *1286:10 *4460:A1 13.8 
3 *1286:10 *1286:19 2.85714 
4 *1286:19 *4459:A1 14.3357 
5 *1286:19 *1286:38 10 
6 *1286:38 *1286:48 13.3393 
7 *1286:48 *1286:50 3.41071 
8 *1286:50 *4458:C 25.175 
9 *1286:50 *1286:71 8.03571 
10 *1286:71 *4465:B 15.1571 
11 *1286:71 *4381:D_N 32.675 
12 *1286:48 *4462:A 9.72857 
13 *1286:38 *4461:A1 9.3 
*END

*D_NET *1287 0.00629789
*CONN
*I *4461:B1 I *D sky130_fd_sc_hd__a21oi_2
*I *4465:D I *D sky130_fd_sc_hd__and4_2
*I *4464:B I *D sky130_fd_sc_hd__and3_2
*I *4380:B I *D sky130_fd_sc_hd__nand4_2
*I *4462:B I *D sky130_fd_sc_hd__and3_2
*I *4532:Q O *D sky130_fd_sc_hd__dfrtp_2
*CAP
1 *4461:B1 5.42344e-05
2 *4465:D 8.60419e-05
3 *4464:B 0
4 *4380:B 0.000478988
5 *4462:B 0
6 *4532:Q 0.000853156
7 *1287:21 0.000712072
8 *1287:17 0.000490627
9 *1287:8 0.000346845
10 *1287:6 0.00108273
11 *4380:B *4380:A 0.000178671
12 *4380:B *4477:A 2.40574e-05
13 *4380:B *1290:60 1.22604e-05
14 *1287:21 *1288:38 1.47972e-05
15 *4456:B1 *4461:B1 0.000128146
16 *4457:A *1287:6 5.77353e-05
17 *4457:A *1287:8 2.13481e-06
18 *4458:C *4465:D 3.34295e-05
19 *4463:B *1287:6 9.60939e-05
20 *4463:B *1287:8 0.000178847
21 *4463:B *1287:17 0
22 *4463:C *1287:6 2.27416e-05
23 *4464:C *4380:B 0
24 *4466:A *4465:D 5.59013e-05
25 *4466:B *1287:17 0.000142152
26 *4466:B *1287:21 1.3701e-05
27 *4466:C *4465:D 0
28 *4477:C *4380:B 8.62935e-05
29 *4478:B *4380:B 0.000199969
30 *4478:B *1287:21 9.91033e-05
31 *4478:C *4465:D 7.83659e-05
32 *4479:A *4465:D 0
33 *4532:CLK *1287:6 1.39841e-05
34 *4532:D *1287:6 0.000105163
35 *4532:RESET_B *1287:6 1.66373e-05
36 *109:14 *4380:B 0.000103154
37 *145:10 *1287:6 9.22103e-06
38 *148:12 *1287:17 1.98839e-05
39 *166:65 *4461:B1 6.42242e-05
40 *183:16 *4380:B 0
41 *1285:63 *4465:D 1.67864e-05
42 *1286:48 *1287:17 8.17274e-05
43 *1286:50 *1287:17 0.000309018
44 *1286:50 *1287:21 1.39841e-05
45 *1286:71 *1287:21 1.50072e-05
*RES
1 *4532:Q *1287:6 20.1036 
2 *1287:6 *1287:8 2.17857 
3 *1287:8 *4462:B 9.3 
4 *1287:8 *1287:17 4.55357 
5 *1287:17 *1287:21 3.32143 
6 *1287:21 *4380:B 26.7643 
7 *1287:21 *4464:B 9.3 
8 *1287:17 *4465:D 20.2464 
9 *1287:6 *4461:B1 19.9429 
*END

*D_NET *1288 0.00517156
*CONN
*I *4465:C I *D sky130_fd_sc_hd__and4_2
*I *4464:A I *D sky130_fd_sc_hd__and3_2
*I *4380:A I *D sky130_fd_sc_hd__nand4_2
*I *4562:A I *D sky130_fd_sc_hd__dlygate4sd3_1
*I *4533:Q O *D sky130_fd_sc_hd__dfrtp_2
*CAP
1 *4465:C 0
2 *4464:A 0
3 *4380:A 0.000200181
4 *4562:A 0.00086996
5 *4533:Q 0.000185564
6 *1288:38 0.000406067
7 *1288:26 0.000890282
8 *4376:A_N *1288:26 0.000159499
9 *4380:B *4380:A 0.000178671
10 *4381:D_N *1288:26 2.89114e-05
11 *4381:D_N *1288:38 1.98839e-05
12 *4457:A *1288:26 1.97695e-05
13 *4464:C *1288:38 5.49544e-05
14 *4465:B *1288:38 5.33005e-05
15 *4467:A *1288:26 0.000354105
16 *4468:A1 *1288:26 0.000175701
17 *4468:B1 *1288:26 0.000186669
18 *4477:C *4380:A 5.33005e-05
19 *4478:B *4380:A 1.10868e-05
20 *4478:B *1288:38 0.000238248
21 *104:16 *1288:26 0.000136958
22 *104:97 *1288:26 5.52238e-05
23 *104:110 *1288:26 0.000178847
24 *109:14 *4380:A 9.7659e-05
25 *110:12 *4380:A 0.000146312
26 *147:8 *1288:26 3.55937e-05
27 *181:51 *4562:A 0.000129868
28 *1285:63 *1288:38 0.000194336
29 *1286:71 *1288:38 9.58126e-05
30 *1287:21 *1288:38 1.47972e-05
*RES
1 *4533:Q *4562:A 30.6 
2 *4562:A *1288:26 24.2286 
3 *1288:26 *1288:38 14.5 
4 *1288:38 *4380:A 22.9607 
5 *1288:38 *4464:A 9.3 
6 *1288:26 *4465:C 9.3 
*END

*D_NET *1289 0.0089867
*CONN
*I *4477:B I *D sky130_fd_sc_hd__and4_2
*I *4380:D I *D sky130_fd_sc_hd__nand4_2
*I *4475:B I *D sky130_fd_sc_hd__nand4_2
*I *4474:A2 I *D sky130_fd_sc_hd__a31o_2
*I *4565:A I *D sky130_fd_sc_hd__dlygate4sd3_1
*I *4471:A1 I *D sky130_fd_sc_hd__a21o_2
*I *4472:B I *D sky130_fd_sc_hd__nand3_2
*I *4469:A1 I *D sky130_fd_sc_hd__o21ai_2
*I *4534:Q O *D sky130_fd_sc_hd__dfrtp_2
*CAP
1 *4477:B 0.000522409
2 *4380:D 6.94222e-05
3 *4475:B 8.19417e-05
4 *4474:A2 0.000175307
5 *4565:A 0
6 *4471:A1 0
7 *4472:B 0.000193553
8 *4469:A1 0
9 *4534:Q 0.000425514
10 *1289:90 0.00121036
11 *1289:75 0.00093118
12 *1289:60 0.000668517
13 *1289:49 0.000440646
14 *1289:25 0.000285478
15 *1289:19 0.000366873
16 *1289:10 0.000522318
17 *4380:D *4477:A 2.74993e-05
18 *4380:D *1290:60 1.00733e-05
19 *4472:B *4471:B1 1.21258e-05
20 *4474:A2 *1290:51 8.57945e-05
21 *4477:B *4477:A 0.000325254
22 *4477:B *1290:60 2.88018e-06
23 *4441:B *4380:D 9.41642e-05
24 *4441:B *1289:90 7.04949e-05
25 *4442:A2 *1289:75 0.000180777
26 *4442:A2 *1289:90 4.38128e-05
27 *4469:B1 *1289:10 5.80706e-06
28 *4469:B1 *1289:19 6.9253e-05
29 *4469:B1 *1289:49 2.39876e-05
30 *4470:A1 *1289:25 0.000137983
31 *4472:C *4472:B 0.000214349
32 *4473:B *4472:B 2.56601e-05
33 *4476:B *1289:60 9.90367e-05
34 *4476:B *1289:75 8.17274e-05
35 *4476:C *4475:B 8.32171e-05
36 *4477:C *4477:B 0.00013437
37 *4481:A1 *1289:90 1.58163e-05
38 *4481:A2 *4475:B 7.83659e-05
39 *4481:A2 *1289:90 0.000113083
40 *4481:B1 *1289:90 7.32173e-05
41 *4519:RESET_B *1289:10 7.48091e-05
42 *4534:D *1289:10 0
43 *4534:RESET_B *1289:10 1.4782e-05
44 *148:30 *4474:A2 1.02936e-05
45 *148:30 *1289:60 3.99614e-06
46 *148:30 *1289:75 1.69961e-05
47 *148:38 *4474:A2 1.24368e-05
48 *148:38 *1289:25 0.000170385
49 *148:38 *1289:49 0.000329906
50 *148:38 *1289:60 0.000204676
51 *148:42 *1289:25 5.52302e-05
52 *148:46 *4472:B 5.83304e-05
53 *166:19 *4475:B 5.33882e-05
54 *166:95 *4475:B 2.58997e-05
55 *180:78 *1289:10 0
56 *180:78 *1289:19 0
57 *1276:23 *4475:B 5.33005e-05
*RES
1 *4534:Q *1289:10 19.5679 
2 *1289:10 *4469:A1 13.8 
3 *1289:10 *1289:19 1.94643 
4 *1289:19 *1289:25 7.10714 
5 *1289:25 *4472:B 22.3 
6 *1289:25 *4471:A1 9.3 
7 *1289:19 *1289:49 8.64286 
8 *1289:49 *4565:A 9.3 
9 *1289:49 *1289:60 5.5 
10 *1289:60 *4474:A2 20.4786 
11 *1289:60 *1289:75 3 
12 *1289:75 *4475:B 20.7821 
13 *1289:75 *1289:90 7.92857 
14 *1289:90 *4380:D 11.2821 
15 *1289:90 *4477:B 17.05 
*END

*D_NET *1290 0.00670373
*CONN
*I *4475:A I *D sky130_fd_sc_hd__nand4_2
*I *4477:A I *D sky130_fd_sc_hd__and4_2
*I *4380:C I *D sky130_fd_sc_hd__nand4_2
*I *4474:A1 I *D sky130_fd_sc_hd__a31o_2
*I *4472:A I *D sky130_fd_sc_hd__nand3_2
*I *4471:B1 I *D sky130_fd_sc_hd__a21o_2
*I *4535:Q O *D sky130_fd_sc_hd__dfrtp_2
*CAP
1 *4475:A 2.43937e-05
2 *4477:A 0.000118448
3 *4380:C 0
4 *4474:A1 0
5 *4472:A 2.39445e-05
6 *4471:B1 0.0001606
7 *4535:Q 0.000766901
8 *1290:60 0.000918289
9 *1290:51 0.000961101
10 *1290:41 0.000256047
11 *1290:8 0.000881053
12 *4380:B *4477:A 2.40574e-05
13 *4380:B *1290:60 1.22604e-05
14 *4380:D *4477:A 2.74993e-05
15 *4380:D *1290:60 1.00733e-05
16 *4441:B *1290:51 0
17 *4441:B *1290:60 0.000726751
18 *4442:A2 *1290:60 9.22103e-06
19 *4469:B1 *4471:B1 5.33786e-05
20 *4469:B1 *4472:A 4.25523e-05
21 *4472:B *4471:B1 1.21258e-05
22 *4472:C *4471:B1 0.000104974
23 *4472:C *4472:A 7.22594e-05
24 *4474:A2 *1290:51 8.57945e-05
25 *4474:B1 *1290:51 1.37292e-05
26 *4476:B *1290:51 0.000173797
27 *4477:B *4477:A 0.000325254
28 *4477:B *1290:60 2.88018e-06
29 *4477:C *4477:A 0.000224168
30 *4481:A2 *1290:60 4.70078e-05
31 *4535:CLK *1290:8 2.07937e-05
32 *4535:D *1290:8 0.000168843
33 *4535:RESET_B *4475:A 5.33005e-05
34 *4535:RESET_B *1290:8 3.77486e-05
35 *4535:RESET_B *1290:41 0.00014285
36 *148:30 *1290:51 6.09963e-05
37 *148:30 *1290:60 5.23057e-05
38 *148:38 *4471:B1 1.33343e-05
39 *148:38 *1290:51 1.97695e-05
40 *148:42 *4471:B1 5.52302e-05
*RES
1 *4535:Q *1290:8 22.55 
2 *1290:8 *4471:B1 17.3536 
3 *1290:8 *4472:A 14.8357 
4 *4535:Q *1290:41 11.0857 
5 *1290:41 *1290:51 13.125 
6 *1290:51 *4474:A1 9.3 
7 *1290:51 *1290:60 11.125 
8 *1290:60 *4380:C 9.3 
9 *1290:60 *4477:A 13.5679 
10 *1290:41 *4475:A 9.83571 
*END
