*SPEF "ieee 1481-1999"
*DESIGN "tt_um_nikodemetrashvili20_ro_puf"
*DATE "16:40:15 Thursday July 09, 2026"
*VENDOR "The OpenROAD Project"
*PROGRAM "OpenROAD"
*VERSION "dcf36133a369abc8f3c5e5738cd4d82e4903c0e0"
*DESIGN_FLOW "NAME_SCOPE LOCAL" "PIN_CAP NONE"
*DIVIDER /
*DELIMITER :
*BUS_DELIMITER []
*T_UNIT 1 NS
*C_UNIT 1 PF
*R_UNIT 1 OHM
*L_UNIT 1 HENRY

*NAME_MAP
*3 clk
*4 ena
*5 rst_n
*6 ui_in[0]
*7 ui_in[1]
*8 ui_in[2]
*9 ui_in[3]
*10 ui_in[4]
*11 ui_in[5]
*12 ui_in[6]
*13 ui_in[7]
*14 uio_in[0]
*15 uio_in[1]
*16 uio_in[2]
*17 uio_in[3]
*18 uio_in[4]
*19 uio_in[5]
*20 uio_in[6]
*21 uio_in[7]
*22 net39
*23 net
*24 net26
*25 net27
*26 net28
*27 net29
*28 net30
*29 net31
*30 uio_out[0]
*31 net32
*32 net33
*33 net34
*34 net35
*35 net36
*36 net37
*37 net38
*38 uo_out[0]
*39 uo_out[1]
*40 uo_out[2]
*41 uo_out[3]
*42 uo_out[4]
*43 uo_out[5]
*44 uo_out[6]
*45 uo_out[7]
*46 _000_
*47 _001_
*48 _002_
*49 _003_
*50 _004_
*51 _005_
*52 _006_
*53 _007_
*54 _008_
*55 _009_
*56 _010_
*57 _011_
*58 _012_
*59 _013_
*60 _014_
*61 _015_
*62 _016_
*63 _017_
*64 _018_
*65 _019_
*66 _020_
*67 _021_
*68 _022_
*69 _023_
*70 _024_
*71 _025_
*72 _026_
*73 _027_
*74 _028_
*75 _029_
*76 _030_
*77 _031_
*78 _032_
*79 _033_
*80 _034_
*81 _035_
*82 _036_
*83 _037_
*84 _038_
*85 _039_
*86 _040_
*87 _041_
*88 _042_
*89 _043_
*90 _044_
*91 _045_
*92 _046_
*93 _047_
*94 _048_
*95 _049_
*96 _050_
*97 _051_
*98 _052_
*99 _053_
*100 _054_
*101 _055_
*102 _056_
*103 _057_
*104 _058_
*105 _059_
*106 _060_
*107 _061_
*108 _062_
*109 _063_
*110 _064_
*111 _065_
*112 _066_
*113 _067_
*114 _068_
*115 _069_
*116 _070_
*117 _071_
*118 _072_
*119 _073_
*120 _074_
*121 _075_
*122 _076_
*123 _077_
*124 _078_
*125 _079_
*126 _080_
*127 _081_
*128 _082_
*129 _083_
*130 _084_
*131 _085_
*132 _086_
*133 _087_
*134 _088_
*135 _089_
*136 _090_
*137 _091_
*138 _092_
*139 _093_
*140 _094_
*141 _095_
*142 _096_
*143 _097_
*144 _098_
*145 _099_
*146 _100_
*147 _101_
*148 _102_
*149 _103_
*150 _104_
*151 _105_
*152 _106_
*153 _107_
*154 _108_
*155 _109_
*156 _110_
*157 _111_
*158 _112_
*159 _113_
*160 _114_
*161 _115_
*162 _116_
*163 _117_
*164 armb_en\[0\]
*165 armb_en\[10\]
*166 armb_en\[11\]
*167 armb_en\[12\]
*168 armb_en\[13\]
*169 armb_en\[14\]
*170 armb_en\[15\]
*171 armb_en\[1\]
*172 armb_en\[2\]
*173 armb_en\[3\]
*174 armb_en\[4\]
*175 armb_en\[5\]
*176 armb_en\[6\]
*177 armb_en\[7\]
*178 armb_en\[8\]
*179 armb_en\[9\]
*180 armb_out\[0\]
*181 armb_out\[10\]
*182 armb_out\[11\]
*183 armb_out\[12\]
*184 armb_out\[13\]
*185 armb_out\[14\]
*186 armb_out\[15\]
*187 armb_out\[1\]
*188 armb_out\[2\]
*189 armb_out\[3\]
*190 armb_out\[4\]
*191 armb_out\[5\]
*192 armb_out\[6\]
*193 armb_out\[7\]
*194 armb_out\[8\]
*195 armb_out\[9\]
*196 clknet_0_clk
*197 clknet_2_0__leaf_clk
*198 clknet_2_1__leaf_clk
*199 clknet_2_2__leaf_clk
*200 clknet_2_3__leaf_clk
*201 done
*202 net1
*203 net10
*204 net11
*205 net12
*206 net13
*207 net14
*208 net15
*209 net16
*210 net17
*211 net18
*212 net19
*213 net2
*214 net20
*215 net21
*216 net22
*217 net23
*218 net24
*219 net25
*220 net3
*221 net4
*222 net40
*223 net41
*224 net42
*225 net43
*226 net44
*227 net45
*228 net5
*229 net6
*230 net7
*231 net8
*232 net9
*233 start_d
*234 u_puf\.u_core\.cnt_rst_n
*235 u_puf\.u_core\.en_window
*236 u_puf\.u_core\.g_ripple\[0\]\.q
*237 u_puf\.u_core\.g_ripple\[10\]\.q
*238 u_puf\.u_core\.g_ripple\[11\]\.q
*239 u_puf\.u_core\.g_ripple\[12\]\.q
*240 u_puf\.u_core\.g_ripple\[13\]\.q
*241 u_puf\.u_core\.g_ripple\[14\]\.q
*242 u_puf\.u_core\.g_ripple\[15\]\.q
*243 u_puf\.u_core\.g_ripple\[1\]\.q
*244 u_puf\.u_core\.g_ripple\[2\]\.q
*245 u_puf\.u_core\.g_ripple\[3\]\.q
*246 u_puf\.u_core\.g_ripple\[4\]\.q
*247 u_puf\.u_core\.g_ripple\[5\]\.q
*248 u_puf\.u_core\.g_ripple\[6\]\.q
*249 u_puf\.u_core\.g_ripple\[7\]\.q
*250 u_puf\.u_core\.g_ripple\[8\]\.q
*251 u_puf\.u_core\.g_ripple\[9\]\.q
*252 u_puf\.u_core\.g_ro_bank\[0\]\.u_ro\.en
*253 u_puf\.u_core\.g_ro_bank\[0\]\.u_ro\.n\[0\]
*254 u_puf\.u_core\.g_ro_bank\[0\]\.u_ro\.n\[10\]
*255 u_puf\.u_core\.g_ro_bank\[0\]\.u_ro\.n\[11\]
*256 u_puf\.u_core\.g_ro_bank\[0\]\.u_ro\.n\[12\]
*257 u_puf\.u_core\.g_ro_bank\[0\]\.u_ro\.n\[13\]
*258 u_puf\.u_core\.g_ro_bank\[0\]\.u_ro\.n\[14\]
*259 u_puf\.u_core\.g_ro_bank\[0\]\.u_ro\.n\[15\]
*260 u_puf\.u_core\.g_ro_bank\[0\]\.u_ro\.n\[16\]
*261 u_puf\.u_core\.g_ro_bank\[0\]\.u_ro\.n\[17\]
*262 u_puf\.u_core\.g_ro_bank\[0\]\.u_ro\.n\[18\]
*263 u_puf\.u_core\.g_ro_bank\[0\]\.u_ro\.n\[19\]
*264 u_puf\.u_core\.g_ro_bank\[0\]\.u_ro\.n\[1\]
*265 u_puf\.u_core\.g_ro_bank\[0\]\.u_ro\.n\[20\]
*266 u_puf\.u_core\.g_ro_bank\[0\]\.u_ro\.n\[21\]
*267 u_puf\.u_core\.g_ro_bank\[0\]\.u_ro\.n\[22\]
*268 u_puf\.u_core\.g_ro_bank\[0\]\.u_ro\.n\[23\]
*269 u_puf\.u_core\.g_ro_bank\[0\]\.u_ro\.n\[24\]
*270 u_puf\.u_core\.g_ro_bank\[0\]\.u_ro\.n\[25\]
*271 u_puf\.u_core\.g_ro_bank\[0\]\.u_ro\.n\[26\]
*272 u_puf\.u_core\.g_ro_bank\[0\]\.u_ro\.n\[27\]
*273 u_puf\.u_core\.g_ro_bank\[0\]\.u_ro\.n\[28\]
*274 u_puf\.u_core\.g_ro_bank\[0\]\.u_ro\.n\[29\]
*275 u_puf\.u_core\.g_ro_bank\[0\]\.u_ro\.n\[2\]
*276 u_puf\.u_core\.g_ro_bank\[0\]\.u_ro\.n\[30\]
*277 u_puf\.u_core\.g_ro_bank\[0\]\.u_ro\.n\[3\]
*278 u_puf\.u_core\.g_ro_bank\[0\]\.u_ro\.n\[4\]
*279 u_puf\.u_core\.g_ro_bank\[0\]\.u_ro\.n\[5\]
*280 u_puf\.u_core\.g_ro_bank\[0\]\.u_ro\.n\[6\]
*281 u_puf\.u_core\.g_ro_bank\[0\]\.u_ro\.n\[7\]
*282 u_puf\.u_core\.g_ro_bank\[0\]\.u_ro\.n\[8\]
*283 u_puf\.u_core\.g_ro_bank\[0\]\.u_ro\.n\[9\]
*284 u_puf\.u_core\.g_ro_bank\[0\]\.u_ro\.out
*285 u_puf\.u_core\.g_ro_bank\[10\]\.u_ro\.en
*286 u_puf\.u_core\.g_ro_bank\[10\]\.u_ro\.n\[0\]
*287 u_puf\.u_core\.g_ro_bank\[10\]\.u_ro\.n\[10\]
*288 u_puf\.u_core\.g_ro_bank\[10\]\.u_ro\.n\[11\]
*289 u_puf\.u_core\.g_ro_bank\[10\]\.u_ro\.n\[12\]
*290 u_puf\.u_core\.g_ro_bank\[10\]\.u_ro\.n\[13\]
*291 u_puf\.u_core\.g_ro_bank\[10\]\.u_ro\.n\[14\]
*292 u_puf\.u_core\.g_ro_bank\[10\]\.u_ro\.n\[15\]
*293 u_puf\.u_core\.g_ro_bank\[10\]\.u_ro\.n\[16\]
*294 u_puf\.u_core\.g_ro_bank\[10\]\.u_ro\.n\[17\]
*295 u_puf\.u_core\.g_ro_bank\[10\]\.u_ro\.n\[18\]
*296 u_puf\.u_core\.g_ro_bank\[10\]\.u_ro\.n\[19\]
*297 u_puf\.u_core\.g_ro_bank\[10\]\.u_ro\.n\[1\]
*298 u_puf\.u_core\.g_ro_bank\[10\]\.u_ro\.n\[20\]
*299 u_puf\.u_core\.g_ro_bank\[10\]\.u_ro\.n\[21\]
*300 u_puf\.u_core\.g_ro_bank\[10\]\.u_ro\.n\[22\]
*301 u_puf\.u_core\.g_ro_bank\[10\]\.u_ro\.n\[23\]
*302 u_puf\.u_core\.g_ro_bank\[10\]\.u_ro\.n\[24\]
*303 u_puf\.u_core\.g_ro_bank\[10\]\.u_ro\.n\[25\]
*304 u_puf\.u_core\.g_ro_bank\[10\]\.u_ro\.n\[26\]
*305 u_puf\.u_core\.g_ro_bank\[10\]\.u_ro\.n\[27\]
*306 u_puf\.u_core\.g_ro_bank\[10\]\.u_ro\.n\[28\]
*307 u_puf\.u_core\.g_ro_bank\[10\]\.u_ro\.n\[29\]
*308 u_puf\.u_core\.g_ro_bank\[10\]\.u_ro\.n\[2\]
*309 u_puf\.u_core\.g_ro_bank\[10\]\.u_ro\.n\[30\]
*310 u_puf\.u_core\.g_ro_bank\[10\]\.u_ro\.n\[3\]
*311 u_puf\.u_core\.g_ro_bank\[10\]\.u_ro\.n\[4\]
*312 u_puf\.u_core\.g_ro_bank\[10\]\.u_ro\.n\[5\]
*313 u_puf\.u_core\.g_ro_bank\[10\]\.u_ro\.n\[6\]
*314 u_puf\.u_core\.g_ro_bank\[10\]\.u_ro\.n\[7\]
*315 u_puf\.u_core\.g_ro_bank\[10\]\.u_ro\.n\[8\]
*316 u_puf\.u_core\.g_ro_bank\[10\]\.u_ro\.n\[9\]
*317 u_puf\.u_core\.g_ro_bank\[10\]\.u_ro\.out
*318 u_puf\.u_core\.g_ro_bank\[11\]\.u_ro\.en
*319 u_puf\.u_core\.g_ro_bank\[11\]\.u_ro\.n\[0\]
*320 u_puf\.u_core\.g_ro_bank\[11\]\.u_ro\.n\[10\]
*321 u_puf\.u_core\.g_ro_bank\[11\]\.u_ro\.n\[11\]
*322 u_puf\.u_core\.g_ro_bank\[11\]\.u_ro\.n\[12\]
*323 u_puf\.u_core\.g_ro_bank\[11\]\.u_ro\.n\[13\]
*324 u_puf\.u_core\.g_ro_bank\[11\]\.u_ro\.n\[14\]
*325 u_puf\.u_core\.g_ro_bank\[11\]\.u_ro\.n\[15\]
*326 u_puf\.u_core\.g_ro_bank\[11\]\.u_ro\.n\[16\]
*327 u_puf\.u_core\.g_ro_bank\[11\]\.u_ro\.n\[17\]
*328 u_puf\.u_core\.g_ro_bank\[11\]\.u_ro\.n\[18\]
*329 u_puf\.u_core\.g_ro_bank\[11\]\.u_ro\.n\[19\]
*330 u_puf\.u_core\.g_ro_bank\[11\]\.u_ro\.n\[1\]
*331 u_puf\.u_core\.g_ro_bank\[11\]\.u_ro\.n\[20\]
*332 u_puf\.u_core\.g_ro_bank\[11\]\.u_ro\.n\[21\]
*333 u_puf\.u_core\.g_ro_bank\[11\]\.u_ro\.n\[22\]
*334 u_puf\.u_core\.g_ro_bank\[11\]\.u_ro\.n\[23\]
*335 u_puf\.u_core\.g_ro_bank\[11\]\.u_ro\.n\[24\]
*336 u_puf\.u_core\.g_ro_bank\[11\]\.u_ro\.n\[25\]
*337 u_puf\.u_core\.g_ro_bank\[11\]\.u_ro\.n\[26\]
*338 u_puf\.u_core\.g_ro_bank\[11\]\.u_ro\.n\[27\]
*339 u_puf\.u_core\.g_ro_bank\[11\]\.u_ro\.n\[28\]
*340 u_puf\.u_core\.g_ro_bank\[11\]\.u_ro\.n\[29\]
*341 u_puf\.u_core\.g_ro_bank\[11\]\.u_ro\.n\[2\]
*342 u_puf\.u_core\.g_ro_bank\[11\]\.u_ro\.n\[30\]
*343 u_puf\.u_core\.g_ro_bank\[11\]\.u_ro\.n\[3\]
*344 u_puf\.u_core\.g_ro_bank\[11\]\.u_ro\.n\[4\]
*345 u_puf\.u_core\.g_ro_bank\[11\]\.u_ro\.n\[5\]
*346 u_puf\.u_core\.g_ro_bank\[11\]\.u_ro\.n\[6\]
*347 u_puf\.u_core\.g_ro_bank\[11\]\.u_ro\.n\[7\]
*348 u_puf\.u_core\.g_ro_bank\[11\]\.u_ro\.n\[8\]
*349 u_puf\.u_core\.g_ro_bank\[11\]\.u_ro\.n\[9\]
*350 u_puf\.u_core\.g_ro_bank\[11\]\.u_ro\.out
*351 u_puf\.u_core\.g_ro_bank\[12\]\.u_ro\.en
*352 u_puf\.u_core\.g_ro_bank\[12\]\.u_ro\.n\[0\]
*353 u_puf\.u_core\.g_ro_bank\[12\]\.u_ro\.n\[10\]
*354 u_puf\.u_core\.g_ro_bank\[12\]\.u_ro\.n\[11\]
*355 u_puf\.u_core\.g_ro_bank\[12\]\.u_ro\.n\[12\]
*356 u_puf\.u_core\.g_ro_bank\[12\]\.u_ro\.n\[13\]
*357 u_puf\.u_core\.g_ro_bank\[12\]\.u_ro\.n\[14\]
*358 u_puf\.u_core\.g_ro_bank\[12\]\.u_ro\.n\[15\]
*359 u_puf\.u_core\.g_ro_bank\[12\]\.u_ro\.n\[16\]
*360 u_puf\.u_core\.g_ro_bank\[12\]\.u_ro\.n\[17\]
*361 u_puf\.u_core\.g_ro_bank\[12\]\.u_ro\.n\[18\]
*362 u_puf\.u_core\.g_ro_bank\[12\]\.u_ro\.n\[19\]
*363 u_puf\.u_core\.g_ro_bank\[12\]\.u_ro\.n\[1\]
*364 u_puf\.u_core\.g_ro_bank\[12\]\.u_ro\.n\[20\]
*365 u_puf\.u_core\.g_ro_bank\[12\]\.u_ro\.n\[21\]
*366 u_puf\.u_core\.g_ro_bank\[12\]\.u_ro\.n\[22\]
*367 u_puf\.u_core\.g_ro_bank\[12\]\.u_ro\.n\[23\]
*368 u_puf\.u_core\.g_ro_bank\[12\]\.u_ro\.n\[24\]
*369 u_puf\.u_core\.g_ro_bank\[12\]\.u_ro\.n\[25\]
*370 u_puf\.u_core\.g_ro_bank\[12\]\.u_ro\.n\[26\]
*371 u_puf\.u_core\.g_ro_bank\[12\]\.u_ro\.n\[27\]
*372 u_puf\.u_core\.g_ro_bank\[12\]\.u_ro\.n\[28\]
*373 u_puf\.u_core\.g_ro_bank\[12\]\.u_ro\.n\[29\]
*374 u_puf\.u_core\.g_ro_bank\[12\]\.u_ro\.n\[2\]
*375 u_puf\.u_core\.g_ro_bank\[12\]\.u_ro\.n\[30\]
*376 u_puf\.u_core\.g_ro_bank\[12\]\.u_ro\.n\[3\]
*377 u_puf\.u_core\.g_ro_bank\[12\]\.u_ro\.n\[4\]
*378 u_puf\.u_core\.g_ro_bank\[12\]\.u_ro\.n\[5\]
*379 u_puf\.u_core\.g_ro_bank\[12\]\.u_ro\.n\[6\]
*380 u_puf\.u_core\.g_ro_bank\[12\]\.u_ro\.n\[7\]
*381 u_puf\.u_core\.g_ro_bank\[12\]\.u_ro\.n\[8\]
*382 u_puf\.u_core\.g_ro_bank\[12\]\.u_ro\.n\[9\]
*383 u_puf\.u_core\.g_ro_bank\[12\]\.u_ro\.out
*384 u_puf\.u_core\.g_ro_bank\[13\]\.u_ro\.en
*385 u_puf\.u_core\.g_ro_bank\[13\]\.u_ro\.n\[0\]
*386 u_puf\.u_core\.g_ro_bank\[13\]\.u_ro\.n\[10\]
*387 u_puf\.u_core\.g_ro_bank\[13\]\.u_ro\.n\[11\]
*388 u_puf\.u_core\.g_ro_bank\[13\]\.u_ro\.n\[12\]
*389 u_puf\.u_core\.g_ro_bank\[13\]\.u_ro\.n\[13\]
*390 u_puf\.u_core\.g_ro_bank\[13\]\.u_ro\.n\[14\]
*391 u_puf\.u_core\.g_ro_bank\[13\]\.u_ro\.n\[15\]
*392 u_puf\.u_core\.g_ro_bank\[13\]\.u_ro\.n\[16\]
*393 u_puf\.u_core\.g_ro_bank\[13\]\.u_ro\.n\[17\]
*394 u_puf\.u_core\.g_ro_bank\[13\]\.u_ro\.n\[18\]
*395 u_puf\.u_core\.g_ro_bank\[13\]\.u_ro\.n\[19\]
*396 u_puf\.u_core\.g_ro_bank\[13\]\.u_ro\.n\[1\]
*397 u_puf\.u_core\.g_ro_bank\[13\]\.u_ro\.n\[20\]
*398 u_puf\.u_core\.g_ro_bank\[13\]\.u_ro\.n\[21\]
*399 u_puf\.u_core\.g_ro_bank\[13\]\.u_ro\.n\[22\]
*400 u_puf\.u_core\.g_ro_bank\[13\]\.u_ro\.n\[23\]
*401 u_puf\.u_core\.g_ro_bank\[13\]\.u_ro\.n\[24\]
*402 u_puf\.u_core\.g_ro_bank\[13\]\.u_ro\.n\[25\]
*403 u_puf\.u_core\.g_ro_bank\[13\]\.u_ro\.n\[26\]
*404 u_puf\.u_core\.g_ro_bank\[13\]\.u_ro\.n\[27\]
*405 u_puf\.u_core\.g_ro_bank\[13\]\.u_ro\.n\[28\]
*406 u_puf\.u_core\.g_ro_bank\[13\]\.u_ro\.n\[29\]
*407 u_puf\.u_core\.g_ro_bank\[13\]\.u_ro\.n\[2\]
*408 u_puf\.u_core\.g_ro_bank\[13\]\.u_ro\.n\[30\]
*409 u_puf\.u_core\.g_ro_bank\[13\]\.u_ro\.n\[3\]
*410 u_puf\.u_core\.g_ro_bank\[13\]\.u_ro\.n\[4\]
*411 u_puf\.u_core\.g_ro_bank\[13\]\.u_ro\.n\[5\]
*412 u_puf\.u_core\.g_ro_bank\[13\]\.u_ro\.n\[6\]
*413 u_puf\.u_core\.g_ro_bank\[13\]\.u_ro\.n\[7\]
*414 u_puf\.u_core\.g_ro_bank\[13\]\.u_ro\.n\[8\]
*415 u_puf\.u_core\.g_ro_bank\[13\]\.u_ro\.n\[9\]
*416 u_puf\.u_core\.g_ro_bank\[13\]\.u_ro\.out
*417 u_puf\.u_core\.g_ro_bank\[14\]\.u_ro\.en
*418 u_puf\.u_core\.g_ro_bank\[14\]\.u_ro\.n\[0\]
*419 u_puf\.u_core\.g_ro_bank\[14\]\.u_ro\.n\[10\]
*420 u_puf\.u_core\.g_ro_bank\[14\]\.u_ro\.n\[11\]
*421 u_puf\.u_core\.g_ro_bank\[14\]\.u_ro\.n\[12\]
*422 u_puf\.u_core\.g_ro_bank\[14\]\.u_ro\.n\[13\]
*423 u_puf\.u_core\.g_ro_bank\[14\]\.u_ro\.n\[14\]
*424 u_puf\.u_core\.g_ro_bank\[14\]\.u_ro\.n\[15\]
*425 u_puf\.u_core\.g_ro_bank\[14\]\.u_ro\.n\[16\]
*426 u_puf\.u_core\.g_ro_bank\[14\]\.u_ro\.n\[17\]
*427 u_puf\.u_core\.g_ro_bank\[14\]\.u_ro\.n\[18\]
*428 u_puf\.u_core\.g_ro_bank\[14\]\.u_ro\.n\[19\]
*429 u_puf\.u_core\.g_ro_bank\[14\]\.u_ro\.n\[1\]
*430 u_puf\.u_core\.g_ro_bank\[14\]\.u_ro\.n\[20\]
*431 u_puf\.u_core\.g_ro_bank\[14\]\.u_ro\.n\[21\]
*432 u_puf\.u_core\.g_ro_bank\[14\]\.u_ro\.n\[22\]
*433 u_puf\.u_core\.g_ro_bank\[14\]\.u_ro\.n\[23\]
*434 u_puf\.u_core\.g_ro_bank\[14\]\.u_ro\.n\[24\]
*435 u_puf\.u_core\.g_ro_bank\[14\]\.u_ro\.n\[25\]
*436 u_puf\.u_core\.g_ro_bank\[14\]\.u_ro\.n\[26\]
*437 u_puf\.u_core\.g_ro_bank\[14\]\.u_ro\.n\[27\]
*438 u_puf\.u_core\.g_ro_bank\[14\]\.u_ro\.n\[28\]
*439 u_puf\.u_core\.g_ro_bank\[14\]\.u_ro\.n\[29\]
*440 u_puf\.u_core\.g_ro_bank\[14\]\.u_ro\.n\[2\]
*441 u_puf\.u_core\.g_ro_bank\[14\]\.u_ro\.n\[30\]
*442 u_puf\.u_core\.g_ro_bank\[14\]\.u_ro\.n\[3\]
*443 u_puf\.u_core\.g_ro_bank\[14\]\.u_ro\.n\[4\]
*444 u_puf\.u_core\.g_ro_bank\[14\]\.u_ro\.n\[5\]
*445 u_puf\.u_core\.g_ro_bank\[14\]\.u_ro\.n\[6\]
*446 u_puf\.u_core\.g_ro_bank\[14\]\.u_ro\.n\[7\]
*447 u_puf\.u_core\.g_ro_bank\[14\]\.u_ro\.n\[8\]
*448 u_puf\.u_core\.g_ro_bank\[14\]\.u_ro\.n\[9\]
*449 u_puf\.u_core\.g_ro_bank\[14\]\.u_ro\.out
*450 u_puf\.u_core\.g_ro_bank\[15\]\.u_ro\.en
*451 u_puf\.u_core\.g_ro_bank\[15\]\.u_ro\.n\[0\]
*452 u_puf\.u_core\.g_ro_bank\[15\]\.u_ro\.n\[10\]
*453 u_puf\.u_core\.g_ro_bank\[15\]\.u_ro\.n\[11\]
*454 u_puf\.u_core\.g_ro_bank\[15\]\.u_ro\.n\[12\]
*455 u_puf\.u_core\.g_ro_bank\[15\]\.u_ro\.n\[13\]
*456 u_puf\.u_core\.g_ro_bank\[15\]\.u_ro\.n\[14\]
*457 u_puf\.u_core\.g_ro_bank\[15\]\.u_ro\.n\[15\]
*458 u_puf\.u_core\.g_ro_bank\[15\]\.u_ro\.n\[16\]
*459 u_puf\.u_core\.g_ro_bank\[15\]\.u_ro\.n\[17\]
*460 u_puf\.u_core\.g_ro_bank\[15\]\.u_ro\.n\[18\]
*461 u_puf\.u_core\.g_ro_bank\[15\]\.u_ro\.n\[19\]
*462 u_puf\.u_core\.g_ro_bank\[15\]\.u_ro\.n\[1\]
*463 u_puf\.u_core\.g_ro_bank\[15\]\.u_ro\.n\[20\]
*464 u_puf\.u_core\.g_ro_bank\[15\]\.u_ro\.n\[21\]
*465 u_puf\.u_core\.g_ro_bank\[15\]\.u_ro\.n\[22\]
*466 u_puf\.u_core\.g_ro_bank\[15\]\.u_ro\.n\[23\]
*467 u_puf\.u_core\.g_ro_bank\[15\]\.u_ro\.n\[24\]
*468 u_puf\.u_core\.g_ro_bank\[15\]\.u_ro\.n\[25\]
*469 u_puf\.u_core\.g_ro_bank\[15\]\.u_ro\.n\[26\]
*470 u_puf\.u_core\.g_ro_bank\[15\]\.u_ro\.n\[27\]
*471 u_puf\.u_core\.g_ro_bank\[15\]\.u_ro\.n\[28\]
*472 u_puf\.u_core\.g_ro_bank\[15\]\.u_ro\.n\[29\]
*473 u_puf\.u_core\.g_ro_bank\[15\]\.u_ro\.n\[2\]
*474 u_puf\.u_core\.g_ro_bank\[15\]\.u_ro\.n\[30\]
*475 u_puf\.u_core\.g_ro_bank\[15\]\.u_ro\.n\[3\]
*476 u_puf\.u_core\.g_ro_bank\[15\]\.u_ro\.n\[4\]
*477 u_puf\.u_core\.g_ro_bank\[15\]\.u_ro\.n\[5\]
*478 u_puf\.u_core\.g_ro_bank\[15\]\.u_ro\.n\[6\]
*479 u_puf\.u_core\.g_ro_bank\[15\]\.u_ro\.n\[7\]
*480 u_puf\.u_core\.g_ro_bank\[15\]\.u_ro\.n\[8\]
*481 u_puf\.u_core\.g_ro_bank\[15\]\.u_ro\.n\[9\]
*482 u_puf\.u_core\.g_ro_bank\[15\]\.u_ro\.out
*483 u_puf\.u_core\.g_ro_bank\[1\]\.u_ro\.en
*484 u_puf\.u_core\.g_ro_bank\[1\]\.u_ro\.n\[0\]
*485 u_puf\.u_core\.g_ro_bank\[1\]\.u_ro\.n\[10\]
*486 u_puf\.u_core\.g_ro_bank\[1\]\.u_ro\.n\[11\]
*487 u_puf\.u_core\.g_ro_bank\[1\]\.u_ro\.n\[12\]
*488 u_puf\.u_core\.g_ro_bank\[1\]\.u_ro\.n\[13\]
*489 u_puf\.u_core\.g_ro_bank\[1\]\.u_ro\.n\[14\]
*490 u_puf\.u_core\.g_ro_bank\[1\]\.u_ro\.n\[15\]
*491 u_puf\.u_core\.g_ro_bank\[1\]\.u_ro\.n\[16\]
*492 u_puf\.u_core\.g_ro_bank\[1\]\.u_ro\.n\[17\]
*493 u_puf\.u_core\.g_ro_bank\[1\]\.u_ro\.n\[18\]
*494 u_puf\.u_core\.g_ro_bank\[1\]\.u_ro\.n\[19\]
*495 u_puf\.u_core\.g_ro_bank\[1\]\.u_ro\.n\[1\]
*496 u_puf\.u_core\.g_ro_bank\[1\]\.u_ro\.n\[20\]
*497 u_puf\.u_core\.g_ro_bank\[1\]\.u_ro\.n\[21\]
*498 u_puf\.u_core\.g_ro_bank\[1\]\.u_ro\.n\[22\]
*499 u_puf\.u_core\.g_ro_bank\[1\]\.u_ro\.n\[23\]
*500 u_puf\.u_core\.g_ro_bank\[1\]\.u_ro\.n\[24\]
*501 u_puf\.u_core\.g_ro_bank\[1\]\.u_ro\.n\[25\]
*502 u_puf\.u_core\.g_ro_bank\[1\]\.u_ro\.n\[26\]
*503 u_puf\.u_core\.g_ro_bank\[1\]\.u_ro\.n\[27\]
*504 u_puf\.u_core\.g_ro_bank\[1\]\.u_ro\.n\[28\]
*505 u_puf\.u_core\.g_ro_bank\[1\]\.u_ro\.n\[29\]
*506 u_puf\.u_core\.g_ro_bank\[1\]\.u_ro\.n\[2\]
*507 u_puf\.u_core\.g_ro_bank\[1\]\.u_ro\.n\[30\]
*508 u_puf\.u_core\.g_ro_bank\[1\]\.u_ro\.n\[3\]
*509 u_puf\.u_core\.g_ro_bank\[1\]\.u_ro\.n\[4\]
*510 u_puf\.u_core\.g_ro_bank\[1\]\.u_ro\.n\[5\]
*511 u_puf\.u_core\.g_ro_bank\[1\]\.u_ro\.n\[6\]
*512 u_puf\.u_core\.g_ro_bank\[1\]\.u_ro\.n\[7\]
*513 u_puf\.u_core\.g_ro_bank\[1\]\.u_ro\.n\[8\]
*514 u_puf\.u_core\.g_ro_bank\[1\]\.u_ro\.n\[9\]
*515 u_puf\.u_core\.g_ro_bank\[1\]\.u_ro\.out
*516 u_puf\.u_core\.g_ro_bank\[2\]\.u_ro\.en
*517 u_puf\.u_core\.g_ro_bank\[2\]\.u_ro\.n\[0\]
*518 u_puf\.u_core\.g_ro_bank\[2\]\.u_ro\.n\[10\]
*519 u_puf\.u_core\.g_ro_bank\[2\]\.u_ro\.n\[11\]
*520 u_puf\.u_core\.g_ro_bank\[2\]\.u_ro\.n\[12\]
*521 u_puf\.u_core\.g_ro_bank\[2\]\.u_ro\.n\[13\]
*522 u_puf\.u_core\.g_ro_bank\[2\]\.u_ro\.n\[14\]
*523 u_puf\.u_core\.g_ro_bank\[2\]\.u_ro\.n\[15\]
*524 u_puf\.u_core\.g_ro_bank\[2\]\.u_ro\.n\[16\]
*525 u_puf\.u_core\.g_ro_bank\[2\]\.u_ro\.n\[17\]
*526 u_puf\.u_core\.g_ro_bank\[2\]\.u_ro\.n\[18\]
*527 u_puf\.u_core\.g_ro_bank\[2\]\.u_ro\.n\[19\]
*528 u_puf\.u_core\.g_ro_bank\[2\]\.u_ro\.n\[1\]
*529 u_puf\.u_core\.g_ro_bank\[2\]\.u_ro\.n\[20\]
*530 u_puf\.u_core\.g_ro_bank\[2\]\.u_ro\.n\[21\]
*531 u_puf\.u_core\.g_ro_bank\[2\]\.u_ro\.n\[22\]
*532 u_puf\.u_core\.g_ro_bank\[2\]\.u_ro\.n\[23\]
*533 u_puf\.u_core\.g_ro_bank\[2\]\.u_ro\.n\[24\]
*534 u_puf\.u_core\.g_ro_bank\[2\]\.u_ro\.n\[25\]
*535 u_puf\.u_core\.g_ro_bank\[2\]\.u_ro\.n\[26\]
*536 u_puf\.u_core\.g_ro_bank\[2\]\.u_ro\.n\[27\]
*537 u_puf\.u_core\.g_ro_bank\[2\]\.u_ro\.n\[28\]
*538 u_puf\.u_core\.g_ro_bank\[2\]\.u_ro\.n\[29\]
*539 u_puf\.u_core\.g_ro_bank\[2\]\.u_ro\.n\[2\]
*540 u_puf\.u_core\.g_ro_bank\[2\]\.u_ro\.n\[30\]
*541 u_puf\.u_core\.g_ro_bank\[2\]\.u_ro\.n\[3\]
*542 u_puf\.u_core\.g_ro_bank\[2\]\.u_ro\.n\[4\]
*543 u_puf\.u_core\.g_ro_bank\[2\]\.u_ro\.n\[5\]
*544 u_puf\.u_core\.g_ro_bank\[2\]\.u_ro\.n\[6\]
*545 u_puf\.u_core\.g_ro_bank\[2\]\.u_ro\.n\[7\]
*546 u_puf\.u_core\.g_ro_bank\[2\]\.u_ro\.n\[8\]
*547 u_puf\.u_core\.g_ro_bank\[2\]\.u_ro\.n\[9\]
*548 u_puf\.u_core\.g_ro_bank\[2\]\.u_ro\.out
*549 u_puf\.u_core\.g_ro_bank\[3\]\.u_ro\.en
*550 u_puf\.u_core\.g_ro_bank\[3\]\.u_ro\.n\[0\]
*551 u_puf\.u_core\.g_ro_bank\[3\]\.u_ro\.n\[10\]
*552 u_puf\.u_core\.g_ro_bank\[3\]\.u_ro\.n\[11\]
*553 u_puf\.u_core\.g_ro_bank\[3\]\.u_ro\.n\[12\]
*554 u_puf\.u_core\.g_ro_bank\[3\]\.u_ro\.n\[13\]
*555 u_puf\.u_core\.g_ro_bank\[3\]\.u_ro\.n\[14\]
*556 u_puf\.u_core\.g_ro_bank\[3\]\.u_ro\.n\[15\]
*557 u_puf\.u_core\.g_ro_bank\[3\]\.u_ro\.n\[16\]
*558 u_puf\.u_core\.g_ro_bank\[3\]\.u_ro\.n\[17\]
*559 u_puf\.u_core\.g_ro_bank\[3\]\.u_ro\.n\[18\]
*560 u_puf\.u_core\.g_ro_bank\[3\]\.u_ro\.n\[19\]
*561 u_puf\.u_core\.g_ro_bank\[3\]\.u_ro\.n\[1\]
*562 u_puf\.u_core\.g_ro_bank\[3\]\.u_ro\.n\[20\]
*563 u_puf\.u_core\.g_ro_bank\[3\]\.u_ro\.n\[21\]
*564 u_puf\.u_core\.g_ro_bank\[3\]\.u_ro\.n\[22\]
*565 u_puf\.u_core\.g_ro_bank\[3\]\.u_ro\.n\[23\]
*566 u_puf\.u_core\.g_ro_bank\[3\]\.u_ro\.n\[24\]
*567 u_puf\.u_core\.g_ro_bank\[3\]\.u_ro\.n\[25\]
*568 u_puf\.u_core\.g_ro_bank\[3\]\.u_ro\.n\[26\]
*569 u_puf\.u_core\.g_ro_bank\[3\]\.u_ro\.n\[27\]
*570 u_puf\.u_core\.g_ro_bank\[3\]\.u_ro\.n\[28\]
*571 u_puf\.u_core\.g_ro_bank\[3\]\.u_ro\.n\[29\]
*572 u_puf\.u_core\.g_ro_bank\[3\]\.u_ro\.n\[2\]
*573 u_puf\.u_core\.g_ro_bank\[3\]\.u_ro\.n\[30\]
*574 u_puf\.u_core\.g_ro_bank\[3\]\.u_ro\.n\[3\]
*575 u_puf\.u_core\.g_ro_bank\[3\]\.u_ro\.n\[4\]
*576 u_puf\.u_core\.g_ro_bank\[3\]\.u_ro\.n\[5\]
*577 u_puf\.u_core\.g_ro_bank\[3\]\.u_ro\.n\[6\]
*578 u_puf\.u_core\.g_ro_bank\[3\]\.u_ro\.n\[7\]
*579 u_puf\.u_core\.g_ro_bank\[3\]\.u_ro\.n\[8\]
*580 u_puf\.u_core\.g_ro_bank\[3\]\.u_ro\.n\[9\]
*581 u_puf\.u_core\.g_ro_bank\[3\]\.u_ro\.out
*582 u_puf\.u_core\.g_ro_bank\[4\]\.u_ro\.en
*583 u_puf\.u_core\.g_ro_bank\[4\]\.u_ro\.n\[0\]
*584 u_puf\.u_core\.g_ro_bank\[4\]\.u_ro\.n\[10\]
*585 u_puf\.u_core\.g_ro_bank\[4\]\.u_ro\.n\[11\]
*586 u_puf\.u_core\.g_ro_bank\[4\]\.u_ro\.n\[12\]
*587 u_puf\.u_core\.g_ro_bank\[4\]\.u_ro\.n\[13\]
*588 u_puf\.u_core\.g_ro_bank\[4\]\.u_ro\.n\[14\]
*589 u_puf\.u_core\.g_ro_bank\[4\]\.u_ro\.n\[15\]
*590 u_puf\.u_core\.g_ro_bank\[4\]\.u_ro\.n\[16\]
*591 u_puf\.u_core\.g_ro_bank\[4\]\.u_ro\.n\[17\]
*592 u_puf\.u_core\.g_ro_bank\[4\]\.u_ro\.n\[18\]
*593 u_puf\.u_core\.g_ro_bank\[4\]\.u_ro\.n\[19\]
*594 u_puf\.u_core\.g_ro_bank\[4\]\.u_ro\.n\[1\]
*595 u_puf\.u_core\.g_ro_bank\[4\]\.u_ro\.n\[20\]
*596 u_puf\.u_core\.g_ro_bank\[4\]\.u_ro\.n\[21\]
*597 u_puf\.u_core\.g_ro_bank\[4\]\.u_ro\.n\[22\]
*598 u_puf\.u_core\.g_ro_bank\[4\]\.u_ro\.n\[23\]
*599 u_puf\.u_core\.g_ro_bank\[4\]\.u_ro\.n\[24\]
*600 u_puf\.u_core\.g_ro_bank\[4\]\.u_ro\.n\[25\]
*601 u_puf\.u_core\.g_ro_bank\[4\]\.u_ro\.n\[26\]
*602 u_puf\.u_core\.g_ro_bank\[4\]\.u_ro\.n\[27\]
*603 u_puf\.u_core\.g_ro_bank\[4\]\.u_ro\.n\[28\]
*604 u_puf\.u_core\.g_ro_bank\[4\]\.u_ro\.n\[29\]
*605 u_puf\.u_core\.g_ro_bank\[4\]\.u_ro\.n\[2\]
*606 u_puf\.u_core\.g_ro_bank\[4\]\.u_ro\.n\[30\]
*607 u_puf\.u_core\.g_ro_bank\[4\]\.u_ro\.n\[3\]
*608 u_puf\.u_core\.g_ro_bank\[4\]\.u_ro\.n\[4\]
*609 u_puf\.u_core\.g_ro_bank\[4\]\.u_ro\.n\[5\]
*610 u_puf\.u_core\.g_ro_bank\[4\]\.u_ro\.n\[6\]
*611 u_puf\.u_core\.g_ro_bank\[4\]\.u_ro\.n\[7\]
*612 u_puf\.u_core\.g_ro_bank\[4\]\.u_ro\.n\[8\]
*613 u_puf\.u_core\.g_ro_bank\[4\]\.u_ro\.n\[9\]
*614 u_puf\.u_core\.g_ro_bank\[4\]\.u_ro\.out
*615 u_puf\.u_core\.g_ro_bank\[5\]\.u_ro\.en
*616 u_puf\.u_core\.g_ro_bank\[5\]\.u_ro\.n\[0\]
*617 u_puf\.u_core\.g_ro_bank\[5\]\.u_ro\.n\[10\]
*618 u_puf\.u_core\.g_ro_bank\[5\]\.u_ro\.n\[11\]
*619 u_puf\.u_core\.g_ro_bank\[5\]\.u_ro\.n\[12\]
*620 u_puf\.u_core\.g_ro_bank\[5\]\.u_ro\.n\[13\]
*621 u_puf\.u_core\.g_ro_bank\[5\]\.u_ro\.n\[14\]
*622 u_puf\.u_core\.g_ro_bank\[5\]\.u_ro\.n\[15\]
*623 u_puf\.u_core\.g_ro_bank\[5\]\.u_ro\.n\[16\]
*624 u_puf\.u_core\.g_ro_bank\[5\]\.u_ro\.n\[17\]
*625 u_puf\.u_core\.g_ro_bank\[5\]\.u_ro\.n\[18\]
*626 u_puf\.u_core\.g_ro_bank\[5\]\.u_ro\.n\[19\]
*627 u_puf\.u_core\.g_ro_bank\[5\]\.u_ro\.n\[1\]
*628 u_puf\.u_core\.g_ro_bank\[5\]\.u_ro\.n\[20\]
*629 u_puf\.u_core\.g_ro_bank\[5\]\.u_ro\.n\[21\]
*630 u_puf\.u_core\.g_ro_bank\[5\]\.u_ro\.n\[22\]
*631 u_puf\.u_core\.g_ro_bank\[5\]\.u_ro\.n\[23\]
*632 u_puf\.u_core\.g_ro_bank\[5\]\.u_ro\.n\[24\]
*633 u_puf\.u_core\.g_ro_bank\[5\]\.u_ro\.n\[25\]
*634 u_puf\.u_core\.g_ro_bank\[5\]\.u_ro\.n\[26\]
*635 u_puf\.u_core\.g_ro_bank\[5\]\.u_ro\.n\[27\]
*636 u_puf\.u_core\.g_ro_bank\[5\]\.u_ro\.n\[28\]
*637 u_puf\.u_core\.g_ro_bank\[5\]\.u_ro\.n\[29\]
*638 u_puf\.u_core\.g_ro_bank\[5\]\.u_ro\.n\[2\]
*639 u_puf\.u_core\.g_ro_bank\[5\]\.u_ro\.n\[30\]
*640 u_puf\.u_core\.g_ro_bank\[5\]\.u_ro\.n\[3\]
*641 u_puf\.u_core\.g_ro_bank\[5\]\.u_ro\.n\[4\]
*642 u_puf\.u_core\.g_ro_bank\[5\]\.u_ro\.n\[5\]
*643 u_puf\.u_core\.g_ro_bank\[5\]\.u_ro\.n\[6\]
*644 u_puf\.u_core\.g_ro_bank\[5\]\.u_ro\.n\[7\]
*645 u_puf\.u_core\.g_ro_bank\[5\]\.u_ro\.n\[8\]
*646 u_puf\.u_core\.g_ro_bank\[5\]\.u_ro\.n\[9\]
*647 u_puf\.u_core\.g_ro_bank\[5\]\.u_ro\.out
*648 u_puf\.u_core\.g_ro_bank\[6\]\.u_ro\.en
*649 u_puf\.u_core\.g_ro_bank\[6\]\.u_ro\.n\[0\]
*650 u_puf\.u_core\.g_ro_bank\[6\]\.u_ro\.n\[10\]
*651 u_puf\.u_core\.g_ro_bank\[6\]\.u_ro\.n\[11\]
*652 u_puf\.u_core\.g_ro_bank\[6\]\.u_ro\.n\[12\]
*653 u_puf\.u_core\.g_ro_bank\[6\]\.u_ro\.n\[13\]
*654 u_puf\.u_core\.g_ro_bank\[6\]\.u_ro\.n\[14\]
*655 u_puf\.u_core\.g_ro_bank\[6\]\.u_ro\.n\[15\]
*656 u_puf\.u_core\.g_ro_bank\[6\]\.u_ro\.n\[16\]
*657 u_puf\.u_core\.g_ro_bank\[6\]\.u_ro\.n\[17\]
*658 u_puf\.u_core\.g_ro_bank\[6\]\.u_ro\.n\[18\]
*659 u_puf\.u_core\.g_ro_bank\[6\]\.u_ro\.n\[19\]
*660 u_puf\.u_core\.g_ro_bank\[6\]\.u_ro\.n\[1\]
*661 u_puf\.u_core\.g_ro_bank\[6\]\.u_ro\.n\[20\]
*662 u_puf\.u_core\.g_ro_bank\[6\]\.u_ro\.n\[21\]
*663 u_puf\.u_core\.g_ro_bank\[6\]\.u_ro\.n\[22\]
*664 u_puf\.u_core\.g_ro_bank\[6\]\.u_ro\.n\[23\]
*665 u_puf\.u_core\.g_ro_bank\[6\]\.u_ro\.n\[24\]
*666 u_puf\.u_core\.g_ro_bank\[6\]\.u_ro\.n\[25\]
*667 u_puf\.u_core\.g_ro_bank\[6\]\.u_ro\.n\[26\]
*668 u_puf\.u_core\.g_ro_bank\[6\]\.u_ro\.n\[27\]
*669 u_puf\.u_core\.g_ro_bank\[6\]\.u_ro\.n\[28\]
*670 u_puf\.u_core\.g_ro_bank\[6\]\.u_ro\.n\[29\]
*671 u_puf\.u_core\.g_ro_bank\[6\]\.u_ro\.n\[2\]
*672 u_puf\.u_core\.g_ro_bank\[6\]\.u_ro\.n\[30\]
*673 u_puf\.u_core\.g_ro_bank\[6\]\.u_ro\.n\[3\]
*674 u_puf\.u_core\.g_ro_bank\[6\]\.u_ro\.n\[4\]
*675 u_puf\.u_core\.g_ro_bank\[6\]\.u_ro\.n\[5\]
*676 u_puf\.u_core\.g_ro_bank\[6\]\.u_ro\.n\[6\]
*677 u_puf\.u_core\.g_ro_bank\[6\]\.u_ro\.n\[7\]
*678 u_puf\.u_core\.g_ro_bank\[6\]\.u_ro\.n\[8\]
*679 u_puf\.u_core\.g_ro_bank\[6\]\.u_ro\.n\[9\]
*680 u_puf\.u_core\.g_ro_bank\[6\]\.u_ro\.out
*681 u_puf\.u_core\.g_ro_bank\[7\]\.u_ro\.en
*682 u_puf\.u_core\.g_ro_bank\[7\]\.u_ro\.n\[0\]
*683 u_puf\.u_core\.g_ro_bank\[7\]\.u_ro\.n\[10\]
*684 u_puf\.u_core\.g_ro_bank\[7\]\.u_ro\.n\[11\]
*685 u_puf\.u_core\.g_ro_bank\[7\]\.u_ro\.n\[12\]
*686 u_puf\.u_core\.g_ro_bank\[7\]\.u_ro\.n\[13\]
*687 u_puf\.u_core\.g_ro_bank\[7\]\.u_ro\.n\[14\]
*688 u_puf\.u_core\.g_ro_bank\[7\]\.u_ro\.n\[15\]
*689 u_puf\.u_core\.g_ro_bank\[7\]\.u_ro\.n\[16\]
*690 u_puf\.u_core\.g_ro_bank\[7\]\.u_ro\.n\[17\]
*691 u_puf\.u_core\.g_ro_bank\[7\]\.u_ro\.n\[18\]
*692 u_puf\.u_core\.g_ro_bank\[7\]\.u_ro\.n\[19\]
*693 u_puf\.u_core\.g_ro_bank\[7\]\.u_ro\.n\[1\]
*694 u_puf\.u_core\.g_ro_bank\[7\]\.u_ro\.n\[20\]
*695 u_puf\.u_core\.g_ro_bank\[7\]\.u_ro\.n\[21\]
*696 u_puf\.u_core\.g_ro_bank\[7\]\.u_ro\.n\[22\]
*697 u_puf\.u_core\.g_ro_bank\[7\]\.u_ro\.n\[23\]
*698 u_puf\.u_core\.g_ro_bank\[7\]\.u_ro\.n\[24\]
*699 u_puf\.u_core\.g_ro_bank\[7\]\.u_ro\.n\[25\]
*700 u_puf\.u_core\.g_ro_bank\[7\]\.u_ro\.n\[26\]
*701 u_puf\.u_core\.g_ro_bank\[7\]\.u_ro\.n\[27\]
*702 u_puf\.u_core\.g_ro_bank\[7\]\.u_ro\.n\[28\]
*703 u_puf\.u_core\.g_ro_bank\[7\]\.u_ro\.n\[29\]
*704 u_puf\.u_core\.g_ro_bank\[7\]\.u_ro\.n\[2\]
*705 u_puf\.u_core\.g_ro_bank\[7\]\.u_ro\.n\[30\]
*706 u_puf\.u_core\.g_ro_bank\[7\]\.u_ro\.n\[3\]
*707 u_puf\.u_core\.g_ro_bank\[7\]\.u_ro\.n\[4\]
*708 u_puf\.u_core\.g_ro_bank\[7\]\.u_ro\.n\[5\]
*709 u_puf\.u_core\.g_ro_bank\[7\]\.u_ro\.n\[6\]
*710 u_puf\.u_core\.g_ro_bank\[7\]\.u_ro\.n\[7\]
*711 u_puf\.u_core\.g_ro_bank\[7\]\.u_ro\.n\[8\]
*712 u_puf\.u_core\.g_ro_bank\[7\]\.u_ro\.n\[9\]
*713 u_puf\.u_core\.g_ro_bank\[7\]\.u_ro\.out
*714 u_puf\.u_core\.g_ro_bank\[8\]\.u_ro\.en
*715 u_puf\.u_core\.g_ro_bank\[8\]\.u_ro\.n\[0\]
*716 u_puf\.u_core\.g_ro_bank\[8\]\.u_ro\.n\[10\]
*717 u_puf\.u_core\.g_ro_bank\[8\]\.u_ro\.n\[11\]
*718 u_puf\.u_core\.g_ro_bank\[8\]\.u_ro\.n\[12\]
*719 u_puf\.u_core\.g_ro_bank\[8\]\.u_ro\.n\[13\]
*720 u_puf\.u_core\.g_ro_bank\[8\]\.u_ro\.n\[14\]
*721 u_puf\.u_core\.g_ro_bank\[8\]\.u_ro\.n\[15\]
*722 u_puf\.u_core\.g_ro_bank\[8\]\.u_ro\.n\[16\]
*723 u_puf\.u_core\.g_ro_bank\[8\]\.u_ro\.n\[17\]
*724 u_puf\.u_core\.g_ro_bank\[8\]\.u_ro\.n\[18\]
*725 u_puf\.u_core\.g_ro_bank\[8\]\.u_ro\.n\[19\]
*726 u_puf\.u_core\.g_ro_bank\[8\]\.u_ro\.n\[1\]
*727 u_puf\.u_core\.g_ro_bank\[8\]\.u_ro\.n\[20\]
*728 u_puf\.u_core\.g_ro_bank\[8\]\.u_ro\.n\[21\]
*729 u_puf\.u_core\.g_ro_bank\[8\]\.u_ro\.n\[22\]
*730 u_puf\.u_core\.g_ro_bank\[8\]\.u_ro\.n\[23\]
*731 u_puf\.u_core\.g_ro_bank\[8\]\.u_ro\.n\[24\]
*732 u_puf\.u_core\.g_ro_bank\[8\]\.u_ro\.n\[25\]
*733 u_puf\.u_core\.g_ro_bank\[8\]\.u_ro\.n\[26\]
*734 u_puf\.u_core\.g_ro_bank\[8\]\.u_ro\.n\[27\]
*735 u_puf\.u_core\.g_ro_bank\[8\]\.u_ro\.n\[28\]
*736 u_puf\.u_core\.g_ro_bank\[8\]\.u_ro\.n\[29\]
*737 u_puf\.u_core\.g_ro_bank\[8\]\.u_ro\.n\[2\]
*738 u_puf\.u_core\.g_ro_bank\[8\]\.u_ro\.n\[30\]
*739 u_puf\.u_core\.g_ro_bank\[8\]\.u_ro\.n\[3\]
*740 u_puf\.u_core\.g_ro_bank\[8\]\.u_ro\.n\[4\]
*741 u_puf\.u_core\.g_ro_bank\[8\]\.u_ro\.n\[5\]
*742 u_puf\.u_core\.g_ro_bank\[8\]\.u_ro\.n\[6\]
*743 u_puf\.u_core\.g_ro_bank\[8\]\.u_ro\.n\[7\]
*744 u_puf\.u_core\.g_ro_bank\[8\]\.u_ro\.n\[8\]
*745 u_puf\.u_core\.g_ro_bank\[8\]\.u_ro\.n\[9\]
*746 u_puf\.u_core\.g_ro_bank\[8\]\.u_ro\.out
*747 u_puf\.u_core\.g_ro_bank\[9\]\.u_ro\.en
*748 u_puf\.u_core\.g_ro_bank\[9\]\.u_ro\.n\[0\]
*749 u_puf\.u_core\.g_ro_bank\[9\]\.u_ro\.n\[10\]
*750 u_puf\.u_core\.g_ro_bank\[9\]\.u_ro\.n\[11\]
*751 u_puf\.u_core\.g_ro_bank\[9\]\.u_ro\.n\[12\]
*752 u_puf\.u_core\.g_ro_bank\[9\]\.u_ro\.n\[13\]
*753 u_puf\.u_core\.g_ro_bank\[9\]\.u_ro\.n\[14\]
*754 u_puf\.u_core\.g_ro_bank\[9\]\.u_ro\.n\[15\]
*755 u_puf\.u_core\.g_ro_bank\[9\]\.u_ro\.n\[16\]
*756 u_puf\.u_core\.g_ro_bank\[9\]\.u_ro\.n\[17\]
*757 u_puf\.u_core\.g_ro_bank\[9\]\.u_ro\.n\[18\]
*758 u_puf\.u_core\.g_ro_bank\[9\]\.u_ro\.n\[19\]
*759 u_puf\.u_core\.g_ro_bank\[9\]\.u_ro\.n\[1\]
*760 u_puf\.u_core\.g_ro_bank\[9\]\.u_ro\.n\[20\]
*761 u_puf\.u_core\.g_ro_bank\[9\]\.u_ro\.n\[21\]
*762 u_puf\.u_core\.g_ro_bank\[9\]\.u_ro\.n\[22\]
*763 u_puf\.u_core\.g_ro_bank\[9\]\.u_ro\.n\[23\]
*764 u_puf\.u_core\.g_ro_bank\[9\]\.u_ro\.n\[24\]
*765 u_puf\.u_core\.g_ro_bank\[9\]\.u_ro\.n\[25\]
*766 u_puf\.u_core\.g_ro_bank\[9\]\.u_ro\.n\[26\]
*767 u_puf\.u_core\.g_ro_bank\[9\]\.u_ro\.n\[27\]
*768 u_puf\.u_core\.g_ro_bank\[9\]\.u_ro\.n\[28\]
*769 u_puf\.u_core\.g_ro_bank\[9\]\.u_ro\.n\[29\]
*770 u_puf\.u_core\.g_ro_bank\[9\]\.u_ro\.n\[2\]
*771 u_puf\.u_core\.g_ro_bank\[9\]\.u_ro\.n\[30\]
*772 u_puf\.u_core\.g_ro_bank\[9\]\.u_ro\.n\[3\]
*773 u_puf\.u_core\.g_ro_bank\[9\]\.u_ro\.n\[4\]
*774 u_puf\.u_core\.g_ro_bank\[9\]\.u_ro\.n\[5\]
*775 u_puf\.u_core\.g_ro_bank\[9\]\.u_ro\.n\[6\]
*776 u_puf\.u_core\.g_ro_bank\[9\]\.u_ro\.n\[7\]
*777 u_puf\.u_core\.g_ro_bank\[9\]\.u_ro\.n\[8\]
*778 u_puf\.u_core\.g_ro_bank\[9\]\.u_ro\.n\[9\]
*779 u_puf\.u_core\.g_ro_bank\[9\]\.u_ro\.out
*780 u_puf\.u_core\.gated_ro
*781 u_puf\.u_core\.wtimer\[0\]
*782 u_puf\.u_core\.wtimer\[10\]
*783 u_puf\.u_core\.wtimer\[11\]
*784 u_puf\.u_core\.wtimer\[12\]
*785 u_puf\.u_core\.wtimer\[13\]
*786 u_puf\.u_core\.wtimer\[14\]
*787 u_puf\.u_core\.wtimer\[15\]
*788 u_puf\.u_core\.wtimer\[1\]
*789 u_puf\.u_core\.wtimer\[2\]
*790 u_puf\.u_core\.wtimer\[3\]
*791 u_puf\.u_core\.wtimer\[4\]
*792 u_puf\.u_core\.wtimer\[5\]
*793 u_puf\.u_core\.wtimer\[6\]
*794 u_puf\.u_core\.wtimer\[7\]
*795 u_puf\.u_core\.wtimer\[8\]
*796 u_puf\.u_core\.wtimer\[9\]
*797 ANTENNA_1
*798 ANTENNA_2
*799 ANTENNA_3
*800 FILLER_0_100
*801 FILLER_0_103
*802 FILLER_0_106
*803 FILLER_0_109
*804 FILLER_0_113
*805 FILLER_0_116
*806 FILLER_0_119
*807 FILLER_0_12
*808 FILLER_0_122
*809 FILLER_0_125
*810 FILLER_0_128
*811 FILLER_0_131
*812 FILLER_0_134
*813 FILLER_0_137
*814 FILLER_0_141
*815 FILLER_0_144
*816 FILLER_0_147
*817 FILLER_0_15
*818 FILLER_0_150
*819 FILLER_0_153
*820 FILLER_0_156
*821 FILLER_0_159
*822 FILLER_0_162
*823 FILLER_0_165
*824 FILLER_0_169
*825 FILLER_0_172
*826 FILLER_0_175
*827 FILLER_0_178
*828 FILLER_0_18
*829 FILLER_0_181
*830 FILLER_0_184
*831 FILLER_0_187
*832 FILLER_0_190
*833 FILLER_0_193
*834 FILLER_0_197
*835 FILLER_0_200
*836 FILLER_0_203
*837 FILLER_0_206
*838 FILLER_0_209
*839 FILLER_0_21
*840 FILLER_0_212
*841 FILLER_0_215
*842 FILLER_0_218
*843 FILLER_0_221
*844 FILLER_0_225
*845 FILLER_0_228
*846 FILLER_0_231
*847 FILLER_0_234
*848 FILLER_0_237
*849 FILLER_0_24
*850 FILLER_0_240
*851 FILLER_0_243
*852 FILLER_0_246
*853 FILLER_0_249
*854 FILLER_0_253
*855 FILLER_0_256
*856 FILLER_0_259
*857 FILLER_0_262
*858 FILLER_0_265
*859 FILLER_0_268
*860 FILLER_0_27
*861 FILLER_0_271
*862 FILLER_0_274
*863 FILLER_0_277
*864 FILLER_0_281
*865 FILLER_0_284
*866 FILLER_0_287
*867 FILLER_0_29
*868 FILLER_0_290
*869 FILLER_0_293
*870 FILLER_0_296
*871 FILLER_0_299
*872 FILLER_0_3
*873 FILLER_0_302
*874 FILLER_0_305
*875 FILLER_0_309
*876 FILLER_0_312
*877 FILLER_0_315
*878 FILLER_0_318
*879 FILLER_0_32
*880 FILLER_0_321
*881 FILLER_0_324
*882 FILLER_0_327
*883 FILLER_0_330
*884 FILLER_0_333
*885 FILLER_0_337
*886 FILLER_0_340
*887 FILLER_0_343
*888 FILLER_0_346
*889 FILLER_0_349
*890 FILLER_0_35
*891 FILLER_0_352
*892 FILLER_0_355
*893 FILLER_0_358
*894 FILLER_0_361
*895 FILLER_0_365
*896 FILLER_0_368
*897 FILLER_0_371
*898 FILLER_0_374
*899 FILLER_0_377
*900 FILLER_0_38
*901 FILLER_0_380
*902 FILLER_0_383
*903 FILLER_0_386
*904 FILLER_0_389
*905 FILLER_0_393
*906 FILLER_0_396
*907 FILLER_0_399
*908 FILLER_0_402
*909 FILLER_0_405
*910 FILLER_0_408
*911 FILLER_0_41
*912 FILLER_0_411
*913 FILLER_0_414
*914 FILLER_0_417
*915 FILLER_0_421
*916 FILLER_0_424
*917 FILLER_0_427
*918 FILLER_0_430
*919 FILLER_0_433
*920 FILLER_0_436
*921 FILLER_0_439
*922 FILLER_0_44
*923 FILLER_0_442
*924 FILLER_0_445
*925 FILLER_0_449
*926 FILLER_0_452
*927 FILLER_0_455
*928 FILLER_0_458
*929 FILLER_0_461
*930 FILLER_0_464
*931 FILLER_0_467
*932 FILLER_0_47
*933 FILLER_0_470
*934 FILLER_0_473
*935 FILLER_0_477
*936 FILLER_0_480
*937 FILLER_0_483
*938 FILLER_0_486
*939 FILLER_0_489
*940 FILLER_0_492
*941 FILLER_0_495
*942 FILLER_0_498
*943 FILLER_0_50
*944 FILLER_0_501
*945 FILLER_0_505
*946 FILLER_0_508
*947 FILLER_0_511
*948 FILLER_0_514
*949 FILLER_0_517
*950 FILLER_0_520
*951 FILLER_0_523
*952 FILLER_0_526
*953 FILLER_0_529
*954 FILLER_0_53
*955 FILLER_0_533
*956 FILLER_0_536
*957 FILLER_0_539
*958 FILLER_0_542
*959 FILLER_0_545
*960 FILLER_0_548
*961 FILLER_0_551
*962 FILLER_0_554
*963 FILLER_0_557
*964 FILLER_0_561
*965 FILLER_0_564
*966 FILLER_0_567
*967 FILLER_0_57
*968 FILLER_0_570
*969 FILLER_0_573
*970 FILLER_0_576
*971 FILLER_0_579
*972 FILLER_0_582
*973 FILLER_0_585
*974 FILLER_0_589
*975 FILLER_0_592
*976 FILLER_0_595
*977 FILLER_0_598
*978 FILLER_0_6
*979 FILLER_0_60
*980 FILLER_0_601
*981 FILLER_0_604
*982 FILLER_0_607
*983 FILLER_0_610
*984 FILLER_0_613
*985 FILLER_0_617
*986 FILLER_0_620
*987 FILLER_0_623
*988 FILLER_0_626
*989 FILLER_0_629
*990 FILLER_0_63
*991 FILLER_0_632
*992 FILLER_0_635
*993 FILLER_0_638
*994 FILLER_0_641
*995 FILLER_0_645
*996 FILLER_0_648
*997 FILLER_0_651
*998 FILLER_0_654
*999 FILLER_0_657
*1000 FILLER_0_66
*1001 FILLER_0_660
*1002 FILLER_0_663
*1003 FILLER_0_666
*1004 FILLER_0_669
*1005 FILLER_0_673
*1006 FILLER_0_676
*1007 FILLER_0_679
*1008 FILLER_0_682
*1009 FILLER_0_685
*1010 FILLER_0_688
*1011 FILLER_0_69
*1012 FILLER_0_691
*1013 FILLER_0_694
*1014 FILLER_0_697
*1015 FILLER_0_701
*1016 FILLER_0_704
*1017 FILLER_0_707
*1018 FILLER_0_710
*1019 FILLER_0_72
*1020 FILLER_0_75
*1021 FILLER_0_78
*1022 FILLER_0_81
*1023 FILLER_0_85
*1024 FILLER_0_88
*1025 FILLER_0_9
*1026 FILLER_0_91
*1027 FILLER_0_94
*1028 FILLER_0_97
*1029 FILLER_10_531
*1030 FILLER_10_534
*1031 FILLER_10_537
*1032 FILLER_10_540
*1033 FILLER_10_543
*1034 FILLER_10_546
*1035 FILLER_10_549
*1036 FILLER_10_552
*1037 FILLER_10_555
*1038 FILLER_10_557
*1039 FILLER_10_560
*1040 FILLER_10_563
*1041 FILLER_10_566
*1042 FILLER_10_569
*1043 FILLER_10_572
*1044 FILLER_10_575
*1045 FILLER_10_578
*1046 FILLER_10_581
*1047 FILLER_10_584
*1048 FILLER_10_587
*1049 FILLER_10_590
*1050 FILLER_10_593
*1051 FILLER_10_596
*1052 FILLER_10_599
*1053 FILLER_10_602
*1054 FILLER_10_605
*1055 FILLER_10_608
*1056 FILLER_10_611
*1057 FILLER_10_613
*1058 FILLER_10_616
*1059 FILLER_10_619
*1060 FILLER_10_622
*1061 FILLER_10_625
*1062 FILLER_10_628
*1063 FILLER_10_631
*1064 FILLER_10_634
*1065 FILLER_10_637
*1066 FILLER_10_640
*1067 FILLER_10_643
*1068 FILLER_10_646
*1069 FILLER_10_649
*1070 FILLER_10_652
*1071 FILLER_10_655
*1072 FILLER_10_658
*1073 FILLER_10_661
*1074 FILLER_10_664
*1075 FILLER_10_667
*1076 FILLER_10_669
*1077 FILLER_10_672
*1078 FILLER_10_675
*1079 FILLER_10_678
*1080 FILLER_10_681
*1081 FILLER_10_684
*1082 FILLER_10_687
*1083 FILLER_10_690
*1084 FILLER_10_693
*1085 FILLER_10_696
*1086 FILLER_10_699
*1087 FILLER_10_702
*1088 FILLER_10_705
*1089 FILLER_10_708
*1090 FILLER_10_711
*1091 FILLER_11_531
*1092 FILLER_11_534
*1093 FILLER_11_537
*1094 FILLER_11_540
*1095 FILLER_11_543
*1096 FILLER_11_546
*1097 FILLER_11_549
*1098 FILLER_11_552
*1099 FILLER_11_555
*1100 FILLER_11_558
*1101 FILLER_11_561
*1102 FILLER_11_564
*1103 FILLER_11_567
*1104 FILLER_11_570
*1105 FILLER_11_573
*1106 FILLER_11_576
*1107 FILLER_11_579
*1108 FILLER_11_582
*1109 FILLER_11_585
*1110 FILLER_11_588
*1111 FILLER_11_591
*1112 FILLER_11_594
*1113 FILLER_11_597
*1114 FILLER_11_600
*1115 FILLER_11_603
*1116 FILLER_11_606
*1117 FILLER_11_609
*1118 FILLER_11_612
*1119 FILLER_11_615
*1120 FILLER_11_618
*1121 FILLER_11_621
*1122 FILLER_11_624
*1123 FILLER_11_627
*1124 FILLER_11_630
*1125 FILLER_11_633
*1126 FILLER_11_636
*1127 FILLER_11_639
*1128 FILLER_11_641
*1129 FILLER_11_644
*1130 FILLER_11_647
*1131 FILLER_11_650
*1132 FILLER_11_653
*1133 FILLER_11_656
*1134 FILLER_11_659
*1135 FILLER_11_662
*1136 FILLER_11_665
*1137 FILLER_11_668
*1138 FILLER_11_671
*1139 FILLER_11_674
*1140 FILLER_11_677
*1141 FILLER_11_680
*1142 FILLER_11_683
*1143 FILLER_11_686
*1144 FILLER_11_689
*1145 FILLER_11_692
*1146 FILLER_11_695
*1147 FILLER_11_697
*1148 FILLER_11_700
*1149 FILLER_11_703
*1150 FILLER_11_706
*1151 FILLER_11_709
*1152 FILLER_11_712
*1153 FILLER_12_531
*1154 FILLER_12_534
*1155 FILLER_12_537
*1156 FILLER_12_540
*1157 FILLER_12_543
*1158 FILLER_12_546
*1159 FILLER_12_549
*1160 FILLER_12_552
*1161 FILLER_12_555
*1162 FILLER_12_557
*1163 FILLER_12_560
*1164 FILLER_12_563
*1165 FILLER_12_566
*1166 FILLER_12_569
*1167 FILLER_12_572
*1168 FILLER_12_575
*1169 FILLER_12_578
*1170 FILLER_12_581
*1171 FILLER_12_584
*1172 FILLER_12_587
*1173 FILLER_12_590
*1174 FILLER_12_593
*1175 FILLER_12_596
*1176 FILLER_12_599
*1177 FILLER_12_602
*1178 FILLER_12_605
*1179 FILLER_12_608
*1180 FILLER_12_611
*1181 FILLER_12_613
*1182 FILLER_12_616
*1183 FILLER_12_619
*1184 FILLER_12_622
*1185 FILLER_12_625
*1186 FILLER_12_628
*1187 FILLER_12_631
*1188 FILLER_12_634
*1189 FILLER_12_637
*1190 FILLER_12_640
*1191 FILLER_12_643
*1192 FILLER_12_646
*1193 FILLER_12_649
*1194 FILLER_12_652
*1195 FILLER_12_655
*1196 FILLER_12_658
*1197 FILLER_12_661
*1198 FILLER_12_664
*1199 FILLER_12_667
*1200 FILLER_12_669
*1201 FILLER_12_672
*1202 FILLER_12_675
*1203 FILLER_12_678
*1204 FILLER_12_681
*1205 FILLER_12_684
*1206 FILLER_12_687
*1207 FILLER_12_690
*1208 FILLER_12_693
*1209 FILLER_12_696
*1210 FILLER_12_699
*1211 FILLER_12_702
*1212 FILLER_12_705
*1213 FILLER_12_708
*1214 FILLER_12_711
*1215 FILLER_13_531
*1216 FILLER_13_534
*1217 FILLER_13_537
*1218 FILLER_13_540
*1219 FILLER_13_543
*1220 FILLER_13_546
*1221 FILLER_13_549
*1222 FILLER_13_552
*1223 FILLER_13_555
*1224 FILLER_13_558
*1225 FILLER_13_561
*1226 FILLER_13_564
*1227 FILLER_13_567
*1228 FILLER_13_570
*1229 FILLER_13_573
*1230 FILLER_13_576
*1231 FILLER_13_579
*1232 FILLER_13_582
*1233 FILLER_13_585
*1234 FILLER_13_588
*1235 FILLER_13_591
*1236 FILLER_13_594
*1237 FILLER_13_597
*1238 FILLER_13_600
*1239 FILLER_13_603
*1240 FILLER_13_606
*1241 FILLER_13_609
*1242 FILLER_13_612
*1243 FILLER_13_615
*1244 FILLER_13_618
*1245 FILLER_13_621
*1246 FILLER_13_624
*1247 FILLER_13_627
*1248 FILLER_13_630
*1249 FILLER_13_633
*1250 FILLER_13_636
*1251 FILLER_13_639
*1252 FILLER_13_641
*1253 FILLER_13_644
*1254 FILLER_13_647
*1255 FILLER_13_650
*1256 FILLER_13_653
*1257 FILLER_13_656
*1258 FILLER_13_659
*1259 FILLER_13_662
*1260 FILLER_13_665
*1261 FILLER_13_668
*1262 FILLER_13_671
*1263 FILLER_13_674
*1264 FILLER_13_677
*1265 FILLER_13_680
*1266 FILLER_13_683
*1267 FILLER_13_686
*1268 FILLER_13_689
*1269 FILLER_13_692
*1270 FILLER_13_695
*1271 FILLER_13_697
*1272 FILLER_13_700
*1273 FILLER_13_703
*1274 FILLER_13_706
*1275 FILLER_13_709
*1276 FILLER_13_712
*1277 FILLER_14_531
*1278 FILLER_14_534
*1279 FILLER_14_537
*1280 FILLER_14_540
*1281 FILLER_14_543
*1282 FILLER_14_546
*1283 FILLER_14_549
*1284 FILLER_14_552
*1285 FILLER_14_555
*1286 FILLER_14_557
*1287 FILLER_14_560
*1288 FILLER_14_563
*1289 FILLER_14_566
*1290 FILLER_14_569
*1291 FILLER_14_572
*1292 FILLER_14_575
*1293 FILLER_14_578
*1294 FILLER_14_581
*1295 FILLER_14_584
*1296 FILLER_14_587
*1297 FILLER_14_590
*1298 FILLER_14_593
*1299 FILLER_14_596
*1300 FILLER_14_599
*1301 FILLER_14_602
*1302 FILLER_14_605
*1303 FILLER_14_608
*1304 FILLER_14_611
*1305 FILLER_14_613
*1306 FILLER_14_616
*1307 FILLER_14_619
*1308 FILLER_14_622
*1309 FILLER_14_625
*1310 FILLER_14_628
*1311 FILLER_14_631
*1312 FILLER_14_634
*1313 FILLER_14_637
*1314 FILLER_14_640
*1315 FILLER_14_643
*1316 FILLER_14_646
*1317 FILLER_14_649
*1318 FILLER_14_652
*1319 FILLER_14_655
*1320 FILLER_14_658
*1321 FILLER_14_661
*1322 FILLER_14_664
*1323 FILLER_14_667
*1324 FILLER_14_669
*1325 FILLER_14_672
*1326 FILLER_14_675
*1327 FILLER_14_678
*1328 FILLER_14_681
*1329 FILLER_14_684
*1330 FILLER_14_687
*1331 FILLER_14_690
*1332 FILLER_14_693
*1333 FILLER_14_696
*1334 FILLER_14_699
*1335 FILLER_14_702
*1336 FILLER_14_705
*1337 FILLER_14_708
*1338 FILLER_14_711
*1339 FILLER_15_531
*1340 FILLER_15_534
*1341 FILLER_15_537
*1342 FILLER_15_540
*1343 FILLER_15_543
*1344 FILLER_15_546
*1345 FILLER_15_549
*1346 FILLER_15_552
*1347 FILLER_15_555
*1348 FILLER_15_558
*1349 FILLER_15_561
*1350 FILLER_15_564
*1351 FILLER_15_567
*1352 FILLER_15_570
*1353 FILLER_15_573
*1354 FILLER_15_576
*1355 FILLER_15_579
*1356 FILLER_15_582
*1357 FILLER_15_585
*1358 FILLER_15_588
*1359 FILLER_15_591
*1360 FILLER_15_594
*1361 FILLER_15_597
*1362 FILLER_15_600
*1363 FILLER_15_603
*1364 FILLER_15_606
*1365 FILLER_15_609
*1366 FILLER_15_612
*1367 FILLER_15_615
*1368 FILLER_15_618
*1369 FILLER_15_621
*1370 FILLER_15_624
*1371 FILLER_15_627
*1372 FILLER_15_630
*1373 FILLER_15_633
*1374 FILLER_15_636
*1375 FILLER_15_639
*1376 FILLER_15_641
*1377 FILLER_15_644
*1378 FILLER_15_647
*1379 FILLER_15_650
*1380 FILLER_15_653
*1381 FILLER_15_656
*1382 FILLER_15_659
*1383 FILLER_15_662
*1384 FILLER_15_665
*1385 FILLER_15_668
*1386 FILLER_15_671
*1387 FILLER_15_674
*1388 FILLER_15_677
*1389 FILLER_15_680
*1390 FILLER_15_683
*1391 FILLER_15_686
*1392 FILLER_15_689
*1393 FILLER_15_692
*1394 FILLER_15_695
*1395 FILLER_15_697
*1396 FILLER_15_700
*1397 FILLER_15_703
*1398 FILLER_15_706
*1399 FILLER_15_709
*1400 FILLER_15_712
*1401 FILLER_16_531
*1402 FILLER_16_534
*1403 FILLER_16_537
*1404 FILLER_16_540
*1405 FILLER_16_543
*1406 FILLER_16_546
*1407 FILLER_16_549
*1408 FILLER_16_552
*1409 FILLER_16_555
*1410 FILLER_16_557
*1411 FILLER_16_560
*1412 FILLER_16_563
*1413 FILLER_16_566
*1414 FILLER_16_569
*1415 FILLER_16_572
*1416 FILLER_16_575
*1417 FILLER_16_578
*1418 FILLER_16_581
*1419 FILLER_16_584
*1420 FILLER_16_587
*1421 FILLER_16_590
*1422 FILLER_16_593
*1423 FILLER_16_596
*1424 FILLER_16_599
*1425 FILLER_16_602
*1426 FILLER_16_605
*1427 FILLER_16_608
*1428 FILLER_16_611
*1429 FILLER_16_613
*1430 FILLER_16_616
*1431 FILLER_16_619
*1432 FILLER_16_622
*1433 FILLER_16_625
*1434 FILLER_16_628
*1435 FILLER_16_631
*1436 FILLER_16_634
*1437 FILLER_16_637
*1438 FILLER_16_640
*1439 FILLER_16_643
*1440 FILLER_16_646
*1441 FILLER_16_649
*1442 FILLER_16_652
*1443 FILLER_16_655
*1444 FILLER_16_658
*1445 FILLER_16_661
*1446 FILLER_16_664
*1447 FILLER_16_667
*1448 FILLER_16_669
*1449 FILLER_16_672
*1450 FILLER_16_675
*1451 FILLER_16_678
*1452 FILLER_16_681
*1453 FILLER_16_684
*1454 FILLER_16_687
*1455 FILLER_16_690
*1456 FILLER_16_693
*1457 FILLER_16_696
*1458 FILLER_16_699
*1459 FILLER_16_702
*1460 FILLER_16_705
*1461 FILLER_16_708
*1462 FILLER_16_711
*1463 FILLER_17_531
*1464 FILLER_17_534
*1465 FILLER_17_537
*1466 FILLER_17_540
*1467 FILLER_17_543
*1468 FILLER_17_546
*1469 FILLER_17_549
*1470 FILLER_17_552
*1471 FILLER_17_555
*1472 FILLER_17_558
*1473 FILLER_17_561
*1474 FILLER_17_564
*1475 FILLER_17_567
*1476 FILLER_17_570
*1477 FILLER_17_573
*1478 FILLER_17_576
*1479 FILLER_17_579
*1480 FILLER_17_582
*1481 FILLER_17_585
*1482 FILLER_17_588
*1483 FILLER_17_591
*1484 FILLER_17_594
*1485 FILLER_17_597
*1486 FILLER_17_600
*1487 FILLER_17_603
*1488 FILLER_17_606
*1489 FILLER_17_609
*1490 FILLER_17_612
*1491 FILLER_17_615
*1492 FILLER_17_618
*1493 FILLER_17_621
*1494 FILLER_17_624
*1495 FILLER_17_627
*1496 FILLER_17_630
*1497 FILLER_17_633
*1498 FILLER_17_636
*1499 FILLER_17_639
*1500 FILLER_17_641
*1501 FILLER_17_644
*1502 FILLER_17_647
*1503 FILLER_17_650
*1504 FILLER_17_653
*1505 FILLER_17_656
*1506 FILLER_17_659
*1507 FILLER_17_662
*1508 FILLER_17_665
*1509 FILLER_17_668
*1510 FILLER_17_671
*1511 FILLER_17_674
*1512 FILLER_17_677
*1513 FILLER_17_680
*1514 FILLER_17_683
*1515 FILLER_17_686
*1516 FILLER_17_689
*1517 FILLER_17_692
*1518 FILLER_17_695
*1519 FILLER_17_697
*1520 FILLER_17_700
*1521 FILLER_17_703
*1522 FILLER_17_706
*1523 FILLER_17_709
*1524 FILLER_17_712
*1525 FILLER_18_531
*1526 FILLER_18_534
*1527 FILLER_18_537
*1528 FILLER_18_540
*1529 FILLER_18_543
*1530 FILLER_18_546
*1531 FILLER_18_549
*1532 FILLER_18_552
*1533 FILLER_18_555
*1534 FILLER_18_557
*1535 FILLER_18_560
*1536 FILLER_18_563
*1537 FILLER_18_566
*1538 FILLER_18_569
*1539 FILLER_18_572
*1540 FILLER_18_575
*1541 FILLER_18_578
*1542 FILLER_18_581
*1543 FILLER_18_584
*1544 FILLER_18_587
*1545 FILLER_18_590
*1546 FILLER_18_593
*1547 FILLER_18_596
*1548 FILLER_18_599
*1549 FILLER_18_602
*1550 FILLER_18_605
*1551 FILLER_18_608
*1552 FILLER_18_611
*1553 FILLER_18_613
*1554 FILLER_18_616
*1555 FILLER_18_619
*1556 FILLER_18_622
*1557 FILLER_18_625
*1558 FILLER_18_628
*1559 FILLER_18_631
*1560 FILLER_18_634
*1561 FILLER_18_637
*1562 FILLER_18_640
*1563 FILLER_18_643
*1564 FILLER_18_646
*1565 FILLER_18_649
*1566 FILLER_18_652
*1567 FILLER_18_655
*1568 FILLER_18_658
*1569 FILLER_18_661
*1570 FILLER_18_664
*1571 FILLER_18_667
*1572 FILLER_18_669
*1573 FILLER_18_672
*1574 FILLER_18_675
*1575 FILLER_18_678
*1576 FILLER_18_681
*1577 FILLER_18_684
*1578 FILLER_18_687
*1579 FILLER_18_690
*1580 FILLER_18_693
*1581 FILLER_18_696
*1582 FILLER_18_699
*1583 FILLER_18_702
*1584 FILLER_18_705
*1585 FILLER_18_708
*1586 FILLER_18_711
*1587 FILLER_19_531
*1588 FILLER_19_534
*1589 FILLER_19_537
*1590 FILLER_19_540
*1591 FILLER_19_543
*1592 FILLER_19_546
*1593 FILLER_19_549
*1594 FILLER_19_552
*1595 FILLER_19_555
*1596 FILLER_19_558
*1597 FILLER_19_561
*1598 FILLER_19_564
*1599 FILLER_19_567
*1600 FILLER_19_570
*1601 FILLER_19_573
*1602 FILLER_19_576
*1603 FILLER_19_579
*1604 FILLER_19_582
*1605 FILLER_19_585
*1606 FILLER_19_588
*1607 FILLER_19_591
*1608 FILLER_19_594
*1609 FILLER_19_597
*1610 FILLER_19_600
*1611 FILLER_19_603
*1612 FILLER_19_606
*1613 FILLER_19_609
*1614 FILLER_19_612
*1615 FILLER_19_615
*1616 FILLER_19_618
*1617 FILLER_19_621
*1618 FILLER_19_624
*1619 FILLER_19_627
*1620 FILLER_19_630
*1621 FILLER_19_633
*1622 FILLER_19_636
*1623 FILLER_19_639
*1624 FILLER_19_641
*1625 FILLER_19_644
*1626 FILLER_19_647
*1627 FILLER_19_650
*1628 FILLER_19_653
*1629 FILLER_19_656
*1630 FILLER_19_659
*1631 FILLER_19_662
*1632 FILLER_19_665
*1633 FILLER_19_668
*1634 FILLER_19_671
*1635 FILLER_19_674
*1636 FILLER_19_677
*1637 FILLER_19_680
*1638 FILLER_19_683
*1639 FILLER_19_686
*1640 FILLER_19_689
*1641 FILLER_19_692
*1642 FILLER_19_695
*1643 FILLER_19_697
*1644 FILLER_19_700
*1645 FILLER_19_703
*1646 FILLER_19_706
*1647 FILLER_19_709
*1648 FILLER_19_712
*1649 FILLER_1_102
*1650 FILLER_1_105
*1651 FILLER_1_108
*1652 FILLER_1_111
*1653 FILLER_1_113
*1654 FILLER_1_116
*1655 FILLER_1_119
*1656 FILLER_1_12
*1657 FILLER_1_122
*1658 FILLER_1_125
*1659 FILLER_1_128
*1660 FILLER_1_131
*1661 FILLER_1_134
*1662 FILLER_1_137
*1663 FILLER_1_140
*1664 FILLER_1_143
*1665 FILLER_1_146
*1666 FILLER_1_149
*1667 FILLER_1_15
*1668 FILLER_1_152
*1669 FILLER_1_155
*1670 FILLER_1_158
*1671 FILLER_1_161
*1672 FILLER_1_164
*1673 FILLER_1_167
*1674 FILLER_1_169
*1675 FILLER_1_172
*1676 FILLER_1_175
*1677 FILLER_1_178
*1678 FILLER_1_18
*1679 FILLER_1_181
*1680 FILLER_1_184
*1681 FILLER_1_187
*1682 FILLER_1_190
*1683 FILLER_1_193
*1684 FILLER_1_196
*1685 FILLER_1_199
*1686 FILLER_1_202
*1687 FILLER_1_205
*1688 FILLER_1_208
*1689 FILLER_1_21
*1690 FILLER_1_211
*1691 FILLER_1_214
*1692 FILLER_1_217
*1693 FILLER_1_220
*1694 FILLER_1_223
*1695 FILLER_1_225
*1696 FILLER_1_228
*1697 FILLER_1_231
*1698 FILLER_1_234
*1699 FILLER_1_237
*1700 FILLER_1_24
*1701 FILLER_1_240
*1702 FILLER_1_243
*1703 FILLER_1_246
*1704 FILLER_1_249
*1705 FILLER_1_252
*1706 FILLER_1_255
*1707 FILLER_1_258
*1708 FILLER_1_261
*1709 FILLER_1_264
*1710 FILLER_1_267
*1711 FILLER_1_27
*1712 FILLER_1_270
*1713 FILLER_1_273
*1714 FILLER_1_276
*1715 FILLER_1_279
*1716 FILLER_1_281
*1717 FILLER_1_284
*1718 FILLER_1_287
*1719 FILLER_1_290
*1720 FILLER_1_293
*1721 FILLER_1_296
*1722 FILLER_1_299
*1723 FILLER_1_3
*1724 FILLER_1_30
*1725 FILLER_1_302
*1726 FILLER_1_305
*1727 FILLER_1_308
*1728 FILLER_1_311
*1729 FILLER_1_314
*1730 FILLER_1_317
*1731 FILLER_1_320
*1732 FILLER_1_323
*1733 FILLER_1_326
*1734 FILLER_1_329
*1735 FILLER_1_33
*1736 FILLER_1_332
*1737 FILLER_1_335
*1738 FILLER_1_337
*1739 FILLER_1_340
*1740 FILLER_1_343
*1741 FILLER_1_346
*1742 FILLER_1_349
*1743 FILLER_1_352
*1744 FILLER_1_355
*1745 FILLER_1_358
*1746 FILLER_1_36
*1747 FILLER_1_361
*1748 FILLER_1_364
*1749 FILLER_1_367
*1750 FILLER_1_370
*1751 FILLER_1_373
*1752 FILLER_1_376
*1753 FILLER_1_379
*1754 FILLER_1_382
*1755 FILLER_1_385
*1756 FILLER_1_388
*1757 FILLER_1_39
*1758 FILLER_1_391
*1759 FILLER_1_393
*1760 FILLER_1_396
*1761 FILLER_1_399
*1762 FILLER_1_402
*1763 FILLER_1_405
*1764 FILLER_1_408
*1765 FILLER_1_411
*1766 FILLER_1_414
*1767 FILLER_1_417
*1768 FILLER_1_42
*1769 FILLER_1_420
*1770 FILLER_1_423
*1771 FILLER_1_426
*1772 FILLER_1_429
*1773 FILLER_1_432
*1774 FILLER_1_435
*1775 FILLER_1_438
*1776 FILLER_1_441
*1777 FILLER_1_444
*1778 FILLER_1_447
*1779 FILLER_1_449
*1780 FILLER_1_45
*1781 FILLER_1_452
*1782 FILLER_1_455
*1783 FILLER_1_458
*1784 FILLER_1_461
*1785 FILLER_1_464
*1786 FILLER_1_467
*1787 FILLER_1_470
*1788 FILLER_1_473
*1789 FILLER_1_476
*1790 FILLER_1_479
*1791 FILLER_1_48
*1792 FILLER_1_482
*1793 FILLER_1_485
*1794 FILLER_1_488
*1795 FILLER_1_491
*1796 FILLER_1_494
*1797 FILLER_1_497
*1798 FILLER_1_500
*1799 FILLER_1_503
*1800 FILLER_1_505
*1801 FILLER_1_508
*1802 FILLER_1_51
*1803 FILLER_1_511
*1804 FILLER_1_514
*1805 FILLER_1_517
*1806 FILLER_1_520
*1807 FILLER_1_523
*1808 FILLER_1_526
*1809 FILLER_1_529
*1810 FILLER_1_532
*1811 FILLER_1_535
*1812 FILLER_1_538
*1813 FILLER_1_54
*1814 FILLER_1_541
*1815 FILLER_1_544
*1816 FILLER_1_547
*1817 FILLER_1_550
*1818 FILLER_1_553
*1819 FILLER_1_556
*1820 FILLER_1_559
*1821 FILLER_1_561
*1822 FILLER_1_564
*1823 FILLER_1_567
*1824 FILLER_1_57
*1825 FILLER_1_570
*1826 FILLER_1_573
*1827 FILLER_1_576
*1828 FILLER_1_579
*1829 FILLER_1_582
*1830 FILLER_1_585
*1831 FILLER_1_588
*1832 FILLER_1_591
*1833 FILLER_1_594
*1834 FILLER_1_597
*1835 FILLER_1_6
*1836 FILLER_1_60
*1837 FILLER_1_600
*1838 FILLER_1_603
*1839 FILLER_1_606
*1840 FILLER_1_609
*1841 FILLER_1_612
*1842 FILLER_1_615
*1843 FILLER_1_617
*1844 FILLER_1_620
*1845 FILLER_1_623
*1846 FILLER_1_626
*1847 FILLER_1_629
*1848 FILLER_1_63
*1849 FILLER_1_632
*1850 FILLER_1_635
*1851 FILLER_1_638
*1852 FILLER_1_641
*1853 FILLER_1_644
*1854 FILLER_1_647
*1855 FILLER_1_650
*1856 FILLER_1_653
*1857 FILLER_1_656
*1858 FILLER_1_659
*1859 FILLER_1_66
*1860 FILLER_1_662
*1861 FILLER_1_665
*1862 FILLER_1_668
*1863 FILLER_1_671
*1864 FILLER_1_673
*1865 FILLER_1_676
*1866 FILLER_1_679
*1867 FILLER_1_682
*1868 FILLER_1_685
*1869 FILLER_1_688
*1870 FILLER_1_69
*1871 FILLER_1_691
*1872 FILLER_1_694
*1873 FILLER_1_697
*1874 FILLER_1_700
*1875 FILLER_1_703
*1876 FILLER_1_706
*1877 FILLER_1_709
*1878 FILLER_1_712
*1879 FILLER_1_72
*1880 FILLER_1_75
*1881 FILLER_1_78
*1882 FILLER_1_81
*1883 FILLER_1_84
*1884 FILLER_1_87
*1885 FILLER_1_9
*1886 FILLER_1_90
*1887 FILLER_1_93
*1888 FILLER_1_96
*1889 FILLER_1_99
*1890 FILLER_20_531
*1891 FILLER_20_534
*1892 FILLER_20_537
*1893 FILLER_20_540
*1894 FILLER_20_543
*1895 FILLER_20_546
*1896 FILLER_20_549
*1897 FILLER_20_552
*1898 FILLER_20_555
*1899 FILLER_20_557
*1900 FILLER_20_560
*1901 FILLER_20_563
*1902 FILLER_20_566
*1903 FILLER_20_569
*1904 FILLER_20_572
*1905 FILLER_20_575
*1906 FILLER_20_578
*1907 FILLER_20_581
*1908 FILLER_20_584
*1909 FILLER_20_587
*1910 FILLER_20_590
*1911 FILLER_20_593
*1912 FILLER_20_596
*1913 FILLER_20_599
*1914 FILLER_20_602
*1915 FILLER_20_605
*1916 FILLER_20_608
*1917 FILLER_20_611
*1918 FILLER_20_613
*1919 FILLER_20_616
*1920 FILLER_20_619
*1921 FILLER_20_622
*1922 FILLER_20_625
*1923 FILLER_20_628
*1924 FILLER_20_631
*1925 FILLER_20_634
*1926 FILLER_20_637
*1927 FILLER_20_640
*1928 FILLER_20_643
*1929 FILLER_20_646
*1930 FILLER_20_649
*1931 FILLER_20_652
*1932 FILLER_20_655
*1933 FILLER_20_658
*1934 FILLER_20_661
*1935 FILLER_20_664
*1936 FILLER_20_667
*1937 FILLER_20_669
*1938 FILLER_20_672
*1939 FILLER_20_675
*1940 FILLER_20_678
*1941 FILLER_20_681
*1942 FILLER_20_684
*1943 FILLER_20_687
*1944 FILLER_20_690
*1945 FILLER_20_693
*1946 FILLER_20_696
*1947 FILLER_20_699
*1948 FILLER_20_702
*1949 FILLER_20_705
*1950 FILLER_20_708
*1951 FILLER_20_711
*1952 FILLER_21_531
*1953 FILLER_21_534
*1954 FILLER_21_537
*1955 FILLER_21_540
*1956 FILLER_21_543
*1957 FILLER_21_546
*1958 FILLER_21_549
*1959 FILLER_21_552
*1960 FILLER_21_555
*1961 FILLER_21_558
*1962 FILLER_21_561
*1963 FILLER_21_564
*1964 FILLER_21_567
*1965 FILLER_21_570
*1966 FILLER_21_573
*1967 FILLER_21_576
*1968 FILLER_21_579
*1969 FILLER_21_582
*1970 FILLER_21_585
*1971 FILLER_21_588
*1972 FILLER_21_591
*1973 FILLER_21_594
*1974 FILLER_21_597
*1975 FILLER_21_600
*1976 FILLER_21_603
*1977 FILLER_21_606
*1978 FILLER_21_609
*1979 FILLER_21_612
*1980 FILLER_21_615
*1981 FILLER_21_618
*1982 FILLER_21_621
*1983 FILLER_21_624
*1984 FILLER_21_627
*1985 FILLER_21_630
*1986 FILLER_21_633
*1987 FILLER_21_636
*1988 FILLER_21_639
*1989 FILLER_21_641
*1990 FILLER_21_644
*1991 FILLER_21_647
*1992 FILLER_21_650
*1993 FILLER_21_653
*1994 FILLER_21_656
*1995 FILLER_21_659
*1996 FILLER_21_662
*1997 FILLER_21_665
*1998 FILLER_21_668
*1999 FILLER_21_671
*2000 FILLER_21_674
*2001 FILLER_21_677
*2002 FILLER_21_680
*2003 FILLER_21_683
*2004 FILLER_21_686
*2005 FILLER_21_689
*2006 FILLER_21_692
*2007 FILLER_21_695
*2008 FILLER_21_697
*2009 FILLER_21_700
*2010 FILLER_21_703
*2011 FILLER_21_706
*2012 FILLER_21_709
*2013 FILLER_21_712
*2014 FILLER_22_100
*2015 FILLER_22_103
*2016 FILLER_22_106
*2017 FILLER_22_109
*2018 FILLER_22_119
*2019 FILLER_22_12
*2020 FILLER_22_122
*2021 FILLER_22_125
*2022 FILLER_22_128
*2023 FILLER_22_131
*2024 FILLER_22_134
*2025 FILLER_22_137
*2026 FILLER_22_141
*2027 FILLER_22_144
*2028 FILLER_22_147
*2029 FILLER_22_15
*2030 FILLER_22_150
*2031 FILLER_22_158
*2032 FILLER_22_161
*2033 FILLER_22_164
*2034 FILLER_22_167
*2035 FILLER_22_169
*2036 FILLER_22_176
*2037 FILLER_22_179
*2038 FILLER_22_18
*2039 FILLER_22_182
*2040 FILLER_22_185
*2041 FILLER_22_188
*2042 FILLER_22_191
*2043 FILLER_22_194
*2044 FILLER_22_197
*2045 FILLER_22_21
*2046 FILLER_22_225
*2047 FILLER_22_228
*2048 FILLER_22_231
*2049 FILLER_22_234
*2050 FILLER_22_237
*2051 FILLER_22_24
*2052 FILLER_22_240
*2053 FILLER_22_243
*2054 FILLER_22_246
*2055 FILLER_22_249
*2056 FILLER_22_253
*2057 FILLER_22_256
*2058 FILLER_22_27
*2059 FILLER_22_281
*2060 FILLER_22_29
*2061 FILLER_22_290
*2062 FILLER_22_293
*2063 FILLER_22_296
*2064 FILLER_22_299
*2065 FILLER_22_3
*2066 FILLER_22_309
*2067 FILLER_22_312
*2068 FILLER_22_315
*2069 FILLER_22_318
*2070 FILLER_22_32
*2071 FILLER_22_321
*2072 FILLER_22_324
*2073 FILLER_22_327
*2074 FILLER_22_330
*2075 FILLER_22_333
*2076 FILLER_22_337
*2077 FILLER_22_340
*2078 FILLER_22_343
*2079 FILLER_22_346
*2080 FILLER_22_349
*2081 FILLER_22_35
*2082 FILLER_22_352
*2083 FILLER_22_355
*2084 FILLER_22_358
*2085 FILLER_22_361
*2086 FILLER_22_365
*2087 FILLER_22_368
*2088 FILLER_22_371
*2089 FILLER_22_374
*2090 FILLER_22_377
*2091 FILLER_22_38
*2092 FILLER_22_380
*2093 FILLER_22_383
*2094 FILLER_22_386
*2095 FILLER_22_389
*2096 FILLER_22_393
*2097 FILLER_22_396
*2098 FILLER_22_399
*2099 FILLER_22_402
*2100 FILLER_22_405
*2101 FILLER_22_408
*2102 FILLER_22_41
*2103 FILLER_22_411
*2104 FILLER_22_414
*2105 FILLER_22_417
*2106 FILLER_22_421
*2107 FILLER_22_424
*2108 FILLER_22_427
*2109 FILLER_22_436
*2110 FILLER_22_439
*2111 FILLER_22_44
*2112 FILLER_22_442
*2113 FILLER_22_445
*2114 FILLER_22_455
*2115 FILLER_22_458
*2116 FILLER_22_461
*2117 FILLER_22_464
*2118 FILLER_22_467
*2119 FILLER_22_47
*2120 FILLER_22_470
*2121 FILLER_22_473
*2122 FILLER_22_477
*2123 FILLER_22_480
*2124 FILLER_22_483
*2125 FILLER_22_486
*2126 FILLER_22_489
*2127 FILLER_22_492
*2128 FILLER_22_495
*2129 FILLER_22_498
*2130 FILLER_22_50
*2131 FILLER_22_501
*2132 FILLER_22_511
*2133 FILLER_22_514
*2134 FILLER_22_517
*2135 FILLER_22_520
*2136 FILLER_22_523
*2137 FILLER_22_526
*2138 FILLER_22_529
*2139 FILLER_22_53
*2140 FILLER_22_533
*2141 FILLER_22_536
*2142 FILLER_22_539
*2143 FILLER_22_542
*2144 FILLER_22_545
*2145 FILLER_22_548
*2146 FILLER_22_551
*2147 FILLER_22_554
*2148 FILLER_22_557
*2149 FILLER_22_561
*2150 FILLER_22_564
*2151 FILLER_22_567
*2152 FILLER_22_57
*2153 FILLER_22_570
*2154 FILLER_22_573
*2155 FILLER_22_576
*2156 FILLER_22_579
*2157 FILLER_22_582
*2158 FILLER_22_585
*2159 FILLER_22_589
*2160 FILLER_22_592
*2161 FILLER_22_595
*2162 FILLER_22_598
*2163 FILLER_22_6
*2164 FILLER_22_60
*2165 FILLER_22_601
*2166 FILLER_22_604
*2167 FILLER_22_607
*2168 FILLER_22_610
*2169 FILLER_22_613
*2170 FILLER_22_617
*2171 FILLER_22_620
*2172 FILLER_22_623
*2173 FILLER_22_626
*2174 FILLER_22_629
*2175 FILLER_22_63
*2176 FILLER_22_632
*2177 FILLER_22_635
*2178 FILLER_22_638
*2179 FILLER_22_641
*2180 FILLER_22_645
*2181 FILLER_22_648
*2182 FILLER_22_651
*2183 FILLER_22_654
*2184 FILLER_22_657
*2185 FILLER_22_66
*2186 FILLER_22_660
*2187 FILLER_22_663
*2188 FILLER_22_666
*2189 FILLER_22_669
*2190 FILLER_22_673
*2191 FILLER_22_676
*2192 FILLER_22_679
*2193 FILLER_22_682
*2194 FILLER_22_685
*2195 FILLER_22_688
*2196 FILLER_22_691
*2197 FILLER_22_694
*2198 FILLER_22_697
*2199 FILLER_22_701
*2200 FILLER_22_704
*2201 FILLER_22_707
*2202 FILLER_22_710
*2203 FILLER_22_81
*2204 FILLER_22_85
*2205 FILLER_22_88
*2206 FILLER_22_9
*2207 FILLER_22_91
*2208 FILLER_22_94
*2209 FILLER_22_97
*2210 FILLER_23_531
*2211 FILLER_23_534
*2212 FILLER_23_537
*2213 FILLER_23_540
*2214 FILLER_23_543
*2215 FILLER_23_546
*2216 FILLER_23_549
*2217 FILLER_23_552
*2218 FILLER_23_555
*2219 FILLER_23_558
*2220 FILLER_23_561
*2221 FILLER_23_564
*2222 FILLER_23_567
*2223 FILLER_23_570
*2224 FILLER_23_573
*2225 FILLER_23_576
*2226 FILLER_23_579
*2227 FILLER_23_582
*2228 FILLER_23_585
*2229 FILLER_23_588
*2230 FILLER_23_591
*2231 FILLER_23_594
*2232 FILLER_23_597
*2233 FILLER_23_600
*2234 FILLER_23_603
*2235 FILLER_23_606
*2236 FILLER_23_609
*2237 FILLER_23_612
*2238 FILLER_23_615
*2239 FILLER_23_618
*2240 FILLER_23_621
*2241 FILLER_23_624
*2242 FILLER_23_627
*2243 FILLER_23_630
*2244 FILLER_23_633
*2245 FILLER_23_636
*2246 FILLER_23_639
*2247 FILLER_23_641
*2248 FILLER_23_644
*2249 FILLER_23_647
*2250 FILLER_23_650
*2251 FILLER_23_653
*2252 FILLER_23_656
*2253 FILLER_23_659
*2254 FILLER_23_662
*2255 FILLER_23_665
*2256 FILLER_23_668
*2257 FILLER_23_671
*2258 FILLER_23_674
*2259 FILLER_23_677
*2260 FILLER_23_680
*2261 FILLER_23_683
*2262 FILLER_23_686
*2263 FILLER_23_689
*2264 FILLER_23_692
*2265 FILLER_23_695
*2266 FILLER_23_697
*2267 FILLER_23_700
*2268 FILLER_23_703
*2269 FILLER_23_706
*2270 FILLER_23_709
*2271 FILLER_23_712
*2272 FILLER_24_531
*2273 FILLER_24_540
*2274 FILLER_24_543
*2275 FILLER_24_546
*2276 FILLER_24_554
*2277 FILLER_24_557
*2278 FILLER_24_560
*2279 FILLER_24_563
*2280 FILLER_24_566
*2281 FILLER_24_569
*2282 FILLER_24_583
*2283 FILLER_24_586
*2284 FILLER_24_589
*2285 FILLER_24_592
*2286 FILLER_24_595
*2287 FILLER_24_598
*2288 FILLER_24_601
*2289 FILLER_24_604
*2290 FILLER_24_607
*2291 FILLER_24_610
*2292 FILLER_24_613
*2293 FILLER_24_616
*2294 FILLER_24_619
*2295 FILLER_24_622
*2296 FILLER_24_625
*2297 FILLER_24_628
*2298 FILLER_24_631
*2299 FILLER_24_634
*2300 FILLER_24_637
*2301 FILLER_24_640
*2302 FILLER_24_643
*2303 FILLER_24_646
*2304 FILLER_24_649
*2305 FILLER_24_652
*2306 FILLER_24_655
*2307 FILLER_24_658
*2308 FILLER_24_661
*2309 FILLER_24_664
*2310 FILLER_24_667
*2311 FILLER_24_669
*2312 FILLER_24_672
*2313 FILLER_24_675
*2314 FILLER_24_678
*2315 FILLER_24_681
*2316 FILLER_24_684
*2317 FILLER_24_687
*2318 FILLER_24_690
*2319 FILLER_24_693
*2320 FILLER_24_696
*2321 FILLER_24_699
*2322 FILLER_24_702
*2323 FILLER_24_705
*2324 FILLER_24_708
*2325 FILLER_24_711
*2326 FILLER_25_531
*2327 FILLER_25_534
*2328 FILLER_25_537
*2329 FILLER_25_540
*2330 FILLER_25_543
*2331 FILLER_25_546
*2332 FILLER_25_549
*2333 FILLER_25_552
*2334 FILLER_25_555
*2335 FILLER_25_558
*2336 FILLER_25_561
*2337 FILLER_25_564
*2338 FILLER_25_567
*2339 FILLER_25_570
*2340 FILLER_25_573
*2341 FILLER_25_576
*2342 FILLER_25_579
*2343 FILLER_25_582
*2344 FILLER_25_585
*2345 FILLER_25_588
*2346 FILLER_25_591
*2347 FILLER_25_594
*2348 FILLER_25_597
*2349 FILLER_25_600
*2350 FILLER_25_603
*2351 FILLER_25_606
*2352 FILLER_25_609
*2353 FILLER_25_612
*2354 FILLER_25_615
*2355 FILLER_25_618
*2356 FILLER_25_621
*2357 FILLER_25_624
*2358 FILLER_25_627
*2359 FILLER_25_630
*2360 FILLER_25_633
*2361 FILLER_25_636
*2362 FILLER_25_639
*2363 FILLER_25_641
*2364 FILLER_25_644
*2365 FILLER_25_647
*2366 FILLER_25_650
*2367 FILLER_25_653
*2368 FILLER_25_656
*2369 FILLER_25_659
*2370 FILLER_25_662
*2371 FILLER_25_665
*2372 FILLER_25_668
*2373 FILLER_25_671
*2374 FILLER_25_674
*2375 FILLER_25_677
*2376 FILLER_25_680
*2377 FILLER_25_683
*2378 FILLER_25_686
*2379 FILLER_25_689
*2380 FILLER_25_692
*2381 FILLER_25_695
*2382 FILLER_25_697
*2383 FILLER_25_700
*2384 FILLER_25_703
*2385 FILLER_25_706
*2386 FILLER_25_709
*2387 FILLER_25_712
*2388 FILLER_26_531
*2389 FILLER_26_534
*2390 FILLER_26_537
*2391 FILLER_26_540
*2392 FILLER_26_543
*2393 FILLER_26_546
*2394 FILLER_26_549
*2395 FILLER_26_552
*2396 FILLER_26_555
*2397 FILLER_26_557
*2398 FILLER_26_560
*2399 FILLER_26_563
*2400 FILLER_26_566
*2401 FILLER_26_569
*2402 FILLER_26_572
*2403 FILLER_26_575
*2404 FILLER_26_578
*2405 FILLER_26_581
*2406 FILLER_26_584
*2407 FILLER_26_587
*2408 FILLER_26_590
*2409 FILLER_26_593
*2410 FILLER_26_596
*2411 FILLER_26_599
*2412 FILLER_26_602
*2413 FILLER_26_605
*2414 FILLER_26_608
*2415 FILLER_26_611
*2416 FILLER_26_613
*2417 FILLER_26_616
*2418 FILLER_26_619
*2419 FILLER_26_622
*2420 FILLER_26_625
*2421 FILLER_26_628
*2422 FILLER_26_631
*2423 FILLER_26_634
*2424 FILLER_26_637
*2425 FILLER_26_640
*2426 FILLER_26_643
*2427 FILLER_26_646
*2428 FILLER_26_649
*2429 FILLER_26_652
*2430 FILLER_26_655
*2431 FILLER_26_658
*2432 FILLER_26_661
*2433 FILLER_26_664
*2434 FILLER_26_667
*2435 FILLER_26_669
*2436 FILLER_26_672
*2437 FILLER_26_675
*2438 FILLER_26_678
*2439 FILLER_26_681
*2440 FILLER_26_684
*2441 FILLER_26_687
*2442 FILLER_26_690
*2443 FILLER_26_693
*2444 FILLER_26_696
*2445 FILLER_26_699
*2446 FILLER_26_702
*2447 FILLER_26_705
*2448 FILLER_26_708
*2449 FILLER_26_711
*2450 FILLER_27_531
*2451 FILLER_27_534
*2452 FILLER_27_537
*2453 FILLER_27_540
*2454 FILLER_27_543
*2455 FILLER_27_546
*2456 FILLER_27_549
*2457 FILLER_27_552
*2458 FILLER_27_555
*2459 FILLER_27_558
*2460 FILLER_27_561
*2461 FILLER_27_564
*2462 FILLER_27_571
*2463 FILLER_27_581
*2464 FILLER_27_585
*2465 FILLER_27_588
*2466 FILLER_27_591
*2467 FILLER_27_594
*2468 FILLER_27_597
*2469 FILLER_27_600
*2470 FILLER_27_603
*2471 FILLER_27_606
*2472 FILLER_27_609
*2473 FILLER_27_612
*2474 FILLER_27_615
*2475 FILLER_27_618
*2476 FILLER_27_621
*2477 FILLER_27_624
*2478 FILLER_27_627
*2479 FILLER_27_630
*2480 FILLER_27_633
*2481 FILLER_27_636
*2482 FILLER_27_639
*2483 FILLER_27_641
*2484 FILLER_27_644
*2485 FILLER_27_647
*2486 FILLER_27_650
*2487 FILLER_27_653
*2488 FILLER_27_656
*2489 FILLER_27_659
*2490 FILLER_27_662
*2491 FILLER_27_665
*2492 FILLER_27_668
*2493 FILLER_27_671
*2494 FILLER_27_674
*2495 FILLER_27_677
*2496 FILLER_27_680
*2497 FILLER_27_683
*2498 FILLER_27_686
*2499 FILLER_27_689
*2500 FILLER_27_692
*2501 FILLER_27_695
*2502 FILLER_27_697
*2503 FILLER_27_700
*2504 FILLER_27_703
*2505 FILLER_27_706
*2506 FILLER_27_709
*2507 FILLER_27_712
*2508 FILLER_28_531
*2509 FILLER_28_534
*2510 FILLER_28_537
*2511 FILLER_28_540
*2512 FILLER_28_543
*2513 FILLER_28_546
*2514 FILLER_28_549
*2515 FILLER_28_552
*2516 FILLER_28_555
*2517 FILLER_28_569
*2518 FILLER_28_572
*2519 FILLER_28_581
*2520 FILLER_28_584
*2521 FILLER_28_587
*2522 FILLER_28_595
*2523 FILLER_28_598
*2524 FILLER_28_601
*2525 FILLER_28_604
*2526 FILLER_28_607
*2527 FILLER_28_610
*2528 FILLER_28_613
*2529 FILLER_28_616
*2530 FILLER_28_619
*2531 FILLER_28_622
*2532 FILLER_28_625
*2533 FILLER_28_628
*2534 FILLER_28_631
*2535 FILLER_28_634
*2536 FILLER_28_637
*2537 FILLER_28_640
*2538 FILLER_28_643
*2539 FILLER_28_646
*2540 FILLER_28_649
*2541 FILLER_28_652
*2542 FILLER_28_655
*2543 FILLER_28_658
*2544 FILLER_28_661
*2545 FILLER_28_664
*2546 FILLER_28_667
*2547 FILLER_28_669
*2548 FILLER_28_672
*2549 FILLER_28_675
*2550 FILLER_28_678
*2551 FILLER_28_681
*2552 FILLER_28_684
*2553 FILLER_28_687
*2554 FILLER_28_690
*2555 FILLER_28_693
*2556 FILLER_28_696
*2557 FILLER_28_699
*2558 FILLER_28_702
*2559 FILLER_28_705
*2560 FILLER_28_708
*2561 FILLER_28_711
*2562 FILLER_29_531
*2563 FILLER_29_534
*2564 FILLER_29_537
*2565 FILLER_29_540
*2566 FILLER_29_543
*2567 FILLER_29_546
*2568 FILLER_29_549
*2569 FILLER_29_552
*2570 FILLER_29_555
*2571 FILLER_29_567
*2572 FILLER_29_570
*2573 FILLER_29_573
*2574 FILLER_29_585
*2575 FILLER_29_588
*2576 FILLER_29_591
*2577 FILLER_29_594
*2578 FILLER_29_597
*2579 FILLER_29_607
*2580 FILLER_29_610
*2581 FILLER_29_613
*2582 FILLER_29_619
*2583 FILLER_29_629
*2584 FILLER_29_632
*2585 FILLER_29_635
*2586 FILLER_29_638
*2587 FILLER_29_641
*2588 FILLER_29_644
*2589 FILLER_29_647
*2590 FILLER_29_650
*2591 FILLER_29_653
*2592 FILLER_29_656
*2593 FILLER_29_659
*2594 FILLER_29_662
*2595 FILLER_29_665
*2596 FILLER_29_668
*2597 FILLER_29_671
*2598 FILLER_29_674
*2599 FILLER_29_677
*2600 FILLER_29_680
*2601 FILLER_29_683
*2602 FILLER_29_686
*2603 FILLER_29_689
*2604 FILLER_29_692
*2605 FILLER_29_695
*2606 FILLER_29_697
*2607 FILLER_29_700
*2608 FILLER_29_703
*2609 FILLER_29_706
*2610 FILLER_29_709
*2611 FILLER_29_712
*2612 FILLER_2_100
*2613 FILLER_2_103
*2614 FILLER_2_106
*2615 FILLER_2_109
*2616 FILLER_2_112
*2617 FILLER_2_115
*2618 FILLER_2_118
*2619 FILLER_2_12
*2620 FILLER_2_121
*2621 FILLER_2_124
*2622 FILLER_2_127
*2623 FILLER_2_130
*2624 FILLER_2_133
*2625 FILLER_2_136
*2626 FILLER_2_139
*2627 FILLER_2_141
*2628 FILLER_2_144
*2629 FILLER_2_147
*2630 FILLER_2_15
*2631 FILLER_2_150
*2632 FILLER_2_153
*2633 FILLER_2_156
*2634 FILLER_2_159
*2635 FILLER_2_162
*2636 FILLER_2_165
*2637 FILLER_2_168
*2638 FILLER_2_171
*2639 FILLER_2_174
*2640 FILLER_2_177
*2641 FILLER_2_18
*2642 FILLER_2_180
*2643 FILLER_2_183
*2644 FILLER_2_186
*2645 FILLER_2_189
*2646 FILLER_2_192
*2647 FILLER_2_195
*2648 FILLER_2_197
*2649 FILLER_2_200
*2650 FILLER_2_203
*2651 FILLER_2_206
*2652 FILLER_2_209
*2653 FILLER_2_21
*2654 FILLER_2_212
*2655 FILLER_2_215
*2656 FILLER_2_218
*2657 FILLER_2_221
*2658 FILLER_2_224
*2659 FILLER_2_227
*2660 FILLER_2_230
*2661 FILLER_2_233
*2662 FILLER_2_236
*2663 FILLER_2_239
*2664 FILLER_2_24
*2665 FILLER_2_242
*2666 FILLER_2_245
*2667 FILLER_2_248
*2668 FILLER_2_251
*2669 FILLER_2_253
*2670 FILLER_2_256
*2671 FILLER_2_259
*2672 FILLER_2_262
*2673 FILLER_2_265
*2674 FILLER_2_268
*2675 FILLER_2_27
*2676 FILLER_2_271
*2677 FILLER_2_274
*2678 FILLER_2_277
*2679 FILLER_2_280
*2680 FILLER_2_283
*2681 FILLER_2_286
*2682 FILLER_2_289
*2683 FILLER_2_29
*2684 FILLER_2_292
*2685 FILLER_2_295
*2686 FILLER_2_298
*2687 FILLER_2_3
*2688 FILLER_2_301
*2689 FILLER_2_304
*2690 FILLER_2_307
*2691 FILLER_2_309
*2692 FILLER_2_312
*2693 FILLER_2_315
*2694 FILLER_2_318
*2695 FILLER_2_32
*2696 FILLER_2_321
*2697 FILLER_2_324
*2698 FILLER_2_327
*2699 FILLER_2_330
*2700 FILLER_2_333
*2701 FILLER_2_336
*2702 FILLER_2_339
*2703 FILLER_2_342
*2704 FILLER_2_345
*2705 FILLER_2_348
*2706 FILLER_2_35
*2707 FILLER_2_351
*2708 FILLER_2_354
*2709 FILLER_2_357
*2710 FILLER_2_360
*2711 FILLER_2_363
*2712 FILLER_2_365
*2713 FILLER_2_368
*2714 FILLER_2_371
*2715 FILLER_2_374
*2716 FILLER_2_377
*2717 FILLER_2_38
*2718 FILLER_2_380
*2719 FILLER_2_383
*2720 FILLER_2_386
*2721 FILLER_2_389
*2722 FILLER_2_392
*2723 FILLER_2_395
*2724 FILLER_2_398
*2725 FILLER_2_401
*2726 FILLER_2_404
*2727 FILLER_2_407
*2728 FILLER_2_41
*2729 FILLER_2_410
*2730 FILLER_2_413
*2731 FILLER_2_416
*2732 FILLER_2_419
*2733 FILLER_2_421
*2734 FILLER_2_424
*2735 FILLER_2_427
*2736 FILLER_2_430
*2737 FILLER_2_433
*2738 FILLER_2_436
*2739 FILLER_2_439
*2740 FILLER_2_44
*2741 FILLER_2_442
*2742 FILLER_2_445
*2743 FILLER_2_448
*2744 FILLER_2_451
*2745 FILLER_2_454
*2746 FILLER_2_457
*2747 FILLER_2_460
*2748 FILLER_2_463
*2749 FILLER_2_466
*2750 FILLER_2_469
*2751 FILLER_2_47
*2752 FILLER_2_472
*2753 FILLER_2_475
*2754 FILLER_2_477
*2755 FILLER_2_480
*2756 FILLER_2_483
*2757 FILLER_2_486
*2758 FILLER_2_489
*2759 FILLER_2_492
*2760 FILLER_2_495
*2761 FILLER_2_498
*2762 FILLER_2_50
*2763 FILLER_2_501
*2764 FILLER_2_504
*2765 FILLER_2_507
*2766 FILLER_2_510
*2767 FILLER_2_513
*2768 FILLER_2_516
*2769 FILLER_2_519
*2770 FILLER_2_522
*2771 FILLER_2_525
*2772 FILLER_2_528
*2773 FILLER_2_53
*2774 FILLER_2_531
*2775 FILLER_2_533
*2776 FILLER_2_536
*2777 FILLER_2_539
*2778 FILLER_2_542
*2779 FILLER_2_545
*2780 FILLER_2_548
*2781 FILLER_2_551
*2782 FILLER_2_554
*2783 FILLER_2_557
*2784 FILLER_2_56
*2785 FILLER_2_560
*2786 FILLER_2_563
*2787 FILLER_2_566
*2788 FILLER_2_569
*2789 FILLER_2_572
*2790 FILLER_2_575
*2791 FILLER_2_578
*2792 FILLER_2_581
*2793 FILLER_2_584
*2794 FILLER_2_587
*2795 FILLER_2_589
*2796 FILLER_2_59
*2797 FILLER_2_592
*2798 FILLER_2_595
*2799 FILLER_2_598
*2800 FILLER_2_6
*2801 FILLER_2_601
*2802 FILLER_2_604
*2803 FILLER_2_607
*2804 FILLER_2_610
*2805 FILLER_2_613
*2806 FILLER_2_616
*2807 FILLER_2_619
*2808 FILLER_2_62
*2809 FILLER_2_622
*2810 FILLER_2_625
*2811 FILLER_2_628
*2812 FILLER_2_631
*2813 FILLER_2_634
*2814 FILLER_2_637
*2815 FILLER_2_640
*2816 FILLER_2_643
*2817 FILLER_2_645
*2818 FILLER_2_648
*2819 FILLER_2_65
*2820 FILLER_2_651
*2821 FILLER_2_654
*2822 FILLER_2_657
*2823 FILLER_2_660
*2824 FILLER_2_663
*2825 FILLER_2_666
*2826 FILLER_2_669
*2827 FILLER_2_672
*2828 FILLER_2_675
*2829 FILLER_2_678
*2830 FILLER_2_68
*2831 FILLER_2_681
*2832 FILLER_2_684
*2833 FILLER_2_687
*2834 FILLER_2_690
*2835 FILLER_2_693
*2836 FILLER_2_696
*2837 FILLER_2_699
*2838 FILLER_2_701
*2839 FILLER_2_704
*2840 FILLER_2_707
*2841 FILLER_2_71
*2842 FILLER_2_710
*2843 FILLER_2_74
*2844 FILLER_2_77
*2845 FILLER_2_80
*2846 FILLER_2_83
*2847 FILLER_2_85
*2848 FILLER_2_88
*2849 FILLER_2_9
*2850 FILLER_2_91
*2851 FILLER_2_94
*2852 FILLER_2_97
*2853 FILLER_30_531
*2854 FILLER_30_534
*2855 FILLER_30_548
*2856 FILLER_30_551
*2857 FILLER_30_557
*2858 FILLER_30_568
*2859 FILLER_30_571
*2860 FILLER_30_574
*2861 FILLER_30_584
*2862 FILLER_30_591
*2863 FILLER_30_594
*2864 FILLER_30_597
*2865 FILLER_30_613
*2866 FILLER_30_616
*2867 FILLER_30_634
*2868 FILLER_30_637
*2869 FILLER_30_640
*2870 FILLER_30_653
*2871 FILLER_30_656
*2872 FILLER_30_659
*2873 FILLER_30_662
*2874 FILLER_30_665
*2875 FILLER_30_669
*2876 FILLER_30_672
*2877 FILLER_30_675
*2878 FILLER_30_678
*2879 FILLER_30_681
*2880 FILLER_30_684
*2881 FILLER_30_687
*2882 FILLER_30_690
*2883 FILLER_30_693
*2884 FILLER_30_696
*2885 FILLER_30_699
*2886 FILLER_30_702
*2887 FILLER_30_705
*2888 FILLER_30_708
*2889 FILLER_30_711
*2890 FILLER_31_531
*2891 FILLER_31_534
*2892 FILLER_31_537
*2893 FILLER_31_541
*2894 FILLER_31_548
*2895 FILLER_31_551
*2896 FILLER_31_554
*2897 FILLER_31_557
*2898 FILLER_31_566
*2899 FILLER_31_569
*2900 FILLER_31_572
*2901 FILLER_31_575
*2902 FILLER_31_582
*2903 FILLER_31_585
*2904 FILLER_31_588
*2905 FILLER_31_591
*2906 FILLER_31_601
*2907 FILLER_31_611
*2908 FILLER_31_614
*2909 FILLER_31_617
*2910 FILLER_31_620
*2911 FILLER_31_627
*2912 FILLER_31_634
*2913 FILLER_31_637
*2914 FILLER_31_641
*2915 FILLER_31_650
*2916 FILLER_31_653
*2917 FILLER_31_660
*2918 FILLER_31_663
*2919 FILLER_31_666
*2920 FILLER_31_669
*2921 FILLER_31_672
*2922 FILLER_31_675
*2923 FILLER_31_678
*2924 FILLER_31_681
*2925 FILLER_31_684
*2926 FILLER_31_687
*2927 FILLER_31_690
*2928 FILLER_31_693
*2929 FILLER_31_697
*2930 FILLER_31_700
*2931 FILLER_31_703
*2932 FILLER_31_706
*2933 FILLER_31_709
*2934 FILLER_31_712
*2935 FILLER_32_531
*2936 FILLER_32_534
*2937 FILLER_32_541
*2938 FILLER_32_544
*2939 FILLER_32_555
*2940 FILLER_32_563
*2941 FILLER_32_586
*2942 FILLER_32_598
*2943 FILLER_32_601
*2944 FILLER_32_604
*2945 FILLER_32_616
*2946 FILLER_32_619
*2947 FILLER_32_626
*2948 FILLER_32_633
*2949 FILLER_32_636
*2950 FILLER_32_639
*2951 FILLER_32_653
*2952 FILLER_32_662
*2953 FILLER_32_665
*2954 FILLER_32_669
*2955 FILLER_32_672
*2956 FILLER_32_675
*2957 FILLER_32_678
*2958 FILLER_32_681
*2959 FILLER_32_684
*2960 FILLER_32_687
*2961 FILLER_32_690
*2962 FILLER_32_693
*2963 FILLER_32_696
*2964 FILLER_32_699
*2965 FILLER_32_702
*2966 FILLER_32_705
*2967 FILLER_32_708
*2968 FILLER_32_711
*2969 FILLER_33_531
*2970 FILLER_33_534
*2971 FILLER_33_545
*2972 FILLER_33_548
*2973 FILLER_33_551
*2974 FILLER_33_561
*2975 FILLER_33_564
*2976 FILLER_33_567
*2977 FILLER_33_570
*2978 FILLER_33_573
*2979 FILLER_33_576
*2980 FILLER_33_579
*2981 FILLER_33_583
*2982 FILLER_33_591
*2983 FILLER_33_594
*2984 FILLER_33_599
*2985 FILLER_33_616
*2986 FILLER_33_619
*2987 FILLER_33_622
*2988 FILLER_33_635
*2989 FILLER_33_638
*2990 FILLER_33_641
*2991 FILLER_33_648
*2992 FILLER_33_651
*2993 FILLER_33_654
*2994 FILLER_33_662
*2995 FILLER_33_665
*2996 FILLER_33_668
*2997 FILLER_33_671
*2998 FILLER_33_674
*2999 FILLER_33_677
*3000 FILLER_33_680
*3001 FILLER_33_683
*3002 FILLER_33_686
*3003 FILLER_33_689
*3004 FILLER_33_692
*3005 FILLER_33_695
*3006 FILLER_33_697
*3007 FILLER_33_700
*3008 FILLER_33_703
*3009 FILLER_33_706
*3010 FILLER_33_709
*3011 FILLER_33_712
*3012 FILLER_34_531
*3013 FILLER_34_534
*3014 FILLER_34_546
*3015 FILLER_34_549
*3016 FILLER_34_552
*3017 FILLER_34_560
*3018 FILLER_34_563
*3019 FILLER_34_592
*3020 FILLER_34_596
*3021 FILLER_34_599
*3022 FILLER_34_613
*3023 FILLER_34_616
*3024 FILLER_34_619
*3025 FILLER_34_626
*3026 FILLER_34_630
*3027 FILLER_34_633
*3028 FILLER_34_636
*3029 FILLER_34_639
*3030 FILLER_34_642
*3031 FILLER_34_649
*3032 FILLER_34_652
*3033 FILLER_34_655
*3034 FILLER_34_665
*3035 FILLER_34_669
*3036 FILLER_34_672
*3037 FILLER_34_675
*3038 FILLER_34_678
*3039 FILLER_34_681
*3040 FILLER_34_684
*3041 FILLER_34_687
*3042 FILLER_34_690
*3043 FILLER_34_693
*3044 FILLER_34_696
*3045 FILLER_34_699
*3046 FILLER_34_702
*3047 FILLER_34_705
*3048 FILLER_34_708
*3049 FILLER_34_711
*3050 FILLER_35_531
*3051 FILLER_35_552
*3052 FILLER_35_565
*3053 FILLER_35_573
*3054 FILLER_35_576
*3055 FILLER_35_579
*3056 FILLER_35_585
*3057 FILLER_35_588
*3058 FILLER_35_591
*3059 FILLER_35_594
*3060 FILLER_35_597
*3061 FILLER_35_601
*3062 FILLER_35_615
*3063 FILLER_35_618
*3064 FILLER_35_634
*3065 FILLER_35_662
*3066 FILLER_35_665
*3067 FILLER_35_668
*3068 FILLER_35_671
*3069 FILLER_35_674
*3070 FILLER_35_677
*3071 FILLER_35_680
*3072 FILLER_35_683
*3073 FILLER_35_686
*3074 FILLER_35_689
*3075 FILLER_35_692
*3076 FILLER_35_695
*3077 FILLER_35_697
*3078 FILLER_35_700
*3079 FILLER_35_703
*3080 FILLER_35_706
*3081 FILLER_35_709
*3082 FILLER_35_712
*3083 FILLER_36_531
*3084 FILLER_36_534
*3085 FILLER_36_537
*3086 FILLER_36_543
*3087 FILLER_36_547
*3088 FILLER_36_552
*3089 FILLER_36_557
*3090 FILLER_36_562
*3091 FILLER_36_565
*3092 FILLER_36_568
*3093 FILLER_36_575
*3094 FILLER_36_595
*3095 FILLER_36_598
*3096 FILLER_36_609
*3097 FILLER_36_613
*3098 FILLER_36_616
*3099 FILLER_36_619
*3100 FILLER_36_630
*3101 FILLER_36_633
*3102 FILLER_36_636
*3103 FILLER_36_639
*3104 FILLER_36_642
*3105 FILLER_36_645
*3106 FILLER_36_648
*3107 FILLER_36_651
*3108 FILLER_36_654
*3109 FILLER_36_657
*3110 FILLER_36_660
*3111 FILLER_36_663
*3112 FILLER_36_666
*3113 FILLER_36_669
*3114 FILLER_36_672
*3115 FILLER_36_675
*3116 FILLER_36_678
*3117 FILLER_36_681
*3118 FILLER_36_684
*3119 FILLER_36_687
*3120 FILLER_36_690
*3121 FILLER_36_693
*3122 FILLER_36_696
*3123 FILLER_36_699
*3124 FILLER_36_702
*3125 FILLER_36_705
*3126 FILLER_36_708
*3127 FILLER_36_711
*3128 FILLER_37_531
*3129 FILLER_37_543
*3130 FILLER_37_580
*3131 FILLER_37_583
*3132 FILLER_37_588
*3133 FILLER_37_592
*3134 FILLER_37_597
*3135 FILLER_37_602
*3136 FILLER_37_612
*3137 FILLER_37_615
*3138 FILLER_37_619
*3139 FILLER_37_622
*3140 FILLER_37_625
*3141 FILLER_37_628
*3142 FILLER_37_631
*3143 FILLER_37_634
*3144 FILLER_37_637
*3145 FILLER_37_641
*3146 FILLER_37_644
*3147 FILLER_37_647
*3148 FILLER_37_650
*3149 FILLER_37_653
*3150 FILLER_37_656
*3151 FILLER_37_659
*3152 FILLER_37_662
*3153 FILLER_37_665
*3154 FILLER_37_668
*3155 FILLER_37_671
*3156 FILLER_37_674
*3157 FILLER_37_677
*3158 FILLER_37_680
*3159 FILLER_37_683
*3160 FILLER_37_686
*3161 FILLER_37_689
*3162 FILLER_37_692
*3163 FILLER_37_695
*3164 FILLER_37_697
*3165 FILLER_37_700
*3166 FILLER_37_703
*3167 FILLER_37_706
*3168 FILLER_37_709
*3169 FILLER_37_712
*3170 FILLER_38_531
*3171 FILLER_38_534
*3172 FILLER_38_537
*3173 FILLER_38_545
*3174 FILLER_38_548
*3175 FILLER_38_551
*3176 FILLER_38_554
*3177 FILLER_38_557
*3178 FILLER_38_560
*3179 FILLER_38_563
*3180 FILLER_38_566
*3181 FILLER_38_569
*3182 FILLER_38_574
*3183 FILLER_38_587
*3184 FILLER_38_590
*3185 FILLER_38_593
*3186 FILLER_38_596
*3187 FILLER_38_599
*3188 FILLER_38_602
*3189 FILLER_38_611
*3190 FILLER_38_613
*3191 FILLER_38_616
*3192 FILLER_38_619
*3193 FILLER_38_622
*3194 FILLER_38_625
*3195 FILLER_38_628
*3196 FILLER_38_634
*3197 FILLER_38_639
*3198 FILLER_38_644
*3199 FILLER_38_647
*3200 FILLER_38_650
*3201 FILLER_38_653
*3202 FILLER_38_656
*3203 FILLER_38_659
*3204 FILLER_38_662
*3205 FILLER_38_665
*3206 FILLER_38_669
*3207 FILLER_38_672
*3208 FILLER_38_675
*3209 FILLER_38_678
*3210 FILLER_38_681
*3211 FILLER_38_684
*3212 FILLER_38_687
*3213 FILLER_38_690
*3214 FILLER_38_693
*3215 FILLER_38_696
*3216 FILLER_38_699
*3217 FILLER_38_702
*3218 FILLER_38_705
*3219 FILLER_38_708
*3220 FILLER_38_711
*3221 FILLER_39_531
*3222 FILLER_39_534
*3223 FILLER_39_537
*3224 FILLER_39_543
*3225 FILLER_39_548
*3226 FILLER_39_554
*3227 FILLER_39_557
*3228 FILLER_39_560
*3229 FILLER_39_564
*3230 FILLER_39_567
*3231 FILLER_39_571
*3232 FILLER_39_583
*3233 FILLER_39_585
*3234 FILLER_39_608
*3235 FILLER_39_611
*3236 FILLER_39_618
*3237 FILLER_39_625
*3238 FILLER_39_629
*3239 FILLER_39_632
*3240 FILLER_39_635
*3241 FILLER_39_638
*3242 FILLER_39_641
*3243 FILLER_39_648
*3244 FILLER_39_651
*3245 FILLER_39_654
*3246 FILLER_39_657
*3247 FILLER_39_660
*3248 FILLER_39_663
*3249 FILLER_39_666
*3250 FILLER_39_669
*3251 FILLER_39_672
*3252 FILLER_39_675
*3253 FILLER_39_678
*3254 FILLER_39_681
*3255 FILLER_39_684
*3256 FILLER_39_687
*3257 FILLER_39_690
*3258 FILLER_39_693
*3259 FILLER_39_697
*3260 FILLER_39_700
*3261 FILLER_39_703
*3262 FILLER_39_706
*3263 FILLER_39_709
*3264 FILLER_39_712
*3265 FILLER_3_102
*3266 FILLER_3_105
*3267 FILLER_3_108
*3268 FILLER_3_111
*3269 FILLER_3_113
*3270 FILLER_3_116
*3271 FILLER_3_119
*3272 FILLER_3_12
*3273 FILLER_3_122
*3274 FILLER_3_125
*3275 FILLER_3_128
*3276 FILLER_3_131
*3277 FILLER_3_134
*3278 FILLER_3_137
*3279 FILLER_3_140
*3280 FILLER_3_143
*3281 FILLER_3_146
*3282 FILLER_3_149
*3283 FILLER_3_15
*3284 FILLER_3_152
*3285 FILLER_3_155
*3286 FILLER_3_158
*3287 FILLER_3_161
*3288 FILLER_3_164
*3289 FILLER_3_167
*3290 FILLER_3_169
*3291 FILLER_3_172
*3292 FILLER_3_175
*3293 FILLER_3_178
*3294 FILLER_3_18
*3295 FILLER_3_181
*3296 FILLER_3_184
*3297 FILLER_3_187
*3298 FILLER_3_190
*3299 FILLER_3_193
*3300 FILLER_3_196
*3301 FILLER_3_199
*3302 FILLER_3_202
*3303 FILLER_3_205
*3304 FILLER_3_208
*3305 FILLER_3_21
*3306 FILLER_3_211
*3307 FILLER_3_214
*3308 FILLER_3_217
*3309 FILLER_3_220
*3310 FILLER_3_223
*3311 FILLER_3_225
*3312 FILLER_3_228
*3313 FILLER_3_231
*3314 FILLER_3_234
*3315 FILLER_3_237
*3316 FILLER_3_24
*3317 FILLER_3_240
*3318 FILLER_3_243
*3319 FILLER_3_246
*3320 FILLER_3_249
*3321 FILLER_3_252
*3322 FILLER_3_255
*3323 FILLER_3_258
*3324 FILLER_3_261
*3325 FILLER_3_264
*3326 FILLER_3_267
*3327 FILLER_3_27
*3328 FILLER_3_270
*3329 FILLER_3_273
*3330 FILLER_3_276
*3331 FILLER_3_279
*3332 FILLER_3_281
*3333 FILLER_3_284
*3334 FILLER_3_287
*3335 FILLER_3_290
*3336 FILLER_3_293
*3337 FILLER_3_296
*3338 FILLER_3_299
*3339 FILLER_3_3
*3340 FILLER_3_30
*3341 FILLER_3_302
*3342 FILLER_3_305
*3343 FILLER_3_308
*3344 FILLER_3_311
*3345 FILLER_3_314
*3346 FILLER_3_317
*3347 FILLER_3_320
*3348 FILLER_3_323
*3349 FILLER_3_326
*3350 FILLER_3_329
*3351 FILLER_3_33
*3352 FILLER_3_332
*3353 FILLER_3_335
*3354 FILLER_3_337
*3355 FILLER_3_340
*3356 FILLER_3_343
*3357 FILLER_3_346
*3358 FILLER_3_349
*3359 FILLER_3_352
*3360 FILLER_3_355
*3361 FILLER_3_358
*3362 FILLER_3_36
*3363 FILLER_3_361
*3364 FILLER_3_364
*3365 FILLER_3_367
*3366 FILLER_3_370
*3367 FILLER_3_373
*3368 FILLER_3_376
*3369 FILLER_3_379
*3370 FILLER_3_382
*3371 FILLER_3_385
*3372 FILLER_3_388
*3373 FILLER_3_39
*3374 FILLER_3_391
*3375 FILLER_3_393
*3376 FILLER_3_396
*3377 FILLER_3_399
*3378 FILLER_3_402
*3379 FILLER_3_405
*3380 FILLER_3_408
*3381 FILLER_3_411
*3382 FILLER_3_414
*3383 FILLER_3_417
*3384 FILLER_3_42
*3385 FILLER_3_420
*3386 FILLER_3_423
*3387 FILLER_3_426
*3388 FILLER_3_429
*3389 FILLER_3_432
*3390 FILLER_3_435
*3391 FILLER_3_438
*3392 FILLER_3_441
*3393 FILLER_3_444
*3394 FILLER_3_447
*3395 FILLER_3_449
*3396 FILLER_3_45
*3397 FILLER_3_452
*3398 FILLER_3_455
*3399 FILLER_3_458
*3400 FILLER_3_461
*3401 FILLER_3_464
*3402 FILLER_3_467
*3403 FILLER_3_470
*3404 FILLER_3_473
*3405 FILLER_3_476
*3406 FILLER_3_479
*3407 FILLER_3_48
*3408 FILLER_3_482
*3409 FILLER_3_485
*3410 FILLER_3_488
*3411 FILLER_3_491
*3412 FILLER_3_494
*3413 FILLER_3_497
*3414 FILLER_3_500
*3415 FILLER_3_503
*3416 FILLER_3_505
*3417 FILLER_3_508
*3418 FILLER_3_51
*3419 FILLER_3_511
*3420 FILLER_3_514
*3421 FILLER_3_517
*3422 FILLER_3_520
*3423 FILLER_3_523
*3424 FILLER_3_526
*3425 FILLER_3_529
*3426 FILLER_3_532
*3427 FILLER_3_535
*3428 FILLER_3_538
*3429 FILLER_3_54
*3430 FILLER_3_541
*3431 FILLER_3_544
*3432 FILLER_3_547
*3433 FILLER_3_550
*3434 FILLER_3_553
*3435 FILLER_3_556
*3436 FILLER_3_559
*3437 FILLER_3_561
*3438 FILLER_3_564
*3439 FILLER_3_567
*3440 FILLER_3_57
*3441 FILLER_3_570
*3442 FILLER_3_573
*3443 FILLER_3_576
*3444 FILLER_3_579
*3445 FILLER_3_582
*3446 FILLER_3_585
*3447 FILLER_3_588
*3448 FILLER_3_591
*3449 FILLER_3_594
*3450 FILLER_3_597
*3451 FILLER_3_6
*3452 FILLER_3_60
*3453 FILLER_3_600
*3454 FILLER_3_603
*3455 FILLER_3_606
*3456 FILLER_3_609
*3457 FILLER_3_612
*3458 FILLER_3_615
*3459 FILLER_3_617
*3460 FILLER_3_620
*3461 FILLER_3_623
*3462 FILLER_3_626
*3463 FILLER_3_629
*3464 FILLER_3_63
*3465 FILLER_3_632
*3466 FILLER_3_635
*3467 FILLER_3_638
*3468 FILLER_3_641
*3469 FILLER_3_644
*3470 FILLER_3_647
*3471 FILLER_3_650
*3472 FILLER_3_653
*3473 FILLER_3_656
*3474 FILLER_3_659
*3475 FILLER_3_66
*3476 FILLER_3_662
*3477 FILLER_3_665
*3478 FILLER_3_668
*3479 FILLER_3_671
*3480 FILLER_3_673
*3481 FILLER_3_676
*3482 FILLER_3_679
*3483 FILLER_3_682
*3484 FILLER_3_685
*3485 FILLER_3_688
*3486 FILLER_3_69
*3487 FILLER_3_691
*3488 FILLER_3_694
*3489 FILLER_3_697
*3490 FILLER_3_700
*3491 FILLER_3_703
*3492 FILLER_3_706
*3493 FILLER_3_709
*3494 FILLER_3_712
*3495 FILLER_3_72
*3496 FILLER_3_75
*3497 FILLER_3_78
*3498 FILLER_3_81
*3499 FILLER_3_84
*3500 FILLER_3_87
*3501 FILLER_3_9
*3502 FILLER_3_90
*3503 FILLER_3_93
*3504 FILLER_3_96
*3505 FILLER_3_99
*3506 FILLER_40_531
*3507 FILLER_40_534
*3508 FILLER_40_546
*3509 FILLER_40_560
*3510 FILLER_40_570
*3511 FILLER_40_573
*3512 FILLER_40_576
*3513 FILLER_40_579
*3514 FILLER_40_589
*3515 FILLER_40_592
*3516 FILLER_40_595
*3517 FILLER_40_598
*3518 FILLER_40_601
*3519 FILLER_40_611
*3520 FILLER_40_616
*3521 FILLER_40_623
*3522 FILLER_40_627
*3523 FILLER_40_633
*3524 FILLER_40_638
*3525 FILLER_40_643
*3526 FILLER_40_646
*3527 FILLER_40_649
*3528 FILLER_40_652
*3529 FILLER_40_655
*3530 FILLER_40_658
*3531 FILLER_40_661
*3532 FILLER_40_664
*3533 FILLER_40_667
*3534 FILLER_40_669
*3535 FILLER_40_672
*3536 FILLER_40_675
*3537 FILLER_40_678
*3538 FILLER_40_681
*3539 FILLER_40_684
*3540 FILLER_40_687
*3541 FILLER_40_690
*3542 FILLER_40_693
*3543 FILLER_40_696
*3544 FILLER_40_699
*3545 FILLER_40_702
*3546 FILLER_40_705
*3547 FILLER_40_708
*3548 FILLER_40_711
*3549 FILLER_41_531
*3550 FILLER_41_534
*3551 FILLER_41_537
*3552 FILLER_41_540
*3553 FILLER_41_543
*3554 FILLER_41_546
*3555 FILLER_41_550
*3556 FILLER_41_553
*3557 FILLER_41_556
*3558 FILLER_41_559
*3559 FILLER_41_562
*3560 FILLER_41_565
*3561 FILLER_41_575
*3562 FILLER_41_578
*3563 FILLER_41_581
*3564 FILLER_41_593
*3565 FILLER_41_596
*3566 FILLER_41_599
*3567 FILLER_41_602
*3568 FILLER_41_605
*3569 FILLER_41_608
*3570 FILLER_41_613
*3571 FILLER_41_616
*3572 FILLER_41_620
*3573 FILLER_41_631
*3574 FILLER_41_634
*3575 FILLER_41_637
*3576 FILLER_41_641
*3577 FILLER_41_644
*3578 FILLER_41_647
*3579 FILLER_41_650
*3580 FILLER_41_653
*3581 FILLER_41_656
*3582 FILLER_41_659
*3583 FILLER_41_662
*3584 FILLER_41_665
*3585 FILLER_41_668
*3586 FILLER_41_671
*3587 FILLER_41_674
*3588 FILLER_41_677
*3589 FILLER_41_680
*3590 FILLER_41_683
*3591 FILLER_41_686
*3592 FILLER_41_689
*3593 FILLER_41_692
*3594 FILLER_41_695
*3595 FILLER_41_697
*3596 FILLER_41_700
*3597 FILLER_41_703
*3598 FILLER_41_706
*3599 FILLER_41_709
*3600 FILLER_41_712
*3601 FILLER_42_531
*3602 FILLER_42_538
*3603 FILLER_42_541
*3604 FILLER_42_557
*3605 FILLER_42_562
*3606 FILLER_42_565
*3607 FILLER_42_579
*3608 FILLER_42_604
*3609 FILLER_42_610
*3610 FILLER_42_613
*3611 FILLER_42_616
*3612 FILLER_42_619
*3613 FILLER_42_622
*3614 FILLER_42_638
*3615 FILLER_42_641
*3616 FILLER_42_644
*3617 FILLER_42_647
*3618 FILLER_42_650
*3619 FILLER_42_653
*3620 FILLER_42_656
*3621 FILLER_42_659
*3622 FILLER_42_662
*3623 FILLER_42_665
*3624 FILLER_42_669
*3625 FILLER_42_672
*3626 FILLER_42_675
*3627 FILLER_42_678
*3628 FILLER_42_681
*3629 FILLER_42_684
*3630 FILLER_42_687
*3631 FILLER_42_690
*3632 FILLER_42_693
*3633 FILLER_42_696
*3634 FILLER_42_699
*3635 FILLER_42_702
*3636 FILLER_42_705
*3637 FILLER_42_708
*3638 FILLER_42_711
*3639 FILLER_43_531
*3640 FILLER_43_534
*3641 FILLER_43_537
*3642 FILLER_43_554
*3643 FILLER_43_564
*3644 FILLER_43_567
*3645 FILLER_43_574
*3646 FILLER_43_578
*3647 FILLER_43_581
*3648 FILLER_43_585
*3649 FILLER_43_588
*3650 FILLER_43_595
*3651 FILLER_43_598
*3652 FILLER_43_601
*3653 FILLER_43_608
*3654 FILLER_43_615
*3655 FILLER_43_618
*3656 FILLER_43_621
*3657 FILLER_43_624
*3658 FILLER_43_627
*3659 FILLER_43_632
*3660 FILLER_43_635
*3661 FILLER_43_638
*3662 FILLER_43_641
*3663 FILLER_43_644
*3664 FILLER_43_647
*3665 FILLER_43_650
*3666 FILLER_43_653
*3667 FILLER_43_656
*3668 FILLER_43_659
*3669 FILLER_43_662
*3670 FILLER_43_665
*3671 FILLER_43_668
*3672 FILLER_43_671
*3673 FILLER_43_674
*3674 FILLER_43_677
*3675 FILLER_43_680
*3676 FILLER_43_683
*3677 FILLER_43_686
*3678 FILLER_43_689
*3679 FILLER_43_692
*3680 FILLER_43_695
*3681 FILLER_43_697
*3682 FILLER_43_700
*3683 FILLER_43_703
*3684 FILLER_43_706
*3685 FILLER_43_709
*3686 FILLER_43_712
*3687 FILLER_44_531
*3688 FILLER_44_555
*3689 FILLER_44_566
*3690 FILLER_44_570
*3691 FILLER_44_598
*3692 FILLER_44_601
*3693 FILLER_44_625
*3694 FILLER_44_628
*3695 FILLER_44_631
*3696 FILLER_44_634
*3697 FILLER_44_637
*3698 FILLER_44_640
*3699 FILLER_44_643
*3700 FILLER_44_646
*3701 FILLER_44_649
*3702 FILLER_44_652
*3703 FILLER_44_655
*3704 FILLER_44_658
*3705 FILLER_44_661
*3706 FILLER_44_664
*3707 FILLER_44_667
*3708 FILLER_44_669
*3709 FILLER_44_672
*3710 FILLER_44_675
*3711 FILLER_44_678
*3712 FILLER_44_681
*3713 FILLER_44_684
*3714 FILLER_44_687
*3715 FILLER_44_690
*3716 FILLER_44_693
*3717 FILLER_44_696
*3718 FILLER_44_699
*3719 FILLER_44_702
*3720 FILLER_44_705
*3721 FILLER_44_708
*3722 FILLER_44_711
*3723 FILLER_45_531
*3724 FILLER_45_534
*3725 FILLER_45_537
*3726 FILLER_45_543
*3727 FILLER_45_546
*3728 FILLER_45_549
*3729 FILLER_45_554
*3730 FILLER_45_557
*3731 FILLER_45_569
*3732 FILLER_45_572
*3733 FILLER_45_576
*3734 FILLER_45_581
*3735 FILLER_45_585
*3736 FILLER_45_588
*3737 FILLER_45_594
*3738 FILLER_45_597
*3739 FILLER_45_600
*3740 FILLER_45_607
*3741 FILLER_45_610
*3742 FILLER_45_613
*3743 FILLER_45_616
*3744 FILLER_45_619
*3745 FILLER_45_624
*3746 FILLER_45_628
*3747 FILLER_45_631
*3748 FILLER_45_634
*3749 FILLER_45_637
*3750 FILLER_45_641
*3751 FILLER_45_644
*3752 FILLER_45_647
*3753 FILLER_45_650
*3754 FILLER_45_653
*3755 FILLER_45_656
*3756 FILLER_45_659
*3757 FILLER_45_662
*3758 FILLER_45_665
*3759 FILLER_45_668
*3760 FILLER_45_671
*3761 FILLER_45_674
*3762 FILLER_45_677
*3763 FILLER_45_680
*3764 FILLER_45_683
*3765 FILLER_45_686
*3766 FILLER_45_689
*3767 FILLER_45_692
*3768 FILLER_45_695
*3769 FILLER_45_697
*3770 FILLER_45_700
*3771 FILLER_45_703
*3772 FILLER_45_706
*3773 FILLER_45_709
*3774 FILLER_45_712
*3775 FILLER_46_531
*3776 FILLER_46_534
*3777 FILLER_46_555
*3778 FILLER_46_578
*3779 FILLER_46_585
*3780 FILLER_46_598
*3781 FILLER_46_611
*3782 FILLER_46_616
*3783 FILLER_46_621
*3784 FILLER_46_635
*3785 FILLER_46_638
*3786 FILLER_46_641
*3787 FILLER_46_644
*3788 FILLER_46_647
*3789 FILLER_46_650
*3790 FILLER_46_653
*3791 FILLER_46_656
*3792 FILLER_46_659
*3793 FILLER_46_662
*3794 FILLER_46_665
*3795 FILLER_46_669
*3796 FILLER_46_672
*3797 FILLER_46_675
*3798 FILLER_46_678
*3799 FILLER_46_681
*3800 FILLER_46_684
*3801 FILLER_46_687
*3802 FILLER_46_690
*3803 FILLER_46_693
*3804 FILLER_46_696
*3805 FILLER_46_699
*3806 FILLER_46_702
*3807 FILLER_46_705
*3808 FILLER_46_708
*3809 FILLER_46_711
*3810 FILLER_47_531
*3811 FILLER_47_534
*3812 FILLER_47_543
*3813 FILLER_47_546
*3814 FILLER_47_549
*3815 FILLER_47_552
*3816 FILLER_47_555
*3817 FILLER_47_558
*3818 FILLER_47_561
*3819 FILLER_47_566
*3820 FILLER_47_571
*3821 FILLER_47_574
*3822 FILLER_47_577
*3823 FILLER_47_585
*3824 FILLER_47_588
*3825 FILLER_47_591
*3826 FILLER_47_594
*3827 FILLER_47_597
*3828 FILLER_47_610
*3829 FILLER_47_613
*3830 FILLER_47_616
*3831 FILLER_47_619
*3832 FILLER_47_622
*3833 FILLER_47_625
*3834 FILLER_47_629
*3835 FILLER_47_632
*3836 FILLER_47_635
*3837 FILLER_47_638
*3838 FILLER_47_641
*3839 FILLER_47_644
*3840 FILLER_47_647
*3841 FILLER_47_650
*3842 FILLER_47_653
*3843 FILLER_47_656
*3844 FILLER_47_659
*3845 FILLER_47_662
*3846 FILLER_47_665
*3847 FILLER_47_668
*3848 FILLER_47_671
*3849 FILLER_47_674
*3850 FILLER_47_677
*3851 FILLER_47_680
*3852 FILLER_47_683
*3853 FILLER_47_686
*3854 FILLER_47_689
*3855 FILLER_47_692
*3856 FILLER_47_695
*3857 FILLER_47_697
*3858 FILLER_47_700
*3859 FILLER_47_703
*3860 FILLER_47_706
*3861 FILLER_47_709
*3862 FILLER_47_712
*3863 FILLER_48_531
*3864 FILLER_48_534
*3865 FILLER_48_537
*3866 FILLER_48_540
*3867 FILLER_48_545
*3868 FILLER_48_548
*3869 FILLER_48_554
*3870 FILLER_48_563
*3871 FILLER_48_566
*3872 FILLER_48_569
*3873 FILLER_48_572
*3874 FILLER_48_575
*3875 FILLER_48_579
*3876 FILLER_48_585
*3877 FILLER_48_588
*3878 FILLER_48_593
*3879 FILLER_48_604
*3880 FILLER_48_607
*3881 FILLER_48_616
*3882 FILLER_48_619
*3883 FILLER_48_622
*3884 FILLER_48_625
*3885 FILLER_48_628
*3886 FILLER_48_631
*3887 FILLER_48_634
*3888 FILLER_48_637
*3889 FILLER_48_640
*3890 FILLER_48_643
*3891 FILLER_48_646
*3892 FILLER_48_649
*3893 FILLER_48_652
*3894 FILLER_48_655
*3895 FILLER_48_658
*3896 FILLER_48_661
*3897 FILLER_48_664
*3898 FILLER_48_667
*3899 FILLER_48_669
*3900 FILLER_48_672
*3901 FILLER_48_675
*3902 FILLER_48_678
*3903 FILLER_48_681
*3904 FILLER_48_684
*3905 FILLER_48_687
*3906 FILLER_48_690
*3907 FILLER_48_693
*3908 FILLER_48_696
*3909 FILLER_48_699
*3910 FILLER_48_702
*3911 FILLER_48_705
*3912 FILLER_48_708
*3913 FILLER_48_711
*3914 FILLER_49_531
*3915 FILLER_49_534
*3916 FILLER_49_563
*3917 FILLER_49_582
*3918 FILLER_49_603
*3919 FILLER_49_606
*3920 FILLER_49_620
*3921 FILLER_49_623
*3922 FILLER_49_626
*3923 FILLER_49_629
*3924 FILLER_49_632
*3925 FILLER_49_635
*3926 FILLER_49_638
*3927 FILLER_49_641
*3928 FILLER_49_644
*3929 FILLER_49_647
*3930 FILLER_49_650
*3931 FILLER_49_653
*3932 FILLER_49_656
*3933 FILLER_49_659
*3934 FILLER_49_662
*3935 FILLER_49_665
*3936 FILLER_49_668
*3937 FILLER_49_671
*3938 FILLER_49_674
*3939 FILLER_49_677
*3940 FILLER_49_680
*3941 FILLER_49_683
*3942 FILLER_49_686
*3943 FILLER_49_689
*3944 FILLER_49_692
*3945 FILLER_49_695
*3946 FILLER_49_697
*3947 FILLER_49_700
*3948 FILLER_49_703
*3949 FILLER_49_706
*3950 FILLER_49_709
*3951 FILLER_49_712
*3952 FILLER_4_100
*3953 FILLER_4_103
*3954 FILLER_4_106
*3955 FILLER_4_109
*3956 FILLER_4_113
*3957 FILLER_4_116
*3958 FILLER_4_119
*3959 FILLER_4_12
*3960 FILLER_4_122
*3961 FILLER_4_125
*3962 FILLER_4_128
*3963 FILLER_4_131
*3964 FILLER_4_134
*3965 FILLER_4_137
*3966 FILLER_4_141
*3967 FILLER_4_144
*3968 FILLER_4_147
*3969 FILLER_4_15
*3970 FILLER_4_150
*3971 FILLER_4_153
*3972 FILLER_4_156
*3973 FILLER_4_159
*3974 FILLER_4_162
*3975 FILLER_4_165
*3976 FILLER_4_169
*3977 FILLER_4_172
*3978 FILLER_4_175
*3979 FILLER_4_178
*3980 FILLER_4_18
*3981 FILLER_4_181
*3982 FILLER_4_184
*3983 FILLER_4_187
*3984 FILLER_4_190
*3985 FILLER_4_193
*3986 FILLER_4_197
*3987 FILLER_4_200
*3988 FILLER_4_203
*3989 FILLER_4_206
*3990 FILLER_4_209
*3991 FILLER_4_21
*3992 FILLER_4_212
*3993 FILLER_4_215
*3994 FILLER_4_218
*3995 FILLER_4_221
*3996 FILLER_4_225
*3997 FILLER_4_228
*3998 FILLER_4_231
*3999 FILLER_4_234
*4000 FILLER_4_237
*4001 FILLER_4_24
*4002 FILLER_4_240
*4003 FILLER_4_243
*4004 FILLER_4_246
*4005 FILLER_4_249
*4006 FILLER_4_253
*4007 FILLER_4_256
*4008 FILLER_4_259
*4009 FILLER_4_262
*4010 FILLER_4_265
*4011 FILLER_4_268
*4012 FILLER_4_27
*4013 FILLER_4_271
*4014 FILLER_4_274
*4015 FILLER_4_277
*4016 FILLER_4_281
*4017 FILLER_4_284
*4018 FILLER_4_287
*4019 FILLER_4_29
*4020 FILLER_4_290
*4021 FILLER_4_293
*4022 FILLER_4_296
*4023 FILLER_4_299
*4024 FILLER_4_3
*4025 FILLER_4_302
*4026 FILLER_4_305
*4027 FILLER_4_309
*4028 FILLER_4_312
*4029 FILLER_4_315
*4030 FILLER_4_318
*4031 FILLER_4_32
*4032 FILLER_4_321
*4033 FILLER_4_324
*4034 FILLER_4_327
*4035 FILLER_4_330
*4036 FILLER_4_333
*4037 FILLER_4_337
*4038 FILLER_4_340
*4039 FILLER_4_343
*4040 FILLER_4_346
*4041 FILLER_4_349
*4042 FILLER_4_35
*4043 FILLER_4_352
*4044 FILLER_4_355
*4045 FILLER_4_358
*4046 FILLER_4_361
*4047 FILLER_4_365
*4048 FILLER_4_368
*4049 FILLER_4_371
*4050 FILLER_4_374
*4051 FILLER_4_377
*4052 FILLER_4_38
*4053 FILLER_4_380
*4054 FILLER_4_383
*4055 FILLER_4_386
*4056 FILLER_4_389
*4057 FILLER_4_393
*4058 FILLER_4_396
*4059 FILLER_4_399
*4060 FILLER_4_402
*4061 FILLER_4_405
*4062 FILLER_4_408
*4063 FILLER_4_41
*4064 FILLER_4_411
*4065 FILLER_4_414
*4066 FILLER_4_417
*4067 FILLER_4_421
*4068 FILLER_4_424
*4069 FILLER_4_427
*4070 FILLER_4_430
*4071 FILLER_4_433
*4072 FILLER_4_436
*4073 FILLER_4_439
*4074 FILLER_4_44
*4075 FILLER_4_442
*4076 FILLER_4_445
*4077 FILLER_4_449
*4078 FILLER_4_452
*4079 FILLER_4_455
*4080 FILLER_4_458
*4081 FILLER_4_461
*4082 FILLER_4_464
*4083 FILLER_4_467
*4084 FILLER_4_47
*4085 FILLER_4_470
*4086 FILLER_4_473
*4087 FILLER_4_477
*4088 FILLER_4_480
*4089 FILLER_4_483
*4090 FILLER_4_486
*4091 FILLER_4_489
*4092 FILLER_4_492
*4093 FILLER_4_495
*4094 FILLER_4_498
*4095 FILLER_4_50
*4096 FILLER_4_501
*4097 FILLER_4_505
*4098 FILLER_4_508
*4099 FILLER_4_511
*4100 FILLER_4_514
*4101 FILLER_4_517
*4102 FILLER_4_520
*4103 FILLER_4_523
*4104 FILLER_4_526
*4105 FILLER_4_529
*4106 FILLER_4_53
*4107 FILLER_4_533
*4108 FILLER_4_536
*4109 FILLER_4_539
*4110 FILLER_4_542
*4111 FILLER_4_545
*4112 FILLER_4_548
*4113 FILLER_4_551
*4114 FILLER_4_554
*4115 FILLER_4_557
*4116 FILLER_4_561
*4117 FILLER_4_564
*4118 FILLER_4_567
*4119 FILLER_4_57
*4120 FILLER_4_570
*4121 FILLER_4_573
*4122 FILLER_4_576
*4123 FILLER_4_579
*4124 FILLER_4_582
*4125 FILLER_4_585
*4126 FILLER_4_589
*4127 FILLER_4_592
*4128 FILLER_4_595
*4129 FILLER_4_598
*4130 FILLER_4_6
*4131 FILLER_4_60
*4132 FILLER_4_601
*4133 FILLER_4_604
*4134 FILLER_4_607
*4135 FILLER_4_610
*4136 FILLER_4_613
*4137 FILLER_4_617
*4138 FILLER_4_620
*4139 FILLER_4_623
*4140 FILLER_4_626
*4141 FILLER_4_629
*4142 FILLER_4_63
*4143 FILLER_4_632
*4144 FILLER_4_635
*4145 FILLER_4_638
*4146 FILLER_4_641
*4147 FILLER_4_645
*4148 FILLER_4_648
*4149 FILLER_4_651
*4150 FILLER_4_654
*4151 FILLER_4_657
*4152 FILLER_4_66
*4153 FILLER_4_660
*4154 FILLER_4_663
*4155 FILLER_4_666
*4156 FILLER_4_669
*4157 FILLER_4_673
*4158 FILLER_4_676
*4159 FILLER_4_679
*4160 FILLER_4_682
*4161 FILLER_4_685
*4162 FILLER_4_688
*4163 FILLER_4_69
*4164 FILLER_4_691
*4165 FILLER_4_694
*4166 FILLER_4_697
*4167 FILLER_4_701
*4168 FILLER_4_704
*4169 FILLER_4_707
*4170 FILLER_4_710
*4171 FILLER_4_72
*4172 FILLER_4_75
*4173 FILLER_4_78
*4174 FILLER_4_81
*4175 FILLER_4_85
*4176 FILLER_4_88
*4177 FILLER_4_9
*4178 FILLER_4_91
*4179 FILLER_4_94
*4180 FILLER_4_97
*4181 FILLER_50_531
*4182 FILLER_50_534
*4183 FILLER_50_537
*4184 FILLER_50_542
*4185 FILLER_50_545
*4186 FILLER_50_548
*4187 FILLER_50_551
*4188 FILLER_50_554
*4189 FILLER_50_557
*4190 FILLER_50_560
*4191 FILLER_50_565
*4192 FILLER_50_568
*4193 FILLER_50_571
*4194 FILLER_50_574
*4195 FILLER_50_577
*4196 FILLER_50_580
*4197 FILLER_50_583
*4198 FILLER_50_590
*4199 FILLER_50_593
*4200 FILLER_50_596
*4201 FILLER_50_599
*4202 FILLER_50_603
*4203 FILLER_50_607
*4204 FILLER_50_611
*4205 FILLER_50_616
*4206 FILLER_50_619
*4207 FILLER_50_622
*4208 FILLER_50_625
*4209 FILLER_50_628
*4210 FILLER_50_631
*4211 FILLER_50_634
*4212 FILLER_50_637
*4213 FILLER_50_640
*4214 FILLER_50_643
*4215 FILLER_50_646
*4216 FILLER_50_649
*4217 FILLER_50_652
*4218 FILLER_50_655
*4219 FILLER_50_658
*4220 FILLER_50_661
*4221 FILLER_50_664
*4222 FILLER_50_667
*4223 FILLER_50_669
*4224 FILLER_50_672
*4225 FILLER_50_675
*4226 FILLER_50_678
*4227 FILLER_50_681
*4228 FILLER_50_684
*4229 FILLER_50_687
*4230 FILLER_50_690
*4231 FILLER_50_693
*4232 FILLER_50_696
*4233 FILLER_50_699
*4234 FILLER_50_702
*4235 FILLER_50_705
*4236 FILLER_50_708
*4237 FILLER_50_711
*4238 FILLER_51_531
*4239 FILLER_51_534
*4240 FILLER_51_575
*4241 FILLER_51_583
*4242 FILLER_51_615
*4243 FILLER_51_618
*4244 FILLER_51_621
*4245 FILLER_51_624
*4246 FILLER_51_627
*4247 FILLER_51_630
*4248 FILLER_51_633
*4249 FILLER_51_636
*4250 FILLER_51_639
*4251 FILLER_51_641
*4252 FILLER_51_644
*4253 FILLER_51_647
*4254 FILLER_51_650
*4255 FILLER_51_653
*4256 FILLER_51_656
*4257 FILLER_51_659
*4258 FILLER_51_662
*4259 FILLER_51_665
*4260 FILLER_51_668
*4261 FILLER_51_671
*4262 FILLER_51_674
*4263 FILLER_51_677
*4264 FILLER_51_680
*4265 FILLER_51_683
*4266 FILLER_51_686
*4267 FILLER_51_689
*4268 FILLER_51_692
*4269 FILLER_51_695
*4270 FILLER_51_697
*4271 FILLER_51_700
*4272 FILLER_51_703
*4273 FILLER_51_706
*4274 FILLER_51_709
*4275 FILLER_51_712
*4276 FILLER_52_531
*4277 FILLER_52_534
*4278 FILLER_52_537
*4279 FILLER_52_541
*4280 FILLER_52_544
*4281 FILLER_52_547
*4282 FILLER_52_560
*4283 FILLER_52_563
*4284 FILLER_52_566
*4285 FILLER_52_571
*4286 FILLER_52_578
*4287 FILLER_52_581
*4288 FILLER_52_584
*4289 FILLER_52_587
*4290 FILLER_52_593
*4291 FILLER_52_596
*4292 FILLER_52_599
*4293 FILLER_52_602
*4294 FILLER_52_611
*4295 FILLER_52_613
*4296 FILLER_52_616
*4297 FILLER_52_619
*4298 FILLER_52_622
*4299 FILLER_52_625
*4300 FILLER_52_628
*4301 FILLER_52_631
*4302 FILLER_52_634
*4303 FILLER_52_637
*4304 FILLER_52_640
*4305 FILLER_52_643
*4306 FILLER_52_646
*4307 FILLER_52_649
*4308 FILLER_52_652
*4309 FILLER_52_655
*4310 FILLER_52_658
*4311 FILLER_52_661
*4312 FILLER_52_664
*4313 FILLER_52_667
*4314 FILLER_52_669
*4315 FILLER_52_672
*4316 FILLER_52_675
*4317 FILLER_52_678
*4318 FILLER_52_681
*4319 FILLER_52_684
*4320 FILLER_52_687
*4321 FILLER_52_690
*4322 FILLER_52_693
*4323 FILLER_52_696
*4324 FILLER_52_699
*4325 FILLER_52_702
*4326 FILLER_52_705
*4327 FILLER_52_708
*4328 FILLER_52_711
*4329 FILLER_53_531
*4330 FILLER_53_534
*4331 FILLER_53_544
*4332 FILLER_53_547
*4333 FILLER_53_550
*4334 FILLER_53_559
*4335 FILLER_53_562
*4336 FILLER_53_585
*4337 FILLER_53_588
*4338 FILLER_53_591
*4339 FILLER_53_599
*4340 FILLER_53_603
*4341 FILLER_53_610
*4342 FILLER_53_613
*4343 FILLER_53_616
*4344 FILLER_53_619
*4345 FILLER_53_622
*4346 FILLER_53_625
*4347 FILLER_53_628
*4348 FILLER_53_631
*4349 FILLER_53_634
*4350 FILLER_53_637
*4351 FILLER_53_641
*4352 FILLER_53_644
*4353 FILLER_53_647
*4354 FILLER_53_650
*4355 FILLER_53_653
*4356 FILLER_53_656
*4357 FILLER_53_659
*4358 FILLER_53_662
*4359 FILLER_53_665
*4360 FILLER_53_668
*4361 FILLER_53_671
*4362 FILLER_53_674
*4363 FILLER_53_677
*4364 FILLER_53_680
*4365 FILLER_53_683
*4366 FILLER_53_686
*4367 FILLER_53_689
*4368 FILLER_53_692
*4369 FILLER_53_695
*4370 FILLER_53_697
*4371 FILLER_53_700
*4372 FILLER_53_703
*4373 FILLER_53_706
*4374 FILLER_53_709
*4375 FILLER_53_712
*4376 FILLER_54_531
*4377 FILLER_54_534
*4378 FILLER_54_547
*4379 FILLER_54_566
*4380 FILLER_54_569
*4381 FILLER_54_572
*4382 FILLER_54_583
*4383 FILLER_54_586
*4384 FILLER_54_597
*4385 FILLER_54_600
*4386 FILLER_54_603
*4387 FILLER_54_606
*4388 FILLER_54_609
*4389 FILLER_54_613
*4390 FILLER_54_616
*4391 FILLER_54_619
*4392 FILLER_54_622
*4393 FILLER_54_625
*4394 FILLER_54_628
*4395 FILLER_54_631
*4396 FILLER_54_634
*4397 FILLER_54_637
*4398 FILLER_54_640
*4399 FILLER_54_643
*4400 FILLER_54_646
*4401 FILLER_54_649
*4402 FILLER_54_652
*4403 FILLER_54_655
*4404 FILLER_54_658
*4405 FILLER_54_661
*4406 FILLER_54_664
*4407 FILLER_54_667
*4408 FILLER_54_669
*4409 FILLER_54_672
*4410 FILLER_54_675
*4411 FILLER_54_678
*4412 FILLER_54_681
*4413 FILLER_54_684
*4414 FILLER_54_687
*4415 FILLER_54_690
*4416 FILLER_54_693
*4417 FILLER_54_696
*4418 FILLER_54_699
*4419 FILLER_54_702
*4420 FILLER_54_705
*4421 FILLER_54_708
*4422 FILLER_54_711
*4423 FILLER_55_531
*4424 FILLER_55_534
*4425 FILLER_55_537
*4426 FILLER_55_549
*4427 FILLER_55_566
*4428 FILLER_55_571
*4429 FILLER_55_585
*4430 FILLER_55_588
*4431 FILLER_55_596
*4432 FILLER_55_599
*4433 FILLER_55_604
*4434 FILLER_55_607
*4435 FILLER_55_611
*4436 FILLER_55_615
*4437 FILLER_55_618
*4438 FILLER_55_621
*4439 FILLER_55_624
*4440 FILLER_55_627
*4441 FILLER_55_630
*4442 FILLER_55_633
*4443 FILLER_55_636
*4444 FILLER_55_639
*4445 FILLER_55_641
*4446 FILLER_55_644
*4447 FILLER_55_647
*4448 FILLER_55_650
*4449 FILLER_55_653
*4450 FILLER_55_656
*4451 FILLER_55_659
*4452 FILLER_55_662
*4453 FILLER_55_665
*4454 FILLER_55_668
*4455 FILLER_55_671
*4456 FILLER_55_674
*4457 FILLER_55_677
*4458 FILLER_55_680
*4459 FILLER_55_683
*4460 FILLER_55_686
*4461 FILLER_55_689
*4462 FILLER_55_692
*4463 FILLER_55_695
*4464 FILLER_55_697
*4465 FILLER_55_700
*4466 FILLER_55_703
*4467 FILLER_55_706
*4468 FILLER_55_709
*4469 FILLER_55_712
*4470 FILLER_56_549
*4471 FILLER_56_552
*4472 FILLER_56_555
*4473 FILLER_56_557
*4474 FILLER_56_571
*4475 FILLER_56_577
*4476 FILLER_56_580
*4477 FILLER_56_583
*4478 FILLER_56_601
*4479 FILLER_56_604
*4480 FILLER_56_607
*4481 FILLER_56_610
*4482 FILLER_56_613
*4483 FILLER_56_620
*4484 FILLER_56_623
*4485 FILLER_56_626
*4486 FILLER_56_629
*4487 FILLER_56_632
*4488 FILLER_56_635
*4489 FILLER_56_638
*4490 FILLER_56_641
*4491 FILLER_56_644
*4492 FILLER_56_647
*4493 FILLER_56_650
*4494 FILLER_56_653
*4495 FILLER_56_656
*4496 FILLER_56_659
*4497 FILLER_56_662
*4498 FILLER_56_665
*4499 FILLER_56_669
*4500 FILLER_56_672
*4501 FILLER_56_675
*4502 FILLER_56_678
*4503 FILLER_56_681
*4504 FILLER_56_684
*4505 FILLER_56_687
*4506 FILLER_56_690
*4507 FILLER_56_693
*4508 FILLER_56_696
*4509 FILLER_56_699
*4510 FILLER_56_702
*4511 FILLER_56_705
*4512 FILLER_56_708
*4513 FILLER_56_711
*4514 FILLER_57_531
*4515 FILLER_57_534
*4516 FILLER_57_537
*4517 FILLER_57_540
*4518 FILLER_57_550
*4519 FILLER_57_553
*4520 FILLER_57_566
*4521 FILLER_57_569
*4522 FILLER_57_574
*4523 FILLER_57_583
*4524 FILLER_57_585
*4525 FILLER_57_588
*4526 FILLER_57_591
*4527 FILLER_57_602
*4528 FILLER_57_605
*4529 FILLER_57_608
*4530 FILLER_57_611
*4531 FILLER_57_621
*4532 FILLER_57_624
*4533 FILLER_57_627
*4534 FILLER_57_630
*4535 FILLER_57_633
*4536 FILLER_57_636
*4537 FILLER_57_639
*4538 FILLER_57_641
*4539 FILLER_57_644
*4540 FILLER_57_647
*4541 FILLER_57_650
*4542 FILLER_57_653
*4543 FILLER_57_656
*4544 FILLER_57_659
*4545 FILLER_57_662
*4546 FILLER_57_665
*4547 FILLER_57_668
*4548 FILLER_57_671
*4549 FILLER_57_674
*4550 FILLER_57_677
*4551 FILLER_57_680
*4552 FILLER_57_683
*4553 FILLER_57_686
*4554 FILLER_57_689
*4555 FILLER_57_692
*4556 FILLER_57_695
*4557 FILLER_57_697
*4558 FILLER_57_700
*4559 FILLER_57_703
*4560 FILLER_57_706
*4561 FILLER_57_709
*4562 FILLER_57_712
*4563 FILLER_58_531
*4564 FILLER_58_534
*4565 FILLER_58_545
*4566 FILLER_58_548
*4567 FILLER_58_557
*4568 FILLER_58_560
*4569 FILLER_58_568
*4570 FILLER_58_571
*4571 FILLER_58_574
*4572 FILLER_58_577
*4573 FILLER_58_581
*4574 FILLER_58_603
*4575 FILLER_58_606
*4576 FILLER_58_613
*4577 FILLER_58_621
*4578 FILLER_58_624
*4579 FILLER_58_627
*4580 FILLER_58_630
*4581 FILLER_58_633
*4582 FILLER_58_636
*4583 FILLER_58_639
*4584 FILLER_58_642
*4585 FILLER_58_645
*4586 FILLER_58_648
*4587 FILLER_58_651
*4588 FILLER_58_654
*4589 FILLER_58_657
*4590 FILLER_58_660
*4591 FILLER_58_663
*4592 FILLER_58_666
*4593 FILLER_58_669
*4594 FILLER_58_672
*4595 FILLER_58_675
*4596 FILLER_58_678
*4597 FILLER_58_681
*4598 FILLER_58_684
*4599 FILLER_58_687
*4600 FILLER_58_690
*4601 FILLER_58_693
*4602 FILLER_58_696
*4603 FILLER_58_699
*4604 FILLER_58_702
*4605 FILLER_58_705
*4606 FILLER_58_708
*4607 FILLER_58_711
*4608 FILLER_59_531
*4609 FILLER_59_534
*4610 FILLER_59_543
*4611 FILLER_59_546
*4612 FILLER_59_554
*4613 FILLER_59_557
*4614 FILLER_59_560
*4615 FILLER_59_563
*4616 FILLER_59_566
*4617 FILLER_59_570
*4618 FILLER_59_576
*4619 FILLER_59_579
*4620 FILLER_59_582
*4621 FILLER_59_585
*4622 FILLER_59_588
*4623 FILLER_59_608
*4624 FILLER_59_618
*4625 FILLER_59_621
*4626 FILLER_59_624
*4627 FILLER_59_627
*4628 FILLER_59_630
*4629 FILLER_59_633
*4630 FILLER_59_636
*4631 FILLER_59_639
*4632 FILLER_59_641
*4633 FILLER_59_644
*4634 FILLER_59_647
*4635 FILLER_59_650
*4636 FILLER_59_653
*4637 FILLER_59_656
*4638 FILLER_59_659
*4639 FILLER_59_662
*4640 FILLER_59_665
*4641 FILLER_59_668
*4642 FILLER_59_671
*4643 FILLER_59_674
*4644 FILLER_59_677
*4645 FILLER_59_680
*4646 FILLER_59_683
*4647 FILLER_59_686
*4648 FILLER_59_689
*4649 FILLER_59_692
*4650 FILLER_59_695
*4651 FILLER_59_697
*4652 FILLER_59_700
*4653 FILLER_59_703
*4654 FILLER_59_706
*4655 FILLER_59_709
*4656 FILLER_59_712
*4657 FILLER_5_531
*4658 FILLER_5_534
*4659 FILLER_5_537
*4660 FILLER_5_540
*4661 FILLER_5_543
*4662 FILLER_5_546
*4663 FILLER_5_549
*4664 FILLER_5_552
*4665 FILLER_5_555
*4666 FILLER_5_558
*4667 FILLER_5_561
*4668 FILLER_5_564
*4669 FILLER_5_567
*4670 FILLER_5_570
*4671 FILLER_5_573
*4672 FILLER_5_576
*4673 FILLER_5_579
*4674 FILLER_5_582
*4675 FILLER_5_585
*4676 FILLER_5_588
*4677 FILLER_5_591
*4678 FILLER_5_594
*4679 FILLER_5_597
*4680 FILLER_5_600
*4681 FILLER_5_603
*4682 FILLER_5_606
*4683 FILLER_5_609
*4684 FILLER_5_612
*4685 FILLER_5_615
*4686 FILLER_5_618
*4687 FILLER_5_621
*4688 FILLER_5_624
*4689 FILLER_5_627
*4690 FILLER_5_630
*4691 FILLER_5_633
*4692 FILLER_5_636
*4693 FILLER_5_639
*4694 FILLER_5_641
*4695 FILLER_5_644
*4696 FILLER_5_647
*4697 FILLER_5_650
*4698 FILLER_5_653
*4699 FILLER_5_656
*4700 FILLER_5_659
*4701 FILLER_5_662
*4702 FILLER_5_665
*4703 FILLER_5_668
*4704 FILLER_5_671
*4705 FILLER_5_674
*4706 FILLER_5_677
*4707 FILLER_5_680
*4708 FILLER_5_683
*4709 FILLER_5_686
*4710 FILLER_5_689
*4711 FILLER_5_692
*4712 FILLER_5_695
*4713 FILLER_5_697
*4714 FILLER_5_700
*4715 FILLER_5_703
*4716 FILLER_5_706
*4717 FILLER_5_709
*4718 FILLER_5_712
*4719 FILLER_60_531
*4720 FILLER_60_534
*4721 FILLER_60_537
*4722 FILLER_60_540
*4723 FILLER_60_543
*4724 FILLER_60_546
*4725 FILLER_60_549
*4726 FILLER_60_555
*4727 FILLER_60_563
*4728 FILLER_60_567
*4729 FILLER_60_570
*4730 FILLER_60_573
*4731 FILLER_60_576
*4732 FILLER_60_579
*4733 FILLER_60_582
*4734 FILLER_60_585
*4735 FILLER_60_588
*4736 FILLER_60_591
*4737 FILLER_60_594
*4738 FILLER_60_597
*4739 FILLER_60_600
*4740 FILLER_60_603
*4741 FILLER_60_606
*4742 FILLER_60_609
*4743 FILLER_60_613
*4744 FILLER_60_616
*4745 FILLER_60_619
*4746 FILLER_60_622
*4747 FILLER_60_625
*4748 FILLER_60_628
*4749 FILLER_60_631
*4750 FILLER_60_634
*4751 FILLER_60_637
*4752 FILLER_60_640
*4753 FILLER_60_643
*4754 FILLER_60_646
*4755 FILLER_60_649
*4756 FILLER_60_652
*4757 FILLER_60_655
*4758 FILLER_60_658
*4759 FILLER_60_661
*4760 FILLER_60_664
*4761 FILLER_60_667
*4762 FILLER_60_669
*4763 FILLER_60_672
*4764 FILLER_60_675
*4765 FILLER_60_678
*4766 FILLER_60_681
*4767 FILLER_60_684
*4768 FILLER_60_687
*4769 FILLER_60_690
*4770 FILLER_60_693
*4771 FILLER_60_696
*4772 FILLER_60_699
*4773 FILLER_60_702
*4774 FILLER_60_705
*4775 FILLER_60_708
*4776 FILLER_60_711
*4777 FILLER_61_531
*4778 FILLER_61_534
*4779 FILLER_61_537
*4780 FILLER_61_540
*4781 FILLER_61_543
*4782 FILLER_61_546
*4783 FILLER_61_549
*4784 FILLER_61_552
*4785 FILLER_61_555
*4786 FILLER_61_558
*4787 FILLER_61_561
*4788 FILLER_61_564
*4789 FILLER_61_567
*4790 FILLER_61_570
*4791 FILLER_61_573
*4792 FILLER_61_576
*4793 FILLER_61_579
*4794 FILLER_61_582
*4795 FILLER_61_585
*4796 FILLER_61_588
*4797 FILLER_61_591
*4798 FILLER_61_594
*4799 FILLER_61_597
*4800 FILLER_61_600
*4801 FILLER_61_603
*4802 FILLER_61_606
*4803 FILLER_61_609
*4804 FILLER_61_612
*4805 FILLER_61_615
*4806 FILLER_61_618
*4807 FILLER_61_621
*4808 FILLER_61_624
*4809 FILLER_61_627
*4810 FILLER_61_630
*4811 FILLER_61_633
*4812 FILLER_61_636
*4813 FILLER_61_639
*4814 FILLER_61_641
*4815 FILLER_61_644
*4816 FILLER_61_647
*4817 FILLER_61_650
*4818 FILLER_61_653
*4819 FILLER_61_656
*4820 FILLER_61_659
*4821 FILLER_61_662
*4822 FILLER_61_665
*4823 FILLER_61_668
*4824 FILLER_61_671
*4825 FILLER_61_674
*4826 FILLER_61_677
*4827 FILLER_61_680
*4828 FILLER_61_683
*4829 FILLER_61_686
*4830 FILLER_61_689
*4831 FILLER_61_692
*4832 FILLER_61_695
*4833 FILLER_61_697
*4834 FILLER_61_700
*4835 FILLER_61_703
*4836 FILLER_61_706
*4837 FILLER_61_709
*4838 FILLER_61_712
*4839 FILLER_62_531
*4840 FILLER_62_534
*4841 FILLER_62_537
*4842 FILLER_62_540
*4843 FILLER_62_543
*4844 FILLER_62_546
*4845 FILLER_62_549
*4846 FILLER_62_552
*4847 FILLER_62_555
*4848 FILLER_62_557
*4849 FILLER_62_560
*4850 FILLER_62_563
*4851 FILLER_62_566
*4852 FILLER_62_569
*4853 FILLER_62_572
*4854 FILLER_62_575
*4855 FILLER_62_578
*4856 FILLER_62_581
*4857 FILLER_62_584
*4858 FILLER_62_587
*4859 FILLER_62_590
*4860 FILLER_62_593
*4861 FILLER_62_596
*4862 FILLER_62_599
*4863 FILLER_62_602
*4864 FILLER_62_605
*4865 FILLER_62_608
*4866 FILLER_62_611
*4867 FILLER_62_613
*4868 FILLER_62_616
*4869 FILLER_62_619
*4870 FILLER_62_622
*4871 FILLER_62_625
*4872 FILLER_62_628
*4873 FILLER_62_631
*4874 FILLER_62_634
*4875 FILLER_62_637
*4876 FILLER_62_640
*4877 FILLER_62_643
*4878 FILLER_62_646
*4879 FILLER_62_649
*4880 FILLER_62_652
*4881 FILLER_62_655
*4882 FILLER_62_658
*4883 FILLER_62_661
*4884 FILLER_62_664
*4885 FILLER_62_667
*4886 FILLER_62_669
*4887 FILLER_62_672
*4888 FILLER_62_675
*4889 FILLER_62_678
*4890 FILLER_62_681
*4891 FILLER_62_684
*4892 FILLER_62_687
*4893 FILLER_62_690
*4894 FILLER_62_693
*4895 FILLER_62_696
*4896 FILLER_62_699
*4897 FILLER_62_702
*4898 FILLER_62_705
*4899 FILLER_62_708
*4900 FILLER_62_711
*4901 FILLER_63_531
*4902 FILLER_63_534
*4903 FILLER_63_537
*4904 FILLER_63_540
*4905 FILLER_63_543
*4906 FILLER_63_546
*4907 FILLER_63_549
*4908 FILLER_63_552
*4909 FILLER_63_555
*4910 FILLER_63_558
*4911 FILLER_63_561
*4912 FILLER_63_564
*4913 FILLER_63_567
*4914 FILLER_63_570
*4915 FILLER_63_573
*4916 FILLER_63_576
*4917 FILLER_63_579
*4918 FILLER_63_582
*4919 FILLER_63_585
*4920 FILLER_63_588
*4921 FILLER_63_591
*4922 FILLER_63_594
*4923 FILLER_63_597
*4924 FILLER_63_600
*4925 FILLER_63_603
*4926 FILLER_63_606
*4927 FILLER_63_609
*4928 FILLER_63_612
*4929 FILLER_63_615
*4930 FILLER_63_618
*4931 FILLER_63_621
*4932 FILLER_63_624
*4933 FILLER_63_627
*4934 FILLER_63_630
*4935 FILLER_63_633
*4936 FILLER_63_636
*4937 FILLER_63_639
*4938 FILLER_63_641
*4939 FILLER_63_644
*4940 FILLER_63_647
*4941 FILLER_63_650
*4942 FILLER_63_653
*4943 FILLER_63_656
*4944 FILLER_63_659
*4945 FILLER_63_662
*4946 FILLER_63_665
*4947 FILLER_63_668
*4948 FILLER_63_671
*4949 FILLER_63_674
*4950 FILLER_63_677
*4951 FILLER_63_680
*4952 FILLER_63_683
*4953 FILLER_63_686
*4954 FILLER_63_689
*4955 FILLER_63_692
*4956 FILLER_63_695
*4957 FILLER_63_697
*4958 FILLER_63_700
*4959 FILLER_63_703
*4960 FILLER_63_706
*4961 FILLER_63_709
*4962 FILLER_63_712
*4963 FILLER_64_531
*4964 FILLER_64_534
*4965 FILLER_64_537
*4966 FILLER_64_540
*4967 FILLER_64_543
*4968 FILLER_64_546
*4969 FILLER_64_549
*4970 FILLER_64_552
*4971 FILLER_64_555
*4972 FILLER_64_557
*4973 FILLER_64_560
*4974 FILLER_64_563
*4975 FILLER_64_566
*4976 FILLER_64_569
*4977 FILLER_64_572
*4978 FILLER_64_575
*4979 FILLER_64_578
*4980 FILLER_64_581
*4981 FILLER_64_584
*4982 FILLER_64_587
*4983 FILLER_64_590
*4984 FILLER_64_593
*4985 FILLER_64_596
*4986 FILLER_64_599
*4987 FILLER_64_602
*4988 FILLER_64_605
*4989 FILLER_64_608
*4990 FILLER_64_611
*4991 FILLER_64_613
*4992 FILLER_64_616
*4993 FILLER_64_619
*4994 FILLER_64_622
*4995 FILLER_64_625
*4996 FILLER_64_628
*4997 FILLER_64_631
*4998 FILLER_64_634
*4999 FILLER_64_637
*5000 FILLER_64_640
*5001 FILLER_64_643
*5002 FILLER_64_646
*5003 FILLER_64_649
*5004 FILLER_64_652
*5005 FILLER_64_655
*5006 FILLER_64_658
*5007 FILLER_64_661
*5008 FILLER_64_664
*5009 FILLER_64_667
*5010 FILLER_64_669
*5011 FILLER_64_672
*5012 FILLER_64_675
*5013 FILLER_64_678
*5014 FILLER_64_681
*5015 FILLER_64_684
*5016 FILLER_64_687
*5017 FILLER_64_690
*5018 FILLER_64_693
*5019 FILLER_64_696
*5020 FILLER_64_699
*5021 FILLER_64_702
*5022 FILLER_64_705
*5023 FILLER_64_708
*5024 FILLER_64_711
*5025 FILLER_65_531
*5026 FILLER_65_534
*5027 FILLER_65_537
*5028 FILLER_65_540
*5029 FILLER_65_543
*5030 FILLER_65_546
*5031 FILLER_65_549
*5032 FILLER_65_552
*5033 FILLER_65_555
*5034 FILLER_65_558
*5035 FILLER_65_561
*5036 FILLER_65_564
*5037 FILLER_65_567
*5038 FILLER_65_570
*5039 FILLER_65_573
*5040 FILLER_65_576
*5041 FILLER_65_579
*5042 FILLER_65_582
*5043 FILLER_65_585
*5044 FILLER_65_588
*5045 FILLER_65_591
*5046 FILLER_65_594
*5047 FILLER_65_597
*5048 FILLER_65_600
*5049 FILLER_65_603
*5050 FILLER_65_606
*5051 FILLER_65_609
*5052 FILLER_65_612
*5053 FILLER_65_615
*5054 FILLER_65_618
*5055 FILLER_65_621
*5056 FILLER_65_624
*5057 FILLER_65_627
*5058 FILLER_65_630
*5059 FILLER_65_633
*5060 FILLER_65_636
*5061 FILLER_65_639
*5062 FILLER_65_641
*5063 FILLER_65_644
*5064 FILLER_65_647
*5065 FILLER_65_650
*5066 FILLER_65_653
*5067 FILLER_65_656
*5068 FILLER_65_659
*5069 FILLER_65_662
*5070 FILLER_65_665
*5071 FILLER_65_668
*5072 FILLER_65_671
*5073 FILLER_65_674
*5074 FILLER_65_677
*5075 FILLER_65_680
*5076 FILLER_65_683
*5077 FILLER_65_686
*5078 FILLER_65_689
*5079 FILLER_65_692
*5080 FILLER_65_695
*5081 FILLER_65_697
*5082 FILLER_65_700
*5083 FILLER_65_703
*5084 FILLER_65_706
*5085 FILLER_65_709
*5086 FILLER_65_712
*5087 FILLER_66_531
*5088 FILLER_66_534
*5089 FILLER_66_537
*5090 FILLER_66_540
*5091 FILLER_66_543
*5092 FILLER_66_546
*5093 FILLER_66_549
*5094 FILLER_66_552
*5095 FILLER_66_555
*5096 FILLER_66_557
*5097 FILLER_66_560
*5098 FILLER_66_563
*5099 FILLER_66_566
*5100 FILLER_66_569
*5101 FILLER_66_572
*5102 FILLER_66_575
*5103 FILLER_66_578
*5104 FILLER_66_581
*5105 FILLER_66_584
*5106 FILLER_66_587
*5107 FILLER_66_590
*5108 FILLER_66_593
*5109 FILLER_66_596
*5110 FILLER_66_599
*5111 FILLER_66_602
*5112 FILLER_66_605
*5113 FILLER_66_608
*5114 FILLER_66_611
*5115 FILLER_66_613
*5116 FILLER_66_616
*5117 FILLER_66_619
*5118 FILLER_66_622
*5119 FILLER_66_625
*5120 FILLER_66_628
*5121 FILLER_66_631
*5122 FILLER_66_634
*5123 FILLER_66_637
*5124 FILLER_66_640
*5125 FILLER_66_643
*5126 FILLER_66_646
*5127 FILLER_66_649
*5128 FILLER_66_652
*5129 FILLER_66_655
*5130 FILLER_66_658
*5131 FILLER_66_661
*5132 FILLER_66_664
*5133 FILLER_66_667
*5134 FILLER_66_669
*5135 FILLER_66_672
*5136 FILLER_66_675
*5137 FILLER_66_678
*5138 FILLER_66_681
*5139 FILLER_66_684
*5140 FILLER_66_687
*5141 FILLER_66_690
*5142 FILLER_66_693
*5143 FILLER_66_696
*5144 FILLER_66_699
*5145 FILLER_66_702
*5146 FILLER_66_705
*5147 FILLER_66_708
*5148 FILLER_66_711
*5149 FILLER_67_531
*5150 FILLER_67_534
*5151 FILLER_67_537
*5152 FILLER_67_540
*5153 FILLER_67_543
*5154 FILLER_67_546
*5155 FILLER_67_549
*5156 FILLER_67_552
*5157 FILLER_67_555
*5158 FILLER_67_558
*5159 FILLER_67_561
*5160 FILLER_67_564
*5161 FILLER_67_567
*5162 FILLER_67_570
*5163 FILLER_67_573
*5164 FILLER_67_576
*5165 FILLER_67_579
*5166 FILLER_67_582
*5167 FILLER_67_585
*5168 FILLER_67_588
*5169 FILLER_67_591
*5170 FILLER_67_594
*5171 FILLER_67_597
*5172 FILLER_67_600
*5173 FILLER_67_603
*5174 FILLER_67_606
*5175 FILLER_67_609
*5176 FILLER_67_612
*5177 FILLER_67_615
*5178 FILLER_67_618
*5179 FILLER_67_621
*5180 FILLER_67_624
*5181 FILLER_67_627
*5182 FILLER_67_630
*5183 FILLER_67_633
*5184 FILLER_67_636
*5185 FILLER_67_639
*5186 FILLER_67_641
*5187 FILLER_67_644
*5188 FILLER_67_647
*5189 FILLER_67_650
*5190 FILLER_67_653
*5191 FILLER_67_656
*5192 FILLER_67_659
*5193 FILLER_67_662
*5194 FILLER_67_665
*5195 FILLER_67_668
*5196 FILLER_67_671
*5197 FILLER_67_674
*5198 FILLER_67_677
*5199 FILLER_67_680
*5200 FILLER_67_683
*5201 FILLER_67_686
*5202 FILLER_67_689
*5203 FILLER_67_692
*5204 FILLER_67_695
*5205 FILLER_67_697
*5206 FILLER_67_700
*5207 FILLER_67_703
*5208 FILLER_67_706
*5209 FILLER_67_709
*5210 FILLER_67_712
*5211 FILLER_68_531
*5212 FILLER_68_534
*5213 FILLER_68_537
*5214 FILLER_68_540
*5215 FILLER_68_543
*5216 FILLER_68_546
*5217 FILLER_68_549
*5218 FILLER_68_552
*5219 FILLER_68_555
*5220 FILLER_68_557
*5221 FILLER_68_560
*5222 FILLER_68_563
*5223 FILLER_68_566
*5224 FILLER_68_569
*5225 FILLER_68_572
*5226 FILLER_68_575
*5227 FILLER_68_578
*5228 FILLER_68_581
*5229 FILLER_68_584
*5230 FILLER_68_587
*5231 FILLER_68_590
*5232 FILLER_68_593
*5233 FILLER_68_596
*5234 FILLER_68_599
*5235 FILLER_68_602
*5236 FILLER_68_605
*5237 FILLER_68_608
*5238 FILLER_68_611
*5239 FILLER_68_613
*5240 FILLER_68_616
*5241 FILLER_68_619
*5242 FILLER_68_622
*5243 FILLER_68_625
*5244 FILLER_68_628
*5245 FILLER_68_631
*5246 FILLER_68_634
*5247 FILLER_68_637
*5248 FILLER_68_640
*5249 FILLER_68_643
*5250 FILLER_68_646
*5251 FILLER_68_649
*5252 FILLER_68_652
*5253 FILLER_68_655
*5254 FILLER_68_658
*5255 FILLER_68_661
*5256 FILLER_68_664
*5257 FILLER_68_667
*5258 FILLER_68_669
*5259 FILLER_68_672
*5260 FILLER_68_675
*5261 FILLER_68_678
*5262 FILLER_68_681
*5263 FILLER_68_684
*5264 FILLER_68_687
*5265 FILLER_68_690
*5266 FILLER_68_693
*5267 FILLER_68_696
*5268 FILLER_68_699
*5269 FILLER_68_702
*5270 FILLER_68_705
*5271 FILLER_68_708
*5272 FILLER_68_711
*5273 FILLER_69_531
*5274 FILLER_69_534
*5275 FILLER_69_537
*5276 FILLER_69_540
*5277 FILLER_69_543
*5278 FILLER_69_546
*5279 FILLER_69_549
*5280 FILLER_69_552
*5281 FILLER_69_555
*5282 FILLER_69_558
*5283 FILLER_69_561
*5284 FILLER_69_564
*5285 FILLER_69_567
*5286 FILLER_69_570
*5287 FILLER_69_573
*5288 FILLER_69_576
*5289 FILLER_69_579
*5290 FILLER_69_582
*5291 FILLER_69_585
*5292 FILLER_69_588
*5293 FILLER_69_591
*5294 FILLER_69_594
*5295 FILLER_69_597
*5296 FILLER_69_600
*5297 FILLER_69_603
*5298 FILLER_69_606
*5299 FILLER_69_609
*5300 FILLER_69_612
*5301 FILLER_69_615
*5302 FILLER_69_618
*5303 FILLER_69_621
*5304 FILLER_69_624
*5305 FILLER_69_627
*5306 FILLER_69_630
*5307 FILLER_69_633
*5308 FILLER_69_636
*5309 FILLER_69_639
*5310 FILLER_69_641
*5311 FILLER_69_644
*5312 FILLER_69_647
*5313 FILLER_69_650
*5314 FILLER_69_653
*5315 FILLER_69_656
*5316 FILLER_69_659
*5317 FILLER_69_662
*5318 FILLER_69_665
*5319 FILLER_69_668
*5320 FILLER_69_671
*5321 FILLER_69_674
*5322 FILLER_69_677
*5323 FILLER_69_680
*5324 FILLER_69_683
*5325 FILLER_69_686
*5326 FILLER_69_689
*5327 FILLER_69_692
*5328 FILLER_69_695
*5329 FILLER_69_697
*5330 FILLER_69_700
*5331 FILLER_69_703
*5332 FILLER_69_706
*5333 FILLER_69_709
*5334 FILLER_69_712
*5335 FILLER_6_531
*5336 FILLER_6_534
*5337 FILLER_6_537
*5338 FILLER_6_540
*5339 FILLER_6_543
*5340 FILLER_6_546
*5341 FILLER_6_549
*5342 FILLER_6_552
*5343 FILLER_6_555
*5344 FILLER_6_557
*5345 FILLER_6_560
*5346 FILLER_6_563
*5347 FILLER_6_566
*5348 FILLER_6_569
*5349 FILLER_6_572
*5350 FILLER_6_575
*5351 FILLER_6_578
*5352 FILLER_6_581
*5353 FILLER_6_584
*5354 FILLER_6_587
*5355 FILLER_6_590
*5356 FILLER_6_593
*5357 FILLER_6_596
*5358 FILLER_6_599
*5359 FILLER_6_602
*5360 FILLER_6_605
*5361 FILLER_6_608
*5362 FILLER_6_611
*5363 FILLER_6_613
*5364 FILLER_6_616
*5365 FILLER_6_619
*5366 FILLER_6_622
*5367 FILLER_6_625
*5368 FILLER_6_628
*5369 FILLER_6_631
*5370 FILLER_6_634
*5371 FILLER_6_637
*5372 FILLER_6_640
*5373 FILLER_6_643
*5374 FILLER_6_646
*5375 FILLER_6_649
*5376 FILLER_6_652
*5377 FILLER_6_655
*5378 FILLER_6_658
*5379 FILLER_6_661
*5380 FILLER_6_664
*5381 FILLER_6_667
*5382 FILLER_6_669
*5383 FILLER_6_672
*5384 FILLER_6_675
*5385 FILLER_6_678
*5386 FILLER_6_681
*5387 FILLER_6_684
*5388 FILLER_6_687
*5389 FILLER_6_690
*5390 FILLER_6_693
*5391 FILLER_6_696
*5392 FILLER_6_699
*5393 FILLER_6_702
*5394 FILLER_6_705
*5395 FILLER_6_708
*5396 FILLER_6_711
*5397 FILLER_70_531
*5398 FILLER_70_534
*5399 FILLER_70_537
*5400 FILLER_70_540
*5401 FILLER_70_543
*5402 FILLER_70_546
*5403 FILLER_70_549
*5404 FILLER_70_552
*5405 FILLER_70_555
*5406 FILLER_70_557
*5407 FILLER_70_560
*5408 FILLER_70_563
*5409 FILLER_70_566
*5410 FILLER_70_569
*5411 FILLER_70_572
*5412 FILLER_70_575
*5413 FILLER_70_578
*5414 FILLER_70_581
*5415 FILLER_70_584
*5416 FILLER_70_587
*5417 FILLER_70_590
*5418 FILLER_70_593
*5419 FILLER_70_596
*5420 FILLER_70_599
*5421 FILLER_70_602
*5422 FILLER_70_605
*5423 FILLER_70_608
*5424 FILLER_70_611
*5425 FILLER_70_613
*5426 FILLER_70_616
*5427 FILLER_70_619
*5428 FILLER_70_622
*5429 FILLER_70_625
*5430 FILLER_70_628
*5431 FILLER_70_631
*5432 FILLER_70_634
*5433 FILLER_70_637
*5434 FILLER_70_640
*5435 FILLER_70_643
*5436 FILLER_70_646
*5437 FILLER_70_649
*5438 FILLER_70_652
*5439 FILLER_70_655
*5440 FILLER_70_658
*5441 FILLER_70_661
*5442 FILLER_70_664
*5443 FILLER_70_667
*5444 FILLER_70_669
*5445 FILLER_70_672
*5446 FILLER_70_675
*5447 FILLER_70_678
*5448 FILLER_70_681
*5449 FILLER_70_684
*5450 FILLER_70_687
*5451 FILLER_70_690
*5452 FILLER_70_693
*5453 FILLER_70_696
*5454 FILLER_70_699
*5455 FILLER_70_702
*5456 FILLER_70_705
*5457 FILLER_70_708
*5458 FILLER_70_711
*5459 FILLER_71_531
*5460 FILLER_71_534
*5461 FILLER_71_537
*5462 FILLER_71_540
*5463 FILLER_71_543
*5464 FILLER_71_546
*5465 FILLER_71_549
*5466 FILLER_71_552
*5467 FILLER_71_555
*5468 FILLER_71_558
*5469 FILLER_71_561
*5470 FILLER_71_564
*5471 FILLER_71_567
*5472 FILLER_71_570
*5473 FILLER_71_573
*5474 FILLER_71_576
*5475 FILLER_71_579
*5476 FILLER_71_582
*5477 FILLER_71_585
*5478 FILLER_71_588
*5479 FILLER_71_591
*5480 FILLER_71_594
*5481 FILLER_71_597
*5482 FILLER_71_600
*5483 FILLER_71_603
*5484 FILLER_71_606
*5485 FILLER_71_609
*5486 FILLER_71_612
*5487 FILLER_71_615
*5488 FILLER_71_618
*5489 FILLER_71_621
*5490 FILLER_71_624
*5491 FILLER_71_627
*5492 FILLER_71_630
*5493 FILLER_71_633
*5494 FILLER_71_636
*5495 FILLER_71_639
*5496 FILLER_71_641
*5497 FILLER_71_644
*5498 FILLER_71_647
*5499 FILLER_71_650
*5500 FILLER_71_653
*5501 FILLER_71_656
*5502 FILLER_71_659
*5503 FILLER_71_662
*5504 FILLER_71_665
*5505 FILLER_71_668
*5506 FILLER_71_671
*5507 FILLER_71_674
*5508 FILLER_71_677
*5509 FILLER_71_680
*5510 FILLER_71_683
*5511 FILLER_71_686
*5512 FILLER_71_689
*5513 FILLER_71_692
*5514 FILLER_71_695
*5515 FILLER_71_697
*5516 FILLER_71_700
*5517 FILLER_71_703
*5518 FILLER_71_706
*5519 FILLER_71_709
*5520 FILLER_71_712
*5521 FILLER_72_531
*5522 FILLER_72_534
*5523 FILLER_72_537
*5524 FILLER_72_540
*5525 FILLER_72_543
*5526 FILLER_72_554
*5527 FILLER_72_557
*5528 FILLER_72_560
*5529 FILLER_72_563
*5530 FILLER_72_566
*5531 FILLER_72_569
*5532 FILLER_72_593
*5533 FILLER_72_596
*5534 FILLER_72_599
*5535 FILLER_72_602
*5536 FILLER_72_605
*5537 FILLER_72_608
*5538 FILLER_72_611
*5539 FILLER_72_613
*5540 FILLER_72_616
*5541 FILLER_72_619
*5542 FILLER_72_622
*5543 FILLER_72_625
*5544 FILLER_72_628
*5545 FILLER_72_631
*5546 FILLER_72_634
*5547 FILLER_72_637
*5548 FILLER_72_640
*5549 FILLER_72_643
*5550 FILLER_72_646
*5551 FILLER_72_649
*5552 FILLER_72_652
*5553 FILLER_72_655
*5554 FILLER_72_658
*5555 FILLER_72_661
*5556 FILLER_72_664
*5557 FILLER_72_667
*5558 FILLER_72_669
*5559 FILLER_72_672
*5560 FILLER_72_675
*5561 FILLER_72_678
*5562 FILLER_72_681
*5563 FILLER_72_684
*5564 FILLER_72_687
*5565 FILLER_72_690
*5566 FILLER_72_693
*5567 FILLER_72_696
*5568 FILLER_72_699
*5569 FILLER_72_702
*5570 FILLER_72_705
*5571 FILLER_72_708
*5572 FILLER_72_711
*5573 FILLER_73_573
*5574 FILLER_73_576
*5575 FILLER_73_579
*5576 FILLER_73_582
*5577 FILLER_73_585
*5578 FILLER_73_588
*5579 FILLER_73_591
*5580 FILLER_73_594
*5581 FILLER_73_597
*5582 FILLER_73_600
*5583 FILLER_73_603
*5584 FILLER_73_606
*5585 FILLER_73_609
*5586 FILLER_73_612
*5587 FILLER_73_615
*5588 FILLER_73_618
*5589 FILLER_73_621
*5590 FILLER_73_624
*5591 FILLER_73_627
*5592 FILLER_73_630
*5593 FILLER_73_633
*5594 FILLER_73_636
*5595 FILLER_73_639
*5596 FILLER_73_641
*5597 FILLER_73_644
*5598 FILLER_73_647
*5599 FILLER_73_650
*5600 FILLER_73_653
*5601 FILLER_73_656
*5602 FILLER_73_659
*5603 FILLER_73_662
*5604 FILLER_73_665
*5605 FILLER_73_668
*5606 FILLER_73_671
*5607 FILLER_73_674
*5608 FILLER_73_677
*5609 FILLER_73_680
*5610 FILLER_73_683
*5611 FILLER_73_686
*5612 FILLER_73_689
*5613 FILLER_73_692
*5614 FILLER_73_695
*5615 FILLER_73_697
*5616 FILLER_73_700
*5617 FILLER_73_703
*5618 FILLER_73_706
*5619 FILLER_73_709
*5620 FILLER_73_712
*5621 FILLER_74_531
*5622 FILLER_74_539
*5623 FILLER_74_557
*5624 FILLER_74_560
*5625 FILLER_74_576
*5626 FILLER_74_579
*5627 FILLER_74_582
*5628 FILLER_74_585
*5629 FILLER_74_588
*5630 FILLER_74_591
*5631 FILLER_74_594
*5632 FILLER_74_597
*5633 FILLER_74_600
*5634 FILLER_74_603
*5635 FILLER_74_606
*5636 FILLER_74_609
*5637 FILLER_74_613
*5638 FILLER_74_616
*5639 FILLER_74_619
*5640 FILLER_74_622
*5641 FILLER_74_625
*5642 FILLER_74_628
*5643 FILLER_74_631
*5644 FILLER_74_634
*5645 FILLER_74_637
*5646 FILLER_74_640
*5647 FILLER_74_643
*5648 FILLER_74_646
*5649 FILLER_74_649
*5650 FILLER_74_652
*5651 FILLER_74_655
*5652 FILLER_74_658
*5653 FILLER_74_661
*5654 FILLER_74_664
*5655 FILLER_74_667
*5656 FILLER_74_669
*5657 FILLER_74_672
*5658 FILLER_74_675
*5659 FILLER_74_678
*5660 FILLER_74_681
*5661 FILLER_74_684
*5662 FILLER_74_687
*5663 FILLER_74_690
*5664 FILLER_74_693
*5665 FILLER_74_696
*5666 FILLER_74_699
*5667 FILLER_74_702
*5668 FILLER_74_705
*5669 FILLER_74_708
*5670 FILLER_74_711
*5671 FILLER_75_100
*5672 FILLER_75_103
*5673 FILLER_75_106
*5674 FILLER_75_109
*5675 FILLER_75_113
*5676 FILLER_75_116
*5677 FILLER_75_119
*5678 FILLER_75_12
*5679 FILLER_75_122
*5680 FILLER_75_125
*5681 FILLER_75_128
*5682 FILLER_75_131
*5683 FILLER_75_134
*5684 FILLER_75_137
*5685 FILLER_75_141
*5686 FILLER_75_144
*5687 FILLER_75_147
*5688 FILLER_75_15
*5689 FILLER_75_150
*5690 FILLER_75_153
*5691 FILLER_75_156
*5692 FILLER_75_159
*5693 FILLER_75_162
*5694 FILLER_75_165
*5695 FILLER_75_172
*5696 FILLER_75_175
*5697 FILLER_75_178
*5698 FILLER_75_18
*5699 FILLER_75_181
*5700 FILLER_75_184
*5701 FILLER_75_187
*5702 FILLER_75_190
*5703 FILLER_75_193
*5704 FILLER_75_197
*5705 FILLER_75_200
*5706 FILLER_75_21
*5707 FILLER_75_215
*5708 FILLER_75_218
*5709 FILLER_75_221
*5710 FILLER_75_225
*5711 FILLER_75_228
*5712 FILLER_75_233
*5713 FILLER_75_236
*5714 FILLER_75_24
*5715 FILLER_75_241
*5716 FILLER_75_244
*5717 FILLER_75_247
*5718 FILLER_75_250
*5719 FILLER_75_253
*5720 FILLER_75_256
*5721 FILLER_75_259
*5722 FILLER_75_264
*5723 FILLER_75_27
*5724 FILLER_75_273
*5725 FILLER_75_276
*5726 FILLER_75_279
*5727 FILLER_75_281
*5728 FILLER_75_284
*5729 FILLER_75_29
*5730 FILLER_75_293
*5731 FILLER_75_296
*5732 FILLER_75_299
*5733 FILLER_75_3
*5734 FILLER_75_302
*5735 FILLER_75_305
*5736 FILLER_75_309
*5737 FILLER_75_312
*5738 FILLER_75_315
*5739 FILLER_75_32
*5740 FILLER_75_337
*5741 FILLER_75_340
*5742 FILLER_75_343
*5743 FILLER_75_346
*5744 FILLER_75_349
*5745 FILLER_75_35
*5746 FILLER_75_352
*5747 FILLER_75_355
*5748 FILLER_75_358
*5749 FILLER_75_361
*5750 FILLER_75_365
*5751 FILLER_75_368
*5752 FILLER_75_371
*5753 FILLER_75_374
*5754 FILLER_75_377
*5755 FILLER_75_38
*5756 FILLER_75_380
*5757 FILLER_75_383
*5758 FILLER_75_386
*5759 FILLER_75_389
*5760 FILLER_75_393
*5761 FILLER_75_400
*5762 FILLER_75_403
*5763 FILLER_75_406
*5764 FILLER_75_409
*5765 FILLER_75_41
*5766 FILLER_75_412
*5767 FILLER_75_415
*5768 FILLER_75_418
*5769 FILLER_75_421
*5770 FILLER_75_424
*5771 FILLER_75_427
*5772 FILLER_75_44
*5773 FILLER_75_469
*5774 FILLER_75_47
*5775 FILLER_75_472
*5776 FILLER_75_475
*5777 FILLER_75_50
*5778 FILLER_75_503
*5779 FILLER_75_505
*5780 FILLER_75_508
*5781 FILLER_75_511
*5782 FILLER_75_514
*5783 FILLER_75_517
*5784 FILLER_75_520
*5785 FILLER_75_53
*5786 FILLER_75_531
*5787 FILLER_75_559
*5788 FILLER_75_561
*5789 FILLER_75_564
*5790 FILLER_75_567
*5791 FILLER_75_57
*5792 FILLER_75_570
*5793 FILLER_75_577
*5794 FILLER_75_580
*5795 FILLER_75_583
*5796 FILLER_75_586
*5797 FILLER_75_589
*5798 FILLER_75_592
*5799 FILLER_75_595
*5800 FILLER_75_598
*5801 FILLER_75_6
*5802 FILLER_75_60
*5803 FILLER_75_601
*5804 FILLER_75_604
*5805 FILLER_75_607
*5806 FILLER_75_610
*5807 FILLER_75_613
*5808 FILLER_75_617
*5809 FILLER_75_620
*5810 FILLER_75_623
*5811 FILLER_75_626
*5812 FILLER_75_629
*5813 FILLER_75_63
*5814 FILLER_75_632
*5815 FILLER_75_635
*5816 FILLER_75_638
*5817 FILLER_75_641
*5818 FILLER_75_645
*5819 FILLER_75_648
*5820 FILLER_75_651
*5821 FILLER_75_654
*5822 FILLER_75_657
*5823 FILLER_75_66
*5824 FILLER_75_660
*5825 FILLER_75_663
*5826 FILLER_75_666
*5827 FILLER_75_669
*5828 FILLER_75_673
*5829 FILLER_75_676
*5830 FILLER_75_679
*5831 FILLER_75_682
*5832 FILLER_75_685
*5833 FILLER_75_688
*5834 FILLER_75_69
*5835 FILLER_75_691
*5836 FILLER_75_694
*5837 FILLER_75_697
*5838 FILLER_75_701
*5839 FILLER_75_704
*5840 FILLER_75_707
*5841 FILLER_75_710
*5842 FILLER_75_72
*5843 FILLER_75_79
*5844 FILLER_75_82
*5845 FILLER_75_85
*5846 FILLER_75_88
*5847 FILLER_75_9
*5848 FILLER_75_91
*5849 FILLER_75_94
*5850 FILLER_75_97
*5851 FILLER_76_100
*5852 FILLER_76_103
*5853 FILLER_76_106
*5854 FILLER_76_109
*5855 FILLER_76_112
*5856 FILLER_76_115
*5857 FILLER_76_118
*5858 FILLER_76_12
*5859 FILLER_76_121
*5860 FILLER_76_124
*5861 FILLER_76_127
*5862 FILLER_76_130
*5863 FILLER_76_133
*5864 FILLER_76_136
*5865 FILLER_76_139
*5866 FILLER_76_141
*5867 FILLER_76_144
*5868 FILLER_76_147
*5869 FILLER_76_15
*5870 FILLER_76_150
*5871 FILLER_76_153
*5872 FILLER_76_156
*5873 FILLER_76_159
*5874 FILLER_76_18
*5875 FILLER_76_182
*5876 FILLER_76_185
*5877 FILLER_76_193
*5878 FILLER_76_197
*5879 FILLER_76_200
*5880 FILLER_76_203
*5881 FILLER_76_21
*5882 FILLER_76_24
*5883 FILLER_76_249
*5884 FILLER_76_253
*5885 FILLER_76_257
*5886 FILLER_76_27
*5887 FILLER_76_288
*5888 FILLER_76_29
*5889 FILLER_76_291
*5890 FILLER_76_294
*5891 FILLER_76_297
*5892 FILLER_76_3
*5893 FILLER_76_300
*5894 FILLER_76_303
*5895 FILLER_76_306
*5896 FILLER_76_309
*5897 FILLER_76_312
*5898 FILLER_76_315
*5899 FILLER_76_318
*5900 FILLER_76_32
*5901 FILLER_76_321
*5902 FILLER_76_324
*5903 FILLER_76_341
*5904 FILLER_76_344
*5905 FILLER_76_347
*5906 FILLER_76_35
*5907 FILLER_76_350
*5908 FILLER_76_353
*5909 FILLER_76_356
*5910 FILLER_76_359
*5911 FILLER_76_362
*5912 FILLER_76_365
*5913 FILLER_76_368
*5914 FILLER_76_371
*5915 FILLER_76_374
*5916 FILLER_76_377
*5917 FILLER_76_38
*5918 FILLER_76_380
*5919 FILLER_76_383
*5920 FILLER_76_386
*5921 FILLER_76_389
*5922 FILLER_76_392
*5923 FILLER_76_402
*5924 FILLER_76_405
*5925 FILLER_76_408
*5926 FILLER_76_41
*5927 FILLER_76_418
*5928 FILLER_76_421
*5929 FILLER_76_424
*5930 FILLER_76_427
*5931 FILLER_76_437
*5932 FILLER_76_44
*5933 FILLER_76_460
*5934 FILLER_76_463
*5935 FILLER_76_466
*5936 FILLER_76_47
*5937 FILLER_76_480
*5938 FILLER_76_483
*5939 FILLER_76_486
*5940 FILLER_76_489
*5941 FILLER_76_50
*5942 FILLER_76_520
*5943 FILLER_76_523
*5944 FILLER_76_53
*5945 FILLER_76_538
*5946 FILLER_76_547
*5947 FILLER_76_557
*5948 FILLER_76_56
*5949 FILLER_76_560
*5950 FILLER_76_571
*5951 FILLER_76_574
*5952 FILLER_76_583
*5953 FILLER_76_586
*5954 FILLER_76_59
*5955 FILLER_76_597
*5956 FILLER_76_6
*5957 FILLER_76_600
*5958 FILLER_76_603
*5959 FILLER_76_606
*5960 FILLER_76_609
*5961 FILLER_76_612
*5962 FILLER_76_615
*5963 FILLER_76_618
*5964 FILLER_76_62
*5965 FILLER_76_621
*5966 FILLER_76_624
*5967 FILLER_76_627
*5968 FILLER_76_630
*5969 FILLER_76_633
*5970 FILLER_76_636
*5971 FILLER_76_639
*5972 FILLER_76_642
*5973 FILLER_76_645
*5974 FILLER_76_648
*5975 FILLER_76_65
*5976 FILLER_76_651
*5977 FILLER_76_654
*5978 FILLER_76_657
*5979 FILLER_76_660
*5980 FILLER_76_663
*5981 FILLER_76_666
*5982 FILLER_76_669
*5983 FILLER_76_672
*5984 FILLER_76_675
*5985 FILLER_76_678
*5986 FILLER_76_68
*5987 FILLER_76_681
*5988 FILLER_76_684
*5989 FILLER_76_687
*5990 FILLER_76_690
*5991 FILLER_76_693
*5992 FILLER_76_696
*5993 FILLER_76_699
*5994 FILLER_76_701
*5995 FILLER_76_704
*5996 FILLER_76_707
*5997 FILLER_76_71
*5998 FILLER_76_710
*5999 FILLER_76_74
*6000 FILLER_76_77
*6001 FILLER_76_80
*6002 FILLER_76_83
*6003 FILLER_76_85
*6004 FILLER_76_88
*6005 FILLER_76_9
*6006 FILLER_76_91
*6007 FILLER_76_94
*6008 FILLER_76_97
*6009 FILLER_77_102
*6010 FILLER_77_105
*6011 FILLER_77_108
*6012 FILLER_77_111
*6013 FILLER_77_113
*6014 FILLER_77_116
*6015 FILLER_77_119
*6016 FILLER_77_12
*6017 FILLER_77_122
*6018 FILLER_77_125
*6019 FILLER_77_128
*6020 FILLER_77_131
*6021 FILLER_77_134
*6022 FILLER_77_137
*6023 FILLER_77_140
*6024 FILLER_77_143
*6025 FILLER_77_146
*6026 FILLER_77_149
*6027 FILLER_77_15
*6028 FILLER_77_152
*6029 FILLER_77_155
*6030 FILLER_77_158
*6031 FILLER_77_163
*6032 FILLER_77_166
*6033 FILLER_77_169
*6034 FILLER_77_18
*6035 FILLER_77_181
*6036 FILLER_77_184
*6037 FILLER_77_187
*6038 FILLER_77_21
*6039 FILLER_77_210
*6040 FILLER_77_215
*6041 FILLER_77_218
*6042 FILLER_77_221
*6043 FILLER_77_225
*6044 FILLER_77_228
*6045 FILLER_77_231
*6046 FILLER_77_237
*6047 FILLER_77_24
*6048 FILLER_77_240
*6049 FILLER_77_243
*6050 FILLER_77_246
*6051 FILLER_77_27
*6052 FILLER_77_292
*6053 FILLER_77_295
*6054 FILLER_77_3
*6055 FILLER_77_30
*6056 FILLER_77_305
*6057 FILLER_77_313
*6058 FILLER_77_316
*6059 FILLER_77_319
*6060 FILLER_77_322
*6061 FILLER_77_325
*6062 FILLER_77_33
*6063 FILLER_77_334
*6064 FILLER_77_337
*6065 FILLER_77_340
*6066 FILLER_77_343
*6067 FILLER_77_346
*6068 FILLER_77_36
*6069 FILLER_77_363
*6070 FILLER_77_366
*6071 FILLER_77_369
*6072 FILLER_77_372
*6073 FILLER_77_375
*6074 FILLER_77_378
*6075 FILLER_77_381
*6076 FILLER_77_384
*6077 FILLER_77_387
*6078 FILLER_77_39
*6079 FILLER_77_390
*6080 FILLER_77_398
*6081 FILLER_77_401
*6082 FILLER_77_404
*6083 FILLER_77_42
*6084 FILLER_77_443
*6085 FILLER_77_446
*6086 FILLER_77_449
*6087 FILLER_77_45
*6088 FILLER_77_452
*6089 FILLER_77_48
*6090 FILLER_77_484
*6091 FILLER_77_487
*6092 FILLER_77_490
*6093 FILLER_77_493
*6094 FILLER_77_501
*6095 FILLER_77_505
*6096 FILLER_77_508
*6097 FILLER_77_51
*6098 FILLER_77_54
*6099 FILLER_77_540
*6100 FILLER_77_543
*6101 FILLER_77_554
*6102 FILLER_77_557
*6103 FILLER_77_561
*6104 FILLER_77_564
*6105 FILLER_77_57
*6106 FILLER_77_572
*6107 FILLER_77_575
*6108 FILLER_77_599
*6109 FILLER_77_6
*6110 FILLER_77_60
*6111 FILLER_77_602
*6112 FILLER_77_605
*6113 FILLER_77_608
*6114 FILLER_77_611
*6115 FILLER_77_614
*6116 FILLER_77_617
*6117 FILLER_77_620
*6118 FILLER_77_623
*6119 FILLER_77_626
*6120 FILLER_77_629
*6121 FILLER_77_63
*6122 FILLER_77_632
*6123 FILLER_77_635
*6124 FILLER_77_638
*6125 FILLER_77_641
*6126 FILLER_77_644
*6127 FILLER_77_647
*6128 FILLER_77_650
*6129 FILLER_77_653
*6130 FILLER_77_656
*6131 FILLER_77_659
*6132 FILLER_77_66
*6133 FILLER_77_662
*6134 FILLER_77_665
*6135 FILLER_77_668
*6136 FILLER_77_671
*6137 FILLER_77_673
*6138 FILLER_77_676
*6139 FILLER_77_679
*6140 FILLER_77_682
*6141 FILLER_77_685
*6142 FILLER_77_688
*6143 FILLER_77_69
*6144 FILLER_77_691
*6145 FILLER_77_694
*6146 FILLER_77_697
*6147 FILLER_77_700
*6148 FILLER_77_703
*6149 FILLER_77_706
*6150 FILLER_77_709
*6151 FILLER_77_712
*6152 FILLER_77_72
*6153 FILLER_77_75
*6154 FILLER_77_78
*6155 FILLER_77_81
*6156 FILLER_77_84
*6157 FILLER_77_87
*6158 FILLER_77_9
*6159 FILLER_77_90
*6160 FILLER_77_93
*6161 FILLER_77_96
*6162 FILLER_77_99
*6163 FILLER_78_100
*6164 FILLER_78_103
*6165 FILLER_78_106
*6166 FILLER_78_109
*6167 FILLER_78_112
*6168 FILLER_78_115
*6169 FILLER_78_118
*6170 FILLER_78_12
*6171 FILLER_78_121
*6172 FILLER_78_124
*6173 FILLER_78_127
*6174 FILLER_78_130
*6175 FILLER_78_133
*6176 FILLER_78_136
*6177 FILLER_78_139
*6178 FILLER_78_141
*6179 FILLER_78_144
*6180 FILLER_78_147
*6181 FILLER_78_15
*6182 FILLER_78_150
*6183 FILLER_78_18
*6184 FILLER_78_185
*6185 FILLER_78_193
*6186 FILLER_78_197
*6187 FILLER_78_200
*6188 FILLER_78_21
*6189 FILLER_78_230
*6190 FILLER_78_24
*6191 FILLER_78_262
*6192 FILLER_78_27
*6193 FILLER_78_29
*6194 FILLER_78_3
*6195 FILLER_78_305
*6196 FILLER_78_317
*6197 FILLER_78_32
*6198 FILLER_78_320
*6199 FILLER_78_323
*6200 FILLER_78_326
*6201 FILLER_78_329
*6202 FILLER_78_332
*6203 FILLER_78_335
*6204 FILLER_78_338
*6205 FILLER_78_341
*6206 FILLER_78_35
*6207 FILLER_78_363
*6208 FILLER_78_365
*6209 FILLER_78_368
*6210 FILLER_78_371
*6211 FILLER_78_374
*6212 FILLER_78_377
*6213 FILLER_78_38
*6214 FILLER_78_380
*6215 FILLER_78_383
*6216 FILLER_78_386
*6217 FILLER_78_409
*6218 FILLER_78_41
*6219 FILLER_78_419
*6220 FILLER_78_44
*6221 FILLER_78_455
*6222 FILLER_78_458
*6223 FILLER_78_47
*6224 FILLER_78_477
*6225 FILLER_78_480
*6226 FILLER_78_50
*6227 FILLER_78_506
*6228 FILLER_78_514
*6229 FILLER_78_53
*6230 FILLER_78_559
*6231 FILLER_78_56
*6232 FILLER_78_562
*6233 FILLER_78_579
*6234 FILLER_78_582
*6235 FILLER_78_585
*6236 FILLER_78_589
*6237 FILLER_78_59
*6238 FILLER_78_592
*6239 FILLER_78_595
*6240 FILLER_78_598
*6241 FILLER_78_6
*6242 FILLER_78_601
*6243 FILLER_78_604
*6244 FILLER_78_607
*6245 FILLER_78_610
*6246 FILLER_78_613
*6247 FILLER_78_616
*6248 FILLER_78_619
*6249 FILLER_78_62
*6250 FILLER_78_622
*6251 FILLER_78_625
*6252 FILLER_78_628
*6253 FILLER_78_631
*6254 FILLER_78_634
*6255 FILLER_78_637
*6256 FILLER_78_640
*6257 FILLER_78_643
*6258 FILLER_78_645
*6259 FILLER_78_648
*6260 FILLER_78_65
*6261 FILLER_78_651
*6262 FILLER_78_654
*6263 FILLER_78_657
*6264 FILLER_78_660
*6265 FILLER_78_663
*6266 FILLER_78_666
*6267 FILLER_78_669
*6268 FILLER_78_672
*6269 FILLER_78_675
*6270 FILLER_78_678
*6271 FILLER_78_68
*6272 FILLER_78_681
*6273 FILLER_78_684
*6274 FILLER_78_687
*6275 FILLER_78_690
*6276 FILLER_78_693
*6277 FILLER_78_696
*6278 FILLER_78_699
*6279 FILLER_78_701
*6280 FILLER_78_704
*6281 FILLER_78_707
*6282 FILLER_78_71
*6283 FILLER_78_710
*6284 FILLER_78_74
*6285 FILLER_78_77
*6286 FILLER_78_80
*6287 FILLER_78_83
*6288 FILLER_78_85
*6289 FILLER_78_88
*6290 FILLER_78_9
*6291 FILLER_78_91
*6292 FILLER_78_94
*6293 FILLER_78_97
*6294 FILLER_79_102
*6295 FILLER_79_105
*6296 FILLER_79_108
*6297 FILLER_79_111
*6298 FILLER_79_113
*6299 FILLER_79_116
*6300 FILLER_79_119
*6301 FILLER_79_12
*6302 FILLER_79_122
*6303 FILLER_79_125
*6304 FILLER_79_128
*6305 FILLER_79_131
*6306 FILLER_79_134
*6307 FILLER_79_137
*6308 FILLER_79_140
*6309 FILLER_79_143
*6310 FILLER_79_146
*6311 FILLER_79_149
*6312 FILLER_79_15
*6313 FILLER_79_152
*6314 FILLER_79_155
*6315 FILLER_79_158
*6316 FILLER_79_161
*6317 FILLER_79_164
*6318 FILLER_79_167
*6319 FILLER_79_169
*6320 FILLER_79_18
*6321 FILLER_79_180
*6322 FILLER_79_183
*6323 FILLER_79_186
*6324 FILLER_79_21
*6325 FILLER_79_221
*6326 FILLER_79_225
*6327 FILLER_79_228
*6328 FILLER_79_231
*6329 FILLER_79_24
*6330 FILLER_79_249
*6331 FILLER_79_260
*6332 FILLER_79_27
*6333 FILLER_79_281
*6334 FILLER_79_3
*6335 FILLER_79_30
*6336 FILLER_79_309
*6337 FILLER_79_312
*6338 FILLER_79_315
*6339 FILLER_79_318
*6340 FILLER_79_321
*6341 FILLER_79_324
*6342 FILLER_79_327
*6343 FILLER_79_33
*6344 FILLER_79_337
*6345 FILLER_79_340
*6346 FILLER_79_343
*6347 FILLER_79_346
*6348 FILLER_79_349
*6349 FILLER_79_352
*6350 FILLER_79_355
*6351 FILLER_79_358
*6352 FILLER_79_36
*6353 FILLER_79_361
*6354 FILLER_79_364
*6355 FILLER_79_367
*6356 FILLER_79_370
*6357 FILLER_79_373
*6358 FILLER_79_376
*6359 FILLER_79_379
*6360 FILLER_79_382
*6361 FILLER_79_385
*6362 FILLER_79_388
*6363 FILLER_79_39
*6364 FILLER_79_391
*6365 FILLER_79_393
*6366 FILLER_79_396
*6367 FILLER_79_399
*6368 FILLER_79_402
*6369 FILLER_79_42
*6370 FILLER_79_434
*6371 FILLER_79_444
*6372 FILLER_79_447
*6373 FILLER_79_449
*6374 FILLER_79_45
*6375 FILLER_79_452
*6376 FILLER_79_468
*6377 FILLER_79_479
*6378 FILLER_79_48
*6379 FILLER_79_482
*6380 FILLER_79_485
*6381 FILLER_79_488
*6382 FILLER_79_495
*6383 FILLER_79_505
*6384 FILLER_79_508
*6385 FILLER_79_51
*6386 FILLER_79_519
*6387 FILLER_79_522
*6388 FILLER_79_54
*6389 FILLER_79_545
*6390 FILLER_79_559
*6391 FILLER_79_57
*6392 FILLER_79_574
*6393 FILLER_79_577
*6394 FILLER_79_599
*6395 FILLER_79_6
*6396 FILLER_79_60
*6397 FILLER_79_602
*6398 FILLER_79_605
*6399 FILLER_79_608
*6400 FILLER_79_611
*6401 FILLER_79_614
*6402 FILLER_79_617
*6403 FILLER_79_620
*6404 FILLER_79_623
*6405 FILLER_79_626
*6406 FILLER_79_629
*6407 FILLER_79_63
*6408 FILLER_79_632
*6409 FILLER_79_635
*6410 FILLER_79_638
*6411 FILLER_79_641
*6412 FILLER_79_644
*6413 FILLER_79_647
*6414 FILLER_79_650
*6415 FILLER_79_653
*6416 FILLER_79_656
*6417 FILLER_79_659
*6418 FILLER_79_66
*6419 FILLER_79_662
*6420 FILLER_79_665
*6421 FILLER_79_668
*6422 FILLER_79_671
*6423 FILLER_79_673
*6424 FILLER_79_676
*6425 FILLER_79_679
*6426 FILLER_79_682
*6427 FILLER_79_685
*6428 FILLER_79_688
*6429 FILLER_79_69
*6430 FILLER_79_691
*6431 FILLER_79_694
*6432 FILLER_79_697
*6433 FILLER_79_700
*6434 FILLER_79_703
*6435 FILLER_79_706
*6436 FILLER_79_709
*6437 FILLER_79_712
*6438 FILLER_79_72
*6439 FILLER_79_75
*6440 FILLER_79_78
*6441 FILLER_79_81
*6442 FILLER_79_84
*6443 FILLER_79_87
*6444 FILLER_79_9
*6445 FILLER_79_90
*6446 FILLER_79_93
*6447 FILLER_79_96
*6448 FILLER_79_99
*6449 FILLER_7_531
*6450 FILLER_7_534
*6451 FILLER_7_537
*6452 FILLER_7_540
*6453 FILLER_7_543
*6454 FILLER_7_546
*6455 FILLER_7_549
*6456 FILLER_7_552
*6457 FILLER_7_555
*6458 FILLER_7_558
*6459 FILLER_7_561
*6460 FILLER_7_564
*6461 FILLER_7_567
*6462 FILLER_7_570
*6463 FILLER_7_573
*6464 FILLER_7_576
*6465 FILLER_7_579
*6466 FILLER_7_582
*6467 FILLER_7_585
*6468 FILLER_7_588
*6469 FILLER_7_591
*6470 FILLER_7_594
*6471 FILLER_7_597
*6472 FILLER_7_600
*6473 FILLER_7_603
*6474 FILLER_7_606
*6475 FILLER_7_609
*6476 FILLER_7_612
*6477 FILLER_7_615
*6478 FILLER_7_618
*6479 FILLER_7_621
*6480 FILLER_7_624
*6481 FILLER_7_627
*6482 FILLER_7_630
*6483 FILLER_7_633
*6484 FILLER_7_636
*6485 FILLER_7_639
*6486 FILLER_7_641
*6487 FILLER_7_644
*6488 FILLER_7_647
*6489 FILLER_7_650
*6490 FILLER_7_653
*6491 FILLER_7_656
*6492 FILLER_7_659
*6493 FILLER_7_662
*6494 FILLER_7_665
*6495 FILLER_7_668
*6496 FILLER_7_671
*6497 FILLER_7_674
*6498 FILLER_7_677
*6499 FILLER_7_680
*6500 FILLER_7_683
*6501 FILLER_7_686
*6502 FILLER_7_689
*6503 FILLER_7_692
*6504 FILLER_7_695
*6505 FILLER_7_697
*6506 FILLER_7_700
*6507 FILLER_7_703
*6508 FILLER_7_706
*6509 FILLER_7_709
*6510 FILLER_7_712
*6511 FILLER_80_100
*6512 FILLER_80_106
*6513 FILLER_80_113
*6514 FILLER_80_118
*6515 FILLER_80_12
*6516 FILLER_80_124
*6517 FILLER_80_130
*6518 FILLER_80_136
*6519 FILLER_80_141
*6520 FILLER_80_144
*6521 FILLER_80_148
*6522 FILLER_80_15
*6523 FILLER_80_151
*6524 FILLER_80_154
*6525 FILLER_80_157
*6526 FILLER_80_162
*6527 FILLER_80_165
*6528 FILLER_80_169
*6529 FILLER_80_172
*6530 FILLER_80_175
*6531 FILLER_80_18
*6532 FILLER_80_188
*6533 FILLER_80_192
*6534 FILLER_80_195
*6535 FILLER_80_21
*6536 FILLER_80_218
*6537 FILLER_80_223
*6538 FILLER_80_24
*6539 FILLER_80_246
*6540 FILLER_80_27
*6541 FILLER_80_281
*6542 FILLER_80_29
*6543 FILLER_80_3
*6544 FILLER_80_307
*6545 FILLER_80_32
*6546 FILLER_80_330
*6547 FILLER_80_333
*6548 FILLER_80_344
*6549 FILLER_80_347
*6550 FILLER_80_35
*6551 FILLER_80_353
*6552 FILLER_80_356
*6553 FILLER_80_359
*6554 FILLER_80_362
*6555 FILLER_80_365
*6556 FILLER_80_368
*6557 FILLER_80_371
*6558 FILLER_80_374
*6559 FILLER_80_377
*6560 FILLER_80_38
*6561 FILLER_80_380
*6562 FILLER_80_383
*6563 FILLER_80_386
*6564 FILLER_80_389
*6565 FILLER_80_393
*6566 FILLER_80_396
*6567 FILLER_80_399
*6568 FILLER_80_402
*6569 FILLER_80_41
*6570 FILLER_80_421
*6571 FILLER_80_44
*6572 FILLER_80_47
*6573 FILLER_80_470
*6574 FILLER_80_473
*6575 FILLER_80_498
*6576 FILLER_80_50
*6577 FILLER_80_501
*6578 FILLER_80_526
*6579 FILLER_80_529
*6580 FILLER_80_53
*6581 FILLER_80_554
*6582 FILLER_80_557
*6583 FILLER_80_561
*6584 FILLER_80_57
*6585 FILLER_80_585
*6586 FILLER_80_589
*6587 FILLER_80_592
*6588 FILLER_80_595
*6589 FILLER_80_598
*6590 FILLER_80_6
*6591 FILLER_80_60
*6592 FILLER_80_601
*6593 FILLER_80_604
*6594 FILLER_80_607
*6595 FILLER_80_610
*6596 FILLER_80_613
*6597 FILLER_80_617
*6598 FILLER_80_620
*6599 FILLER_80_623
*6600 FILLER_80_626
*6601 FILLER_80_629
*6602 FILLER_80_632
*6603 FILLER_80_635
*6604 FILLER_80_638
*6605 FILLER_80_64
*6606 FILLER_80_641
*6607 FILLER_80_645
*6608 FILLER_80_648
*6609 FILLER_80_651
*6610 FILLER_80_654
*6611 FILLER_80_657
*6612 FILLER_80_660
*6613 FILLER_80_663
*6614 FILLER_80_666
*6615 FILLER_80_669
*6616 FILLER_80_673
*6617 FILLER_80_676
*6618 FILLER_80_679
*6619 FILLER_80_682
*6620 FILLER_80_685
*6621 FILLER_80_688
*6622 FILLER_80_691
*6623 FILLER_80_694
*6624 FILLER_80_697
*6625 FILLER_80_70
*6626 FILLER_80_701
*6627 FILLER_80_704
*6628 FILLER_80_707
*6629 FILLER_80_710
*6630 FILLER_80_76
*6631 FILLER_80_82
*6632 FILLER_80_88
*6633 FILLER_80_9
*6634 FILLER_80_94
*6635 FILLER_8_531
*6636 FILLER_8_534
*6637 FILLER_8_537
*6638 FILLER_8_540
*6639 FILLER_8_543
*6640 FILLER_8_546
*6641 FILLER_8_549
*6642 FILLER_8_552
*6643 FILLER_8_555
*6644 FILLER_8_557
*6645 FILLER_8_560
*6646 FILLER_8_563
*6647 FILLER_8_566
*6648 FILLER_8_569
*6649 FILLER_8_572
*6650 FILLER_8_575
*6651 FILLER_8_578
*6652 FILLER_8_581
*6653 FILLER_8_584
*6654 FILLER_8_587
*6655 FILLER_8_590
*6656 FILLER_8_593
*6657 FILLER_8_596
*6658 FILLER_8_599
*6659 FILLER_8_602
*6660 FILLER_8_605
*6661 FILLER_8_608
*6662 FILLER_8_611
*6663 FILLER_8_613
*6664 FILLER_8_616
*6665 FILLER_8_619
*6666 FILLER_8_622
*6667 FILLER_8_625
*6668 FILLER_8_628
*6669 FILLER_8_631
*6670 FILLER_8_634
*6671 FILLER_8_637
*6672 FILLER_8_640
*6673 FILLER_8_643
*6674 FILLER_8_646
*6675 FILLER_8_649
*6676 FILLER_8_652
*6677 FILLER_8_655
*6678 FILLER_8_658
*6679 FILLER_8_661
*6680 FILLER_8_664
*6681 FILLER_8_667
*6682 FILLER_8_669
*6683 FILLER_8_672
*6684 FILLER_8_675
*6685 FILLER_8_678
*6686 FILLER_8_681
*6687 FILLER_8_684
*6688 FILLER_8_687
*6689 FILLER_8_690
*6690 FILLER_8_693
*6691 FILLER_8_696
*6692 FILLER_8_699
*6693 FILLER_8_702
*6694 FILLER_8_705
*6695 FILLER_8_708
*6696 FILLER_8_711
*6697 FILLER_9_531
*6698 FILLER_9_534
*6699 FILLER_9_537
*6700 FILLER_9_540
*6701 FILLER_9_543
*6702 FILLER_9_546
*6703 FILLER_9_549
*6704 FILLER_9_552
*6705 FILLER_9_555
*6706 FILLER_9_558
*6707 FILLER_9_561
*6708 FILLER_9_564
*6709 FILLER_9_567
*6710 FILLER_9_570
*6711 FILLER_9_573
*6712 FILLER_9_576
*6713 FILLER_9_579
*6714 FILLER_9_582
*6715 FILLER_9_585
*6716 FILLER_9_588
*6717 FILLER_9_591
*6718 FILLER_9_594
*6719 FILLER_9_597
*6720 FILLER_9_600
*6721 FILLER_9_603
*6722 FILLER_9_606
*6723 FILLER_9_609
*6724 FILLER_9_612
*6725 FILLER_9_615
*6726 FILLER_9_618
*6727 FILLER_9_621
*6728 FILLER_9_624
*6729 FILLER_9_627
*6730 FILLER_9_630
*6731 FILLER_9_633
*6732 FILLER_9_636
*6733 FILLER_9_639
*6734 FILLER_9_641
*6735 FILLER_9_644
*6736 FILLER_9_647
*6737 FILLER_9_650
*6738 FILLER_9_653
*6739 FILLER_9_656
*6740 FILLER_9_659
*6741 FILLER_9_662
*6742 FILLER_9_665
*6743 FILLER_9_668
*6744 FILLER_9_671
*6745 FILLER_9_674
*6746 FILLER_9_677
*6747 FILLER_9_680
*6748 FILLER_9_683
*6749 FILLER_9_686
*6750 FILLER_9_689
*6751 FILLER_9_692
*6752 FILLER_9_695
*6753 FILLER_9_697
*6754 FILLER_9_700
*6755 FILLER_9_703
*6756 FILLER_9_706
*6757 FILLER_9_709
*6758 FILLER_9_712
*6759 PHY_EDGE_ROW_0_Left_70
*6760 PHY_EDGE_ROW_0_Right_75
*6761 PHY_EDGE_ROW_10_5_Left_57
*6762 PHY_EDGE_ROW_10_5_Right_84
*6763 PHY_EDGE_ROW_11_5_Left_58
*6764 PHY_EDGE_ROW_11_5_Right_85
*6765 PHY_EDGE_ROW_12_5_Left_59
*6766 PHY_EDGE_ROW_12_5_Right_86
*6767 PHY_EDGE_ROW_13_5_Left_60
*6768 PHY_EDGE_ROW_13_5_Right_87
*6769 PHY_EDGE_ROW_14_5_Left_61
*6770 PHY_EDGE_ROW_14_5_Right_88
*6771 PHY_EDGE_ROW_15_5_Left_62
*6772 PHY_EDGE_ROW_15_5_Right_89
*6773 PHY_EDGE_ROW_16_5_Left_63
*6774 PHY_EDGE_ROW_16_5_Right_90
*6775 PHY_EDGE_ROW_17_5_Left_64
*6776 PHY_EDGE_ROW_17_5_Right_91
*6777 PHY_EDGE_ROW_18_5_Left_65
*6778 PHY_EDGE_ROW_18_5_Right_92
*6779 PHY_EDGE_ROW_19_5_Left_66
*6780 PHY_EDGE_ROW_19_5_Right_93
*6781 PHY_EDGE_ROW_1_Left_71
*6782 PHY_EDGE_ROW_1_Right_76
*6783 PHY_EDGE_ROW_20_5_Left_67
*6784 PHY_EDGE_ROW_20_5_Right_94
*6785 PHY_EDGE_ROW_21_5_Left_68
*6786 PHY_EDGE_ROW_21_5_Right_95
*6787 PHY_EDGE_ROW_22_Left_52
*6788 PHY_EDGE_ROW_22_Right_97
*6789 PHY_EDGE_ROW_23_5_Left_0
*6790 PHY_EDGE_ROW_23_5_Right_96
*6791 PHY_EDGE_ROW_24_5_Left_1
*6792 PHY_EDGE_ROW_24_5_Right_98
*6793 PHY_EDGE_ROW_25_5_Left_2
*6794 PHY_EDGE_ROW_25_5_Right_99
*6795 PHY_EDGE_ROW_26_5_Left_3
*6796 PHY_EDGE_ROW_26_5_Right_100
*6797 PHY_EDGE_ROW_27_5_Left_4
*6798 PHY_EDGE_ROW_27_5_Right_101
*6799 PHY_EDGE_ROW_28_5_Left_5
*6800 PHY_EDGE_ROW_28_5_Right_102
*6801 PHY_EDGE_ROW_29_5_Left_6
*6802 PHY_EDGE_ROW_29_5_Right_103
*6803 PHY_EDGE_ROW_2_Left_72
*6804 PHY_EDGE_ROW_2_Right_77
*6805 PHY_EDGE_ROW_30_5_Left_7
*6806 PHY_EDGE_ROW_30_5_Right_104
*6807 PHY_EDGE_ROW_31_5_Left_8
*6808 PHY_EDGE_ROW_31_5_Right_105
*6809 PHY_EDGE_ROW_32_5_Left_9
*6810 PHY_EDGE_ROW_32_5_Right_106
*6811 PHY_EDGE_ROW_33_5_Left_10
*6812 PHY_EDGE_ROW_33_5_Right_107
*6813 PHY_EDGE_ROW_34_5_Left_11
*6814 PHY_EDGE_ROW_34_5_Right_108
*6815 PHY_EDGE_ROW_35_5_Left_12
*6816 PHY_EDGE_ROW_35_5_Right_109
*6817 PHY_EDGE_ROW_36_5_Left_13
*6818 PHY_EDGE_ROW_36_5_Right_110
*6819 PHY_EDGE_ROW_37_5_Left_14
*6820 PHY_EDGE_ROW_37_5_Right_111
*6821 PHY_EDGE_ROW_38_5_Left_15
*6822 PHY_EDGE_ROW_38_5_Right_112
*6823 PHY_EDGE_ROW_39_5_Left_16
*6824 PHY_EDGE_ROW_39_5_Right_113
*6825 PHY_EDGE_ROW_3_Left_73
*6826 PHY_EDGE_ROW_3_Right_78
*6827 PHY_EDGE_ROW_40_5_Left_17
*6828 PHY_EDGE_ROW_40_5_Right_114
*6829 PHY_EDGE_ROW_41_5_Left_18
*6830 PHY_EDGE_ROW_41_5_Right_115
*6831 PHY_EDGE_ROW_42_5_Left_19
*6832 PHY_EDGE_ROW_42_5_Right_116
*6833 PHY_EDGE_ROW_43_5_Left_20
*6834 PHY_EDGE_ROW_43_5_Right_117
*6835 PHY_EDGE_ROW_44_5_Left_21
*6836 PHY_EDGE_ROW_44_5_Right_118
*6837 PHY_EDGE_ROW_45_5_Left_22
*6838 PHY_EDGE_ROW_45_5_Right_119
*6839 PHY_EDGE_ROW_46_5_Left_23
*6840 PHY_EDGE_ROW_46_5_Right_120
*6841 PHY_EDGE_ROW_47_5_Left_24
*6842 PHY_EDGE_ROW_47_5_Right_121
*6843 PHY_EDGE_ROW_48_5_Left_25
*6844 PHY_EDGE_ROW_48_5_Right_122
*6845 PHY_EDGE_ROW_49_5_Left_26
*6846 PHY_EDGE_ROW_49_5_Right_123
*6847 PHY_EDGE_ROW_4_Left_74
*6848 PHY_EDGE_ROW_4_Right_79
*6849 PHY_EDGE_ROW_50_5_Left_27
*6850 PHY_EDGE_ROW_50_5_Right_124
*6851 PHY_EDGE_ROW_51_5_Left_28
*6852 PHY_EDGE_ROW_51_5_Right_125
*6853 PHY_EDGE_ROW_52_5_Left_29
*6854 PHY_EDGE_ROW_52_5_Right_126
*6855 PHY_EDGE_ROW_53_5_Left_30
*6856 PHY_EDGE_ROW_53_5_Right_127
*6857 PHY_EDGE_ROW_54_5_Left_31
*6858 PHY_EDGE_ROW_54_5_Right_128
*6859 PHY_EDGE_ROW_55_5_Left_32
*6860 PHY_EDGE_ROW_55_5_Right_129
*6861 PHY_EDGE_ROW_56_5_Left_33
*6862 PHY_EDGE_ROW_56_5_Right_130
*6863 PHY_EDGE_ROW_57_5_Left_34
*6864 PHY_EDGE_ROW_57_5_Right_131
*6865 PHY_EDGE_ROW_58_5_Left_35
*6866 PHY_EDGE_ROW_58_5_Right_132
*6867 PHY_EDGE_ROW_59_5_Left_36
*6868 PHY_EDGE_ROW_59_5_Right_133
*6869 PHY_EDGE_ROW_5_5_Left_69
*6870 PHY_EDGE_ROW_5_5_Right_155
*6871 PHY_EDGE_ROW_60_5_Left_37
*6872 PHY_EDGE_ROW_60_5_Right_134
*6873 PHY_EDGE_ROW_61_5_Left_38
*6874 PHY_EDGE_ROW_61_5_Right_135
*6875 PHY_EDGE_ROW_62_5_Left_39
*6876 PHY_EDGE_ROW_62_5_Right_136
*6877 PHY_EDGE_ROW_63_5_Left_40
*6878 PHY_EDGE_ROW_63_5_Right_137
*6879 PHY_EDGE_ROW_64_5_Left_41
*6880 PHY_EDGE_ROW_64_5_Right_138
*6881 PHY_EDGE_ROW_65_5_Left_42
*6882 PHY_EDGE_ROW_65_5_Right_139
*6883 PHY_EDGE_ROW_66_5_Left_43
*6884 PHY_EDGE_ROW_66_5_Right_140
*6885 PHY_EDGE_ROW_67_5_Left_44
*6886 PHY_EDGE_ROW_67_5_Right_141
*6887 PHY_EDGE_ROW_68_5_Left_45
*6888 PHY_EDGE_ROW_68_5_Right_142
*6889 PHY_EDGE_ROW_69_5_Left_46
*6890 PHY_EDGE_ROW_69_5_Right_143
*6891 PHY_EDGE_ROW_6_5_Left_53
*6892 PHY_EDGE_ROW_6_5_Right_80
*6893 PHY_EDGE_ROW_70_5_Left_47
*6894 PHY_EDGE_ROW_70_5_Right_144
*6895 PHY_EDGE_ROW_71_5_Left_48
*6896 PHY_EDGE_ROW_71_5_Right_145
*6897 PHY_EDGE_ROW_72_5_Left_49
*6898 PHY_EDGE_ROW_72_5_Right_146
*6899 PHY_EDGE_ROW_73_5_Left_50
*6900 PHY_EDGE_ROW_73_5_Right_147
*6901 PHY_EDGE_ROW_74_5_Left_51
*6902 PHY_EDGE_ROW_74_5_Right_148
*6903 PHY_EDGE_ROW_75_Left_156
*6904 PHY_EDGE_ROW_75_Right_149
*6905 PHY_EDGE_ROW_76_Left_157
*6906 PHY_EDGE_ROW_76_Right_150
*6907 PHY_EDGE_ROW_77_Left_158
*6908 PHY_EDGE_ROW_77_Right_151
*6909 PHY_EDGE_ROW_78_Left_159
*6910 PHY_EDGE_ROW_78_Right_152
*6911 PHY_EDGE_ROW_79_Left_160
*6912 PHY_EDGE_ROW_79_Right_153
*6913 PHY_EDGE_ROW_7_5_Left_54
*6914 PHY_EDGE_ROW_7_5_Right_81
*6915 PHY_EDGE_ROW_80_Left_161
*6916 PHY_EDGE_ROW_80_Right_154
*6917 PHY_EDGE_ROW_8_5_Left_55
*6918 PHY_EDGE_ROW_8_5_Right_82
*6919 PHY_EDGE_ROW_9_5_Left_56
*6920 PHY_EDGE_ROW_9_5_Right_83
*6921 TAP_TAPCELL_ROW_0_162
*6922 TAP_TAPCELL_ROW_0_163
*6923 TAP_TAPCELL_ROW_0_164
*6924 TAP_TAPCELL_ROW_0_165
*6925 TAP_TAPCELL_ROW_0_166
*6926 TAP_TAPCELL_ROW_0_167
*6927 TAP_TAPCELL_ROW_0_168
*6928 TAP_TAPCELL_ROW_0_169
*6929 TAP_TAPCELL_ROW_0_170
*6930 TAP_TAPCELL_ROW_0_171
*6931 TAP_TAPCELL_ROW_0_172
*6932 TAP_TAPCELL_ROW_0_173
*6933 TAP_TAPCELL_ROW_0_174
*6934 TAP_TAPCELL_ROW_0_175
*6935 TAP_TAPCELL_ROW_0_176
*6936 TAP_TAPCELL_ROW_0_177
*6937 TAP_TAPCELL_ROW_0_178
*6938 TAP_TAPCELL_ROW_0_179
*6939 TAP_TAPCELL_ROW_0_180
*6940 TAP_TAPCELL_ROW_0_181
*6941 TAP_TAPCELL_ROW_0_182
*6942 TAP_TAPCELL_ROW_0_183
*6943 TAP_TAPCELL_ROW_0_184
*6944 TAP_TAPCELL_ROW_0_185
*6945 TAP_TAPCELL_ROW_0_186
*6946 TAP_TAPCELL_ROW_10_5_261
*6947 TAP_TAPCELL_ROW_10_5_262
*6948 TAP_TAPCELL_ROW_10_5_263
*6949 TAP_TAPCELL_ROW_11_5_264
*6950 TAP_TAPCELL_ROW_11_5_265
*6951 TAP_TAPCELL_ROW_11_5_266
*6952 TAP_TAPCELL_ROW_12_5_267
*6953 TAP_TAPCELL_ROW_12_5_268
*6954 TAP_TAPCELL_ROW_12_5_269
*6955 TAP_TAPCELL_ROW_13_5_270
*6956 TAP_TAPCELL_ROW_13_5_271
*6957 TAP_TAPCELL_ROW_13_5_272
*6958 TAP_TAPCELL_ROW_14_5_273
*6959 TAP_TAPCELL_ROW_14_5_274
*6960 TAP_TAPCELL_ROW_14_5_275
*6961 TAP_TAPCELL_ROW_15_5_276
*6962 TAP_TAPCELL_ROW_15_5_277
*6963 TAP_TAPCELL_ROW_15_5_278
*6964 TAP_TAPCELL_ROW_16_5_279
*6965 TAP_TAPCELL_ROW_16_5_280
*6966 TAP_TAPCELL_ROW_16_5_281
*6967 TAP_TAPCELL_ROW_17_5_282
*6968 TAP_TAPCELL_ROW_17_5_283
*6969 TAP_TAPCELL_ROW_17_5_284
*6970 TAP_TAPCELL_ROW_18_5_285
*6971 TAP_TAPCELL_ROW_18_5_286
*6972 TAP_TAPCELL_ROW_18_5_287
*6973 TAP_TAPCELL_ROW_19_5_288
*6974 TAP_TAPCELL_ROW_19_5_289
*6975 TAP_TAPCELL_ROW_19_5_290
*6976 TAP_TAPCELL_ROW_1_187
*6977 TAP_TAPCELL_ROW_1_188
*6978 TAP_TAPCELL_ROW_1_189
*6979 TAP_TAPCELL_ROW_1_190
*6980 TAP_TAPCELL_ROW_1_191
*6981 TAP_TAPCELL_ROW_1_192
*6982 TAP_TAPCELL_ROW_1_193
*6983 TAP_TAPCELL_ROW_1_194
*6984 TAP_TAPCELL_ROW_1_195
*6985 TAP_TAPCELL_ROW_1_196
*6986 TAP_TAPCELL_ROW_1_197
*6987 TAP_TAPCELL_ROW_1_198
*6988 TAP_TAPCELL_ROW_20_5_291
*6989 TAP_TAPCELL_ROW_20_5_292
*6990 TAP_TAPCELL_ROW_20_5_293
*6991 TAP_TAPCELL_ROW_21_5_294
*6992 TAP_TAPCELL_ROW_21_5_295
*6993 TAP_TAPCELL_ROW_21_5_296
*6994 TAP_TAPCELL_ROW_22_300
*6995 TAP_TAPCELL_ROW_22_301
*6996 TAP_TAPCELL_ROW_22_302
*6997 TAP_TAPCELL_ROW_22_303
*6998 TAP_TAPCELL_ROW_22_304
*6999 TAP_TAPCELL_ROW_22_305
*7000 TAP_TAPCELL_ROW_22_306
*7001 TAP_TAPCELL_ROW_22_307
*7002 TAP_TAPCELL_ROW_22_308
*7003 TAP_TAPCELL_ROW_22_309
*7004 TAP_TAPCELL_ROW_22_310
*7005 TAP_TAPCELL_ROW_22_311
*7006 TAP_TAPCELL_ROW_22_312
*7007 TAP_TAPCELL_ROW_22_313
*7008 TAP_TAPCELL_ROW_22_314
*7009 TAP_TAPCELL_ROW_22_315
*7010 TAP_TAPCELL_ROW_22_316
*7011 TAP_TAPCELL_ROW_22_317
*7012 TAP_TAPCELL_ROW_22_318
*7013 TAP_TAPCELL_ROW_22_319
*7014 TAP_TAPCELL_ROW_22_320
*7015 TAP_TAPCELL_ROW_22_321
*7016 TAP_TAPCELL_ROW_22_322
*7017 TAP_TAPCELL_ROW_22_323
*7018 TAP_TAPCELL_ROW_22_324
*7019 TAP_TAPCELL_ROW_23_5_297
*7020 TAP_TAPCELL_ROW_23_5_298
*7021 TAP_TAPCELL_ROW_23_5_299
*7022 TAP_TAPCELL_ROW_24_5_325
*7023 TAP_TAPCELL_ROW_24_5_326
*7024 TAP_TAPCELL_ROW_24_5_327
*7025 TAP_TAPCELL_ROW_25_5_328
*7026 TAP_TAPCELL_ROW_25_5_329
*7027 TAP_TAPCELL_ROW_25_5_330
*7028 TAP_TAPCELL_ROW_26_5_331
*7029 TAP_TAPCELL_ROW_26_5_332
*7030 TAP_TAPCELL_ROW_26_5_333
*7031 TAP_TAPCELL_ROW_27_5_334
*7032 TAP_TAPCELL_ROW_27_5_335
*7033 TAP_TAPCELL_ROW_27_5_336
*7034 TAP_TAPCELL_ROW_28_5_337
*7035 TAP_TAPCELL_ROW_28_5_338
*7036 TAP_TAPCELL_ROW_28_5_339
*7037 TAP_TAPCELL_ROW_29_5_340
*7038 TAP_TAPCELL_ROW_29_5_341
*7039 TAP_TAPCELL_ROW_29_5_342
*7040 TAP_TAPCELL_ROW_2_199
*7041 TAP_TAPCELL_ROW_2_200
*7042 TAP_TAPCELL_ROW_2_201
*7043 TAP_TAPCELL_ROW_2_202
*7044 TAP_TAPCELL_ROW_2_203
*7045 TAP_TAPCELL_ROW_2_204
*7046 TAP_TAPCELL_ROW_2_205
*7047 TAP_TAPCELL_ROW_2_206
*7048 TAP_TAPCELL_ROW_2_207
*7049 TAP_TAPCELL_ROW_2_208
*7050 TAP_TAPCELL_ROW_2_209
*7051 TAP_TAPCELL_ROW_2_210
*7052 TAP_TAPCELL_ROW_2_211
*7053 TAP_TAPCELL_ROW_30_5_343
*7054 TAP_TAPCELL_ROW_30_5_344
*7055 TAP_TAPCELL_ROW_30_5_345
*7056 TAP_TAPCELL_ROW_31_5_346
*7057 TAP_TAPCELL_ROW_31_5_347
*7058 TAP_TAPCELL_ROW_31_5_348
*7059 TAP_TAPCELL_ROW_32_5_349
*7060 TAP_TAPCELL_ROW_32_5_350
*7061 TAP_TAPCELL_ROW_32_5_351
*7062 TAP_TAPCELL_ROW_33_5_352
*7063 TAP_TAPCELL_ROW_33_5_353
*7064 TAP_TAPCELL_ROW_33_5_354
*7065 TAP_TAPCELL_ROW_34_5_355
*7066 TAP_TAPCELL_ROW_34_5_356
*7067 TAP_TAPCELL_ROW_34_5_357
*7068 TAP_TAPCELL_ROW_35_5_358
*7069 TAP_TAPCELL_ROW_35_5_359
*7070 TAP_TAPCELL_ROW_35_5_360
*7071 TAP_TAPCELL_ROW_36_5_361
*7072 TAP_TAPCELL_ROW_36_5_362
*7073 TAP_TAPCELL_ROW_36_5_363
*7074 TAP_TAPCELL_ROW_37_5_364
*7075 TAP_TAPCELL_ROW_37_5_365
*7076 TAP_TAPCELL_ROW_37_5_366
*7077 TAP_TAPCELL_ROW_38_5_367
*7078 TAP_TAPCELL_ROW_38_5_368
*7079 TAP_TAPCELL_ROW_38_5_369
*7080 TAP_TAPCELL_ROW_39_5_370
*7081 TAP_TAPCELL_ROW_39_5_371
*7082 TAP_TAPCELL_ROW_39_5_372
*7083 TAP_TAPCELL_ROW_3_212
*7084 TAP_TAPCELL_ROW_3_213
*7085 TAP_TAPCELL_ROW_3_214
*7086 TAP_TAPCELL_ROW_3_215
*7087 TAP_TAPCELL_ROW_3_216
*7088 TAP_TAPCELL_ROW_3_217
*7089 TAP_TAPCELL_ROW_3_218
*7090 TAP_TAPCELL_ROW_3_219
*7091 TAP_TAPCELL_ROW_3_220
*7092 TAP_TAPCELL_ROW_3_221
*7093 TAP_TAPCELL_ROW_3_222
*7094 TAP_TAPCELL_ROW_3_223
*7095 TAP_TAPCELL_ROW_40_5_373
*7096 TAP_TAPCELL_ROW_40_5_374
*7097 TAP_TAPCELL_ROW_40_5_375
*7098 TAP_TAPCELL_ROW_41_5_376
*7099 TAP_TAPCELL_ROW_41_5_377
*7100 TAP_TAPCELL_ROW_41_5_378
*7101 TAP_TAPCELL_ROW_42_5_379
*7102 TAP_TAPCELL_ROW_42_5_380
*7103 TAP_TAPCELL_ROW_42_5_381
*7104 TAP_TAPCELL_ROW_43_5_382
*7105 TAP_TAPCELL_ROW_43_5_383
*7106 TAP_TAPCELL_ROW_43_5_384
*7107 TAP_TAPCELL_ROW_44_5_385
*7108 TAP_TAPCELL_ROW_44_5_386
*7109 TAP_TAPCELL_ROW_44_5_387
*7110 TAP_TAPCELL_ROW_45_5_388
*7111 TAP_TAPCELL_ROW_45_5_389
*7112 TAP_TAPCELL_ROW_45_5_390
*7113 TAP_TAPCELL_ROW_46_5_391
*7114 TAP_TAPCELL_ROW_46_5_392
*7115 TAP_TAPCELL_ROW_46_5_393
*7116 TAP_TAPCELL_ROW_47_5_394
*7117 TAP_TAPCELL_ROW_47_5_395
*7118 TAP_TAPCELL_ROW_47_5_396
*7119 TAP_TAPCELL_ROW_48_5_397
*7120 TAP_TAPCELL_ROW_48_5_398
*7121 TAP_TAPCELL_ROW_48_5_399
*7122 TAP_TAPCELL_ROW_49_5_400
*7123 TAP_TAPCELL_ROW_49_5_401
*7124 TAP_TAPCELL_ROW_49_5_402
*7125 TAP_TAPCELL_ROW_4_224
*7126 TAP_TAPCELL_ROW_4_225
*7127 TAP_TAPCELL_ROW_4_226
*7128 TAP_TAPCELL_ROW_4_227
*7129 TAP_TAPCELL_ROW_4_228
*7130 TAP_TAPCELL_ROW_4_229
*7131 TAP_TAPCELL_ROW_4_230
*7132 TAP_TAPCELL_ROW_4_231
*7133 TAP_TAPCELL_ROW_4_232
*7134 TAP_TAPCELL_ROW_4_233
*7135 TAP_TAPCELL_ROW_4_234
*7136 TAP_TAPCELL_ROW_4_235
*7137 TAP_TAPCELL_ROW_4_236
*7138 TAP_TAPCELL_ROW_4_237
*7139 TAP_TAPCELL_ROW_4_238
*7140 TAP_TAPCELL_ROW_4_239
*7141 TAP_TAPCELL_ROW_4_240
*7142 TAP_TAPCELL_ROW_4_241
*7143 TAP_TAPCELL_ROW_4_242
*7144 TAP_TAPCELL_ROW_4_243
*7145 TAP_TAPCELL_ROW_4_244
*7146 TAP_TAPCELL_ROW_4_245
*7147 TAP_TAPCELL_ROW_4_246
*7148 TAP_TAPCELL_ROW_4_247
*7149 TAP_TAPCELL_ROW_4_248
*7150 TAP_TAPCELL_ROW_50_5_403
*7151 TAP_TAPCELL_ROW_50_5_404
*7152 TAP_TAPCELL_ROW_50_5_405
*7153 TAP_TAPCELL_ROW_51_5_406
*7154 TAP_TAPCELL_ROW_51_5_407
*7155 TAP_TAPCELL_ROW_51_5_408
*7156 TAP_TAPCELL_ROW_52_5_409
*7157 TAP_TAPCELL_ROW_52_5_410
*7158 TAP_TAPCELL_ROW_52_5_411
*7159 TAP_TAPCELL_ROW_53_5_412
*7160 TAP_TAPCELL_ROW_53_5_413
*7161 TAP_TAPCELL_ROW_53_5_414
*7162 TAP_TAPCELL_ROW_54_5_415
*7163 TAP_TAPCELL_ROW_54_5_416
*7164 TAP_TAPCELL_ROW_54_5_417
*7165 TAP_TAPCELL_ROW_55_5_418
*7166 TAP_TAPCELL_ROW_55_5_419
*7167 TAP_TAPCELL_ROW_55_5_420
*7168 TAP_TAPCELL_ROW_56_5_421
*7169 TAP_TAPCELL_ROW_56_5_422
*7170 TAP_TAPCELL_ROW_56_5_423
*7171 TAP_TAPCELL_ROW_57_5_424
*7172 TAP_TAPCELL_ROW_57_5_425
*7173 TAP_TAPCELL_ROW_57_5_426
*7174 TAP_TAPCELL_ROW_58_5_427
*7175 TAP_TAPCELL_ROW_58_5_428
*7176 TAP_TAPCELL_ROW_58_5_429
*7177 TAP_TAPCELL_ROW_59_5_430
*7178 TAP_TAPCELL_ROW_59_5_431
*7179 TAP_TAPCELL_ROW_59_5_432
*7180 TAP_TAPCELL_ROW_5_5_578
*7181 TAP_TAPCELL_ROW_5_5_579
*7182 TAP_TAPCELL_ROW_5_5_580
*7183 TAP_TAPCELL_ROW_60_5_433
*7184 TAP_TAPCELL_ROW_60_5_434
*7185 TAP_TAPCELL_ROW_60_5_435
*7186 TAP_TAPCELL_ROW_61_5_436
*7187 TAP_TAPCELL_ROW_61_5_437
*7188 TAP_TAPCELL_ROW_61_5_438
*7189 TAP_TAPCELL_ROW_62_5_439
*7190 TAP_TAPCELL_ROW_62_5_440
*7191 TAP_TAPCELL_ROW_62_5_441
*7192 TAP_TAPCELL_ROW_63_5_442
*7193 TAP_TAPCELL_ROW_63_5_443
*7194 TAP_TAPCELL_ROW_63_5_444
*7195 TAP_TAPCELL_ROW_64_5_445
*7196 TAP_TAPCELL_ROW_64_5_446
*7197 TAP_TAPCELL_ROW_64_5_447
*7198 TAP_TAPCELL_ROW_65_5_448
*7199 TAP_TAPCELL_ROW_65_5_449
*7200 TAP_TAPCELL_ROW_65_5_450
*7201 TAP_TAPCELL_ROW_66_5_451
*7202 TAP_TAPCELL_ROW_66_5_452
*7203 TAP_TAPCELL_ROW_66_5_453
*7204 TAP_TAPCELL_ROW_67_5_454
*7205 TAP_TAPCELL_ROW_67_5_455
*7206 TAP_TAPCELL_ROW_67_5_456
*7207 TAP_TAPCELL_ROW_68_5_457
*7208 TAP_TAPCELL_ROW_68_5_458
*7209 TAP_TAPCELL_ROW_68_5_459
*7210 TAP_TAPCELL_ROW_69_5_460
*7211 TAP_TAPCELL_ROW_69_5_461
*7212 TAP_TAPCELL_ROW_69_5_462
*7213 TAP_TAPCELL_ROW_6_5_249
*7214 TAP_TAPCELL_ROW_6_5_250
*7215 TAP_TAPCELL_ROW_6_5_251
*7216 TAP_TAPCELL_ROW_70_5_463
*7217 TAP_TAPCELL_ROW_70_5_464
*7218 TAP_TAPCELL_ROW_70_5_465
*7219 TAP_TAPCELL_ROW_71_5_466
*7220 TAP_TAPCELL_ROW_71_5_467
*7221 TAP_TAPCELL_ROW_71_5_468
*7222 TAP_TAPCELL_ROW_72_5_469
*7223 TAP_TAPCELL_ROW_72_5_470
*7224 TAP_TAPCELL_ROW_72_5_471
*7225 TAP_TAPCELL_ROW_73_5_472
*7226 TAP_TAPCELL_ROW_73_5_473
*7227 TAP_TAPCELL_ROW_73_5_474
*7228 TAP_TAPCELL_ROW_74_5_475
*7229 TAP_TAPCELL_ROW_74_5_476
*7230 TAP_TAPCELL_ROW_74_5_477
*7231 TAP_TAPCELL_ROW_75_478
*7232 TAP_TAPCELL_ROW_75_479
*7233 TAP_TAPCELL_ROW_75_480
*7234 TAP_TAPCELL_ROW_75_481
*7235 TAP_TAPCELL_ROW_75_482
*7236 TAP_TAPCELL_ROW_75_483
*7237 TAP_TAPCELL_ROW_75_484
*7238 TAP_TAPCELL_ROW_75_485
*7239 TAP_TAPCELL_ROW_75_486
*7240 TAP_TAPCELL_ROW_75_487
*7241 TAP_TAPCELL_ROW_75_488
*7242 TAP_TAPCELL_ROW_75_489
*7243 TAP_TAPCELL_ROW_75_490
*7244 TAP_TAPCELL_ROW_75_491
*7245 TAP_TAPCELL_ROW_75_492
*7246 TAP_TAPCELL_ROW_75_493
*7247 TAP_TAPCELL_ROW_75_494
*7248 TAP_TAPCELL_ROW_75_495
*7249 TAP_TAPCELL_ROW_75_496
*7250 TAP_TAPCELL_ROW_75_497
*7251 TAP_TAPCELL_ROW_75_498
*7252 TAP_TAPCELL_ROW_75_499
*7253 TAP_TAPCELL_ROW_75_500
*7254 TAP_TAPCELL_ROW_75_501
*7255 TAP_TAPCELL_ROW_75_502
*7256 TAP_TAPCELL_ROW_76_503
*7257 TAP_TAPCELL_ROW_76_504
*7258 TAP_TAPCELL_ROW_76_505
*7259 TAP_TAPCELL_ROW_76_506
*7260 TAP_TAPCELL_ROW_76_507
*7261 TAP_TAPCELL_ROW_76_508
*7262 TAP_TAPCELL_ROW_76_509
*7263 TAP_TAPCELL_ROW_76_510
*7264 TAP_TAPCELL_ROW_76_511
*7265 TAP_TAPCELL_ROW_76_512
*7266 TAP_TAPCELL_ROW_76_513
*7267 TAP_TAPCELL_ROW_76_514
*7268 TAP_TAPCELL_ROW_76_515
*7269 TAP_TAPCELL_ROW_77_516
*7270 TAP_TAPCELL_ROW_77_517
*7271 TAP_TAPCELL_ROW_77_518
*7272 TAP_TAPCELL_ROW_77_519
*7273 TAP_TAPCELL_ROW_77_520
*7274 TAP_TAPCELL_ROW_77_521
*7275 TAP_TAPCELL_ROW_77_522
*7276 TAP_TAPCELL_ROW_77_523
*7277 TAP_TAPCELL_ROW_77_524
*7278 TAP_TAPCELL_ROW_77_525
*7279 TAP_TAPCELL_ROW_77_526
*7280 TAP_TAPCELL_ROW_77_527
*7281 TAP_TAPCELL_ROW_78_528
*7282 TAP_TAPCELL_ROW_78_529
*7283 TAP_TAPCELL_ROW_78_530
*7284 TAP_TAPCELL_ROW_78_531
*7285 TAP_TAPCELL_ROW_78_532
*7286 TAP_TAPCELL_ROW_78_533
*7287 TAP_TAPCELL_ROW_78_534
*7288 TAP_TAPCELL_ROW_78_535
*7289 TAP_TAPCELL_ROW_78_536
*7290 TAP_TAPCELL_ROW_78_537
*7291 TAP_TAPCELL_ROW_78_538
*7292 TAP_TAPCELL_ROW_78_539
*7293 TAP_TAPCELL_ROW_78_540
*7294 TAP_TAPCELL_ROW_79_541
*7295 TAP_TAPCELL_ROW_79_542
*7296 TAP_TAPCELL_ROW_79_543
*7297 TAP_TAPCELL_ROW_79_544
*7298 TAP_TAPCELL_ROW_79_545
*7299 TAP_TAPCELL_ROW_79_546
*7300 TAP_TAPCELL_ROW_79_547
*7301 TAP_TAPCELL_ROW_79_548
*7302 TAP_TAPCELL_ROW_79_549
*7303 TAP_TAPCELL_ROW_79_550
*7304 TAP_TAPCELL_ROW_79_551
*7305 TAP_TAPCELL_ROW_79_552
*7306 TAP_TAPCELL_ROW_7_5_252
*7307 TAP_TAPCELL_ROW_7_5_253
*7308 TAP_TAPCELL_ROW_7_5_254
*7309 TAP_TAPCELL_ROW_80_553
*7310 TAP_TAPCELL_ROW_80_554
*7311 TAP_TAPCELL_ROW_80_555
*7312 TAP_TAPCELL_ROW_80_556
*7313 TAP_TAPCELL_ROW_80_557
*7314 TAP_TAPCELL_ROW_80_558
*7315 TAP_TAPCELL_ROW_80_559
*7316 TAP_TAPCELL_ROW_80_560
*7317 TAP_TAPCELL_ROW_80_561
*7318 TAP_TAPCELL_ROW_80_562
*7319 TAP_TAPCELL_ROW_80_563
*7320 TAP_TAPCELL_ROW_80_564
*7321 TAP_TAPCELL_ROW_80_565
*7322 TAP_TAPCELL_ROW_80_566
*7323 TAP_TAPCELL_ROW_80_567
*7324 TAP_TAPCELL_ROW_80_568
*7325 TAP_TAPCELL_ROW_80_569
*7326 TAP_TAPCELL_ROW_80_570
*7327 TAP_TAPCELL_ROW_80_571
*7328 TAP_TAPCELL_ROW_80_572
*7329 TAP_TAPCELL_ROW_80_573
*7330 TAP_TAPCELL_ROW_80_574
*7331 TAP_TAPCELL_ROW_80_575
*7332 TAP_TAPCELL_ROW_80_576
*7333 TAP_TAPCELL_ROW_80_577
*7334 TAP_TAPCELL_ROW_8_5_255
*7335 TAP_TAPCELL_ROW_8_5_256
*7336 TAP_TAPCELL_ROW_8_5_257
*7337 TAP_TAPCELL_ROW_9_5_258
*7338 TAP_TAPCELL_ROW_9_5_259
*7339 TAP_TAPCELL_ROW_9_5_260
*7340 _118_
*7341 _119_
*7342 _120_
*7343 _121_
*7344 _122_
*7345 _123_
*7346 _124_
*7347 _125_
*7348 _126_
*7349 _127_
*7350 _128_
*7351 _129_
*7352 _130_
*7353 _131_
*7354 _132_
*7355 _133_
*7356 _134_
*7357 _135_
*7358 _136_
*7359 _137_
*7360 _138_
*7361 _139_
*7362 _140_
*7363 _141_
*7364 _142_
*7365 _143_
*7366 _144_
*7367 _145_
*7368 _146_
*7369 _147_
*7370 _148_
*7371 _149_
*7372 _150_
*7373 _151_
*7374 _152_
*7375 _153_
*7376 _154_
*7377 _155_
*7378 _156_
*7379 _157_
*7380 _158_
*7381 _159_
*7382 _160_
*7383 _161_
*7384 _162_
*7385 _163_
*7386 _164_
*7387 _165_
*7388 _166_
*7389 _167_
*7390 _168_
*7391 _169_
*7392 _170_
*7393 _171_
*7394 _172_
*7395 _173_
*7396 _174_
*7397 _175_
*7398 _176_
*7399 _177_
*7400 _178_
*7401 _179_
*7402 _180_
*7403 _181_
*7404 _182_
*7405 _183_
*7406 _184_
*7407 _185_
*7408 _186_
*7409 _187_
*7410 _188_
*7411 _189_
*7412 _190_
*7413 _191_
*7414 _192_
*7415 _193_
*7416 _194_
*7417 _195_
*7418 _196_
*7419 _197_
*7420 _198_
*7421 _199_
*7422 _200_
*7423 _201_
*7424 _202_
*7425 _203_
*7426 _204_
*7427 _205_
*7428 _206_
*7429 _207_
*7430 _208_
*7431 _209_
*7432 _210_
*7433 _211_
*7434 _212_
*7435 _213_
*7436 _214_
*7437 _215_
*7438 _216_
*7439 _217_
*7440 _218_
*7441 _219_
*7442 _220_
*7443 _221_
*7444 _222_
*7445 _223_
*7446 _224_
*7447 _225_
*7448 _226_
*7449 _227_
*7450 _228_
*7451 _229_
*7452 _230_
*7453 _231_
*7454 _232_
*7455 _233_
*7456 _234_
*7457 _235_
*7458 _236_
*7459 _237_
*7460 _238_
*7461 _239_
*7462 _240_
*7463 _241_
*7464 _242_
*7465 _243_
*7466 _244_
*7467 _245_
*7468 _246_
*7469 _247_
*7470 _248_
*7471 _249_
*7472 _250_
*7473 _251_
*7474 _252_
*7475 _253_
*7476 _254_
*7477 _255_
*7478 _256_
*7479 _257_
*7480 _258_
*7481 _259_
*7482 _260_
*7483 _261_
*7484 _262_
*7485 _263_
*7486 _264_
*7487 _265_
*7488 _266_
*7489 _267_
*7490 _268_
*7491 _269_
*7492 _270_
*7493 _271_
*7494 _272_
*7495 _273_
*7496 _274_
*7497 _275_
*7498 _276_
*7499 _277_
*7500 _278_
*7501 _279_
*7502 _280_
*7503 _281_
*7504 _282_
*7505 _283_
*7506 _284_
*7507 _285_
*7508 _286_
*7509 _287_
*7510 _288_
*7511 _289_
*7512 _290_
*7513 _291_
*7514 _292_
*7515 _293_
*7516 _294_
*7517 _295_
*7518 _296_
*7519 _297_
*7520 _298_
*7521 _299_
*7522 _300_
*7523 _301_
*7524 _302_
*7525 _303_
*7526 _304_
*7527 _305_
*7528 _306_
*7529 _307_
*7530 _308_
*7531 _309_
*7532 _310_
*7533 _311_
*7534 _312_
*7535 _328_
*7536 clkbuf_0_clk
*7537 clkbuf_2_0__f_clk
*7538 clkbuf_2_1__f_clk
*7539 clkbuf_2_2__f_clk
*7540 clkbuf_2_3__f_clk
*7541 clkload0
*7542 fanout10
*7543 fanout11
*7544 fanout12
*7545 fanout13
*7546 fanout14
*7547 fanout15
*7548 fanout16
*7549 fanout17
*7550 fanout20
*7551 fanout21
*7552 fanout24
*7553 fanout25
*7554 fanout9
*7555 hold40
*7556 hold41
*7557 hold42
*7558 hold43
*7559 hold44
*7560 hold45
*7561 input1
*7562 input2
*7563 input3
*7564 input4
*7565 input5
*7566 input6
*7567 input7
*7568 input8
*7569 load_slew22
*7570 load_slew23
*7571 max_cap18
*7572 tt_um_nikodemetrashvili20_ro_puf
*7573 tt_um_nikodemetrashvili20_ro_puf_26
*7574 tt_um_nikodemetrashvili20_ro_puf_27
*7575 tt_um_nikodemetrashvili20_ro_puf_28
*7576 tt_um_nikodemetrashvili20_ro_puf_29
*7577 tt_um_nikodemetrashvili20_ro_puf_30
*7578 tt_um_nikodemetrashvili20_ro_puf_31
*7579 tt_um_nikodemetrashvili20_ro_puf_32
*7580 tt_um_nikodemetrashvili20_ro_puf_33
*7581 tt_um_nikodemetrashvili20_ro_puf_34
*7582 tt_um_nikodemetrashvili20_ro_puf_35
*7583 tt_um_nikodemetrashvili20_ro_puf_36
*7584 tt_um_nikodemetrashvili20_ro_puf_37
*7585 tt_um_nikodemetrashvili20_ro_puf_38
*7586 tt_um_nikodemetrashvili20_ro_puf_39
*7587 u_puf\.u_core\.g_ro_bank\[0\]\.u_ro\.g_inv\[10\]\.u_inv
*7588 u_puf\.u_core\.g_ro_bank\[0\]\.u_ro\.g_inv\[11\]\.u_inv
*7589 u_puf\.u_core\.g_ro_bank\[0\]\.u_ro\.g_inv\[12\]\.u_inv
*7590 u_puf\.u_core\.g_ro_bank\[0\]\.u_ro\.g_inv\[13\]\.u_inv
*7591 u_puf\.u_core\.g_ro_bank\[0\]\.u_ro\.g_inv\[14\]\.u_inv
*7592 u_puf\.u_core\.g_ro_bank\[0\]\.u_ro\.g_inv\[15\]\.u_inv
*7593 u_puf\.u_core\.g_ro_bank\[0\]\.u_ro\.g_inv\[16\]\.u_inv
*7594 u_puf\.u_core\.g_ro_bank\[0\]\.u_ro\.g_inv\[17\]\.u_inv
*7595 u_puf\.u_core\.g_ro_bank\[0\]\.u_ro\.g_inv\[18\]\.u_inv
*7596 u_puf\.u_core\.g_ro_bank\[0\]\.u_ro\.g_inv\[19\]\.u_inv
*7597 u_puf\.u_core\.g_ro_bank\[0\]\.u_ro\.g_inv\[1\]\.u_inv
*7598 u_puf\.u_core\.g_ro_bank\[0\]\.u_ro\.g_inv\[20\]\.u_inv
*7599 u_puf\.u_core\.g_ro_bank\[0\]\.u_ro\.g_inv\[21\]\.u_inv
*7600 u_puf\.u_core\.g_ro_bank\[0\]\.u_ro\.g_inv\[22\]\.u_inv
*7601 u_puf\.u_core\.g_ro_bank\[0\]\.u_ro\.g_inv\[23\]\.u_inv
*7602 u_puf\.u_core\.g_ro_bank\[0\]\.u_ro\.g_inv\[24\]\.u_inv
*7603 u_puf\.u_core\.g_ro_bank\[0\]\.u_ro\.g_inv\[25\]\.u_inv
*7604 u_puf\.u_core\.g_ro_bank\[0\]\.u_ro\.g_inv\[26\]\.u_inv
*7605 u_puf\.u_core\.g_ro_bank\[0\]\.u_ro\.g_inv\[27\]\.u_inv
*7606 u_puf\.u_core\.g_ro_bank\[0\]\.u_ro\.g_inv\[28\]\.u_inv
*7607 u_puf\.u_core\.g_ro_bank\[0\]\.u_ro\.g_inv\[29\]\.u_inv
*7608 u_puf\.u_core\.g_ro_bank\[0\]\.u_ro\.g_inv\[2\]\.u_inv
*7609 u_puf\.u_core\.g_ro_bank\[0\]\.u_ro\.g_inv\[30\]\.u_inv
*7610 u_puf\.u_core\.g_ro_bank\[0\]\.u_ro\.g_inv\[3\]\.u_inv
*7611 u_puf\.u_core\.g_ro_bank\[0\]\.u_ro\.g_inv\[4\]\.u_inv
*7612 u_puf\.u_core\.g_ro_bank\[0\]\.u_ro\.g_inv\[5\]\.u_inv
*7613 u_puf\.u_core\.g_ro_bank\[0\]\.u_ro\.g_inv\[6\]\.u_inv
*7614 u_puf\.u_core\.g_ro_bank\[0\]\.u_ro\.g_inv\[7\]\.u_inv
*7615 u_puf\.u_core\.g_ro_bank\[0\]\.u_ro\.g_inv\[8\]\.u_inv
*7616 u_puf\.u_core\.g_ro_bank\[0\]\.u_ro\.g_inv\[9\]\.u_inv
*7617 u_puf\.u_core\.g_ro_bank\[0\]\.u_ro\.u_buf
*7618 u_puf\.u_core\.g_ro_bank\[0\]\.u_ro\.u_nand
*7619 u_puf\.u_core\.g_ro_bank\[10\]\.u_ro\.g_inv\[10\]\.u_inv
*7620 u_puf\.u_core\.g_ro_bank\[10\]\.u_ro\.g_inv\[11\]\.u_inv
*7621 u_puf\.u_core\.g_ro_bank\[10\]\.u_ro\.g_inv\[12\]\.u_inv
*7622 u_puf\.u_core\.g_ro_bank\[10\]\.u_ro\.g_inv\[13\]\.u_inv
*7623 u_puf\.u_core\.g_ro_bank\[10\]\.u_ro\.g_inv\[14\]\.u_inv
*7624 u_puf\.u_core\.g_ro_bank\[10\]\.u_ro\.g_inv\[15\]\.u_inv
*7625 u_puf\.u_core\.g_ro_bank\[10\]\.u_ro\.g_inv\[16\]\.u_inv
*7626 u_puf\.u_core\.g_ro_bank\[10\]\.u_ro\.g_inv\[17\]\.u_inv
*7627 u_puf\.u_core\.g_ro_bank\[10\]\.u_ro\.g_inv\[18\]\.u_inv
*7628 u_puf\.u_core\.g_ro_bank\[10\]\.u_ro\.g_inv\[19\]\.u_inv
*7629 u_puf\.u_core\.g_ro_bank\[10\]\.u_ro\.g_inv\[1\]\.u_inv
*7630 u_puf\.u_core\.g_ro_bank\[10\]\.u_ro\.g_inv\[20\]\.u_inv
*7631 u_puf\.u_core\.g_ro_bank\[10\]\.u_ro\.g_inv\[21\]\.u_inv
*7632 u_puf\.u_core\.g_ro_bank\[10\]\.u_ro\.g_inv\[22\]\.u_inv
*7633 u_puf\.u_core\.g_ro_bank\[10\]\.u_ro\.g_inv\[23\]\.u_inv
*7634 u_puf\.u_core\.g_ro_bank\[10\]\.u_ro\.g_inv\[24\]\.u_inv
*7635 u_puf\.u_core\.g_ro_bank\[10\]\.u_ro\.g_inv\[25\]\.u_inv
*7636 u_puf\.u_core\.g_ro_bank\[10\]\.u_ro\.g_inv\[26\]\.u_inv
*7637 u_puf\.u_core\.g_ro_bank\[10\]\.u_ro\.g_inv\[27\]\.u_inv
*7638 u_puf\.u_core\.g_ro_bank\[10\]\.u_ro\.g_inv\[28\]\.u_inv
*7639 u_puf\.u_core\.g_ro_bank\[10\]\.u_ro\.g_inv\[29\]\.u_inv
*7640 u_puf\.u_core\.g_ro_bank\[10\]\.u_ro\.g_inv\[2\]\.u_inv
*7641 u_puf\.u_core\.g_ro_bank\[10\]\.u_ro\.g_inv\[30\]\.u_inv
*7642 u_puf\.u_core\.g_ro_bank\[10\]\.u_ro\.g_inv\[3\]\.u_inv
*7643 u_puf\.u_core\.g_ro_bank\[10\]\.u_ro\.g_inv\[4\]\.u_inv
*7644 u_puf\.u_core\.g_ro_bank\[10\]\.u_ro\.g_inv\[5\]\.u_inv
*7645 u_puf\.u_core\.g_ro_bank\[10\]\.u_ro\.g_inv\[6\]\.u_inv
*7646 u_puf\.u_core\.g_ro_bank\[10\]\.u_ro\.g_inv\[7\]\.u_inv
*7647 u_puf\.u_core\.g_ro_bank\[10\]\.u_ro\.g_inv\[8\]\.u_inv
*7648 u_puf\.u_core\.g_ro_bank\[10\]\.u_ro\.g_inv\[9\]\.u_inv
*7649 u_puf\.u_core\.g_ro_bank\[10\]\.u_ro\.u_buf
*7650 u_puf\.u_core\.g_ro_bank\[10\]\.u_ro\.u_nand
*7651 u_puf\.u_core\.g_ro_bank\[11\]\.u_ro\.g_inv\[10\]\.u_inv
*7652 u_puf\.u_core\.g_ro_bank\[11\]\.u_ro\.g_inv\[11\]\.u_inv
*7653 u_puf\.u_core\.g_ro_bank\[11\]\.u_ro\.g_inv\[12\]\.u_inv
*7654 u_puf\.u_core\.g_ro_bank\[11\]\.u_ro\.g_inv\[13\]\.u_inv
*7655 u_puf\.u_core\.g_ro_bank\[11\]\.u_ro\.g_inv\[14\]\.u_inv
*7656 u_puf\.u_core\.g_ro_bank\[11\]\.u_ro\.g_inv\[15\]\.u_inv
*7657 u_puf\.u_core\.g_ro_bank\[11\]\.u_ro\.g_inv\[16\]\.u_inv
*7658 u_puf\.u_core\.g_ro_bank\[11\]\.u_ro\.g_inv\[17\]\.u_inv
*7659 u_puf\.u_core\.g_ro_bank\[11\]\.u_ro\.g_inv\[18\]\.u_inv
*7660 u_puf\.u_core\.g_ro_bank\[11\]\.u_ro\.g_inv\[19\]\.u_inv
*7661 u_puf\.u_core\.g_ro_bank\[11\]\.u_ro\.g_inv\[1\]\.u_inv
*7662 u_puf\.u_core\.g_ro_bank\[11\]\.u_ro\.g_inv\[20\]\.u_inv
*7663 u_puf\.u_core\.g_ro_bank\[11\]\.u_ro\.g_inv\[21\]\.u_inv
*7664 u_puf\.u_core\.g_ro_bank\[11\]\.u_ro\.g_inv\[22\]\.u_inv
*7665 u_puf\.u_core\.g_ro_bank\[11\]\.u_ro\.g_inv\[23\]\.u_inv
*7666 u_puf\.u_core\.g_ro_bank\[11\]\.u_ro\.g_inv\[24\]\.u_inv
*7667 u_puf\.u_core\.g_ro_bank\[11\]\.u_ro\.g_inv\[25\]\.u_inv
*7668 u_puf\.u_core\.g_ro_bank\[11\]\.u_ro\.g_inv\[26\]\.u_inv
*7669 u_puf\.u_core\.g_ro_bank\[11\]\.u_ro\.g_inv\[27\]\.u_inv
*7670 u_puf\.u_core\.g_ro_bank\[11\]\.u_ro\.g_inv\[28\]\.u_inv
*7671 u_puf\.u_core\.g_ro_bank\[11\]\.u_ro\.g_inv\[29\]\.u_inv
*7672 u_puf\.u_core\.g_ro_bank\[11\]\.u_ro\.g_inv\[2\]\.u_inv
*7673 u_puf\.u_core\.g_ro_bank\[11\]\.u_ro\.g_inv\[30\]\.u_inv
*7674 u_puf\.u_core\.g_ro_bank\[11\]\.u_ro\.g_inv\[3\]\.u_inv
*7675 u_puf\.u_core\.g_ro_bank\[11\]\.u_ro\.g_inv\[4\]\.u_inv
*7676 u_puf\.u_core\.g_ro_bank\[11\]\.u_ro\.g_inv\[5\]\.u_inv
*7677 u_puf\.u_core\.g_ro_bank\[11\]\.u_ro\.g_inv\[6\]\.u_inv
*7678 u_puf\.u_core\.g_ro_bank\[11\]\.u_ro\.g_inv\[7\]\.u_inv
*7679 u_puf\.u_core\.g_ro_bank\[11\]\.u_ro\.g_inv\[8\]\.u_inv
*7680 u_puf\.u_core\.g_ro_bank\[11\]\.u_ro\.g_inv\[9\]\.u_inv
*7681 u_puf\.u_core\.g_ro_bank\[11\]\.u_ro\.u_buf
*7682 u_puf\.u_core\.g_ro_bank\[11\]\.u_ro\.u_nand
*7683 u_puf\.u_core\.g_ro_bank\[12\]\.u_ro\.g_inv\[10\]\.u_inv
*7684 u_puf\.u_core\.g_ro_bank\[12\]\.u_ro\.g_inv\[11\]\.u_inv
*7685 u_puf\.u_core\.g_ro_bank\[12\]\.u_ro\.g_inv\[12\]\.u_inv
*7686 u_puf\.u_core\.g_ro_bank\[12\]\.u_ro\.g_inv\[13\]\.u_inv
*7687 u_puf\.u_core\.g_ro_bank\[12\]\.u_ro\.g_inv\[14\]\.u_inv
*7688 u_puf\.u_core\.g_ro_bank\[12\]\.u_ro\.g_inv\[15\]\.u_inv
*7689 u_puf\.u_core\.g_ro_bank\[12\]\.u_ro\.g_inv\[16\]\.u_inv
*7690 u_puf\.u_core\.g_ro_bank\[12\]\.u_ro\.g_inv\[17\]\.u_inv
*7691 u_puf\.u_core\.g_ro_bank\[12\]\.u_ro\.g_inv\[18\]\.u_inv
*7692 u_puf\.u_core\.g_ro_bank\[12\]\.u_ro\.g_inv\[19\]\.u_inv
*7693 u_puf\.u_core\.g_ro_bank\[12\]\.u_ro\.g_inv\[1\]\.u_inv
*7694 u_puf\.u_core\.g_ro_bank\[12\]\.u_ro\.g_inv\[20\]\.u_inv
*7695 u_puf\.u_core\.g_ro_bank\[12\]\.u_ro\.g_inv\[21\]\.u_inv
*7696 u_puf\.u_core\.g_ro_bank\[12\]\.u_ro\.g_inv\[22\]\.u_inv
*7697 u_puf\.u_core\.g_ro_bank\[12\]\.u_ro\.g_inv\[23\]\.u_inv
*7698 u_puf\.u_core\.g_ro_bank\[12\]\.u_ro\.g_inv\[24\]\.u_inv
*7699 u_puf\.u_core\.g_ro_bank\[12\]\.u_ro\.g_inv\[25\]\.u_inv
*7700 u_puf\.u_core\.g_ro_bank\[12\]\.u_ro\.g_inv\[26\]\.u_inv
*7701 u_puf\.u_core\.g_ro_bank\[12\]\.u_ro\.g_inv\[27\]\.u_inv
*7702 u_puf\.u_core\.g_ro_bank\[12\]\.u_ro\.g_inv\[28\]\.u_inv
*7703 u_puf\.u_core\.g_ro_bank\[12\]\.u_ro\.g_inv\[29\]\.u_inv
*7704 u_puf\.u_core\.g_ro_bank\[12\]\.u_ro\.g_inv\[2\]\.u_inv
*7705 u_puf\.u_core\.g_ro_bank\[12\]\.u_ro\.g_inv\[30\]\.u_inv
*7706 u_puf\.u_core\.g_ro_bank\[12\]\.u_ro\.g_inv\[3\]\.u_inv
*7707 u_puf\.u_core\.g_ro_bank\[12\]\.u_ro\.g_inv\[4\]\.u_inv
*7708 u_puf\.u_core\.g_ro_bank\[12\]\.u_ro\.g_inv\[5\]\.u_inv
*7709 u_puf\.u_core\.g_ro_bank\[12\]\.u_ro\.g_inv\[6\]\.u_inv
*7710 u_puf\.u_core\.g_ro_bank\[12\]\.u_ro\.g_inv\[7\]\.u_inv
*7711 u_puf\.u_core\.g_ro_bank\[12\]\.u_ro\.g_inv\[8\]\.u_inv
*7712 u_puf\.u_core\.g_ro_bank\[12\]\.u_ro\.g_inv\[9\]\.u_inv
*7713 u_puf\.u_core\.g_ro_bank\[12\]\.u_ro\.u_buf
*7714 u_puf\.u_core\.g_ro_bank\[12\]\.u_ro\.u_nand
*7715 u_puf\.u_core\.g_ro_bank\[13\]\.u_ro\.g_inv\[10\]\.u_inv
*7716 u_puf\.u_core\.g_ro_bank\[13\]\.u_ro\.g_inv\[11\]\.u_inv
*7717 u_puf\.u_core\.g_ro_bank\[13\]\.u_ro\.g_inv\[12\]\.u_inv
*7718 u_puf\.u_core\.g_ro_bank\[13\]\.u_ro\.g_inv\[13\]\.u_inv
*7719 u_puf\.u_core\.g_ro_bank\[13\]\.u_ro\.g_inv\[14\]\.u_inv
*7720 u_puf\.u_core\.g_ro_bank\[13\]\.u_ro\.g_inv\[15\]\.u_inv
*7721 u_puf\.u_core\.g_ro_bank\[13\]\.u_ro\.g_inv\[16\]\.u_inv
*7722 u_puf\.u_core\.g_ro_bank\[13\]\.u_ro\.g_inv\[17\]\.u_inv
*7723 u_puf\.u_core\.g_ro_bank\[13\]\.u_ro\.g_inv\[18\]\.u_inv
*7724 u_puf\.u_core\.g_ro_bank\[13\]\.u_ro\.g_inv\[19\]\.u_inv
*7725 u_puf\.u_core\.g_ro_bank\[13\]\.u_ro\.g_inv\[1\]\.u_inv
*7726 u_puf\.u_core\.g_ro_bank\[13\]\.u_ro\.g_inv\[20\]\.u_inv
*7727 u_puf\.u_core\.g_ro_bank\[13\]\.u_ro\.g_inv\[21\]\.u_inv
*7728 u_puf\.u_core\.g_ro_bank\[13\]\.u_ro\.g_inv\[22\]\.u_inv
*7729 u_puf\.u_core\.g_ro_bank\[13\]\.u_ro\.g_inv\[23\]\.u_inv
*7730 u_puf\.u_core\.g_ro_bank\[13\]\.u_ro\.g_inv\[24\]\.u_inv
*7731 u_puf\.u_core\.g_ro_bank\[13\]\.u_ro\.g_inv\[25\]\.u_inv
*7732 u_puf\.u_core\.g_ro_bank\[13\]\.u_ro\.g_inv\[26\]\.u_inv
*7733 u_puf\.u_core\.g_ro_bank\[13\]\.u_ro\.g_inv\[27\]\.u_inv
*7734 u_puf\.u_core\.g_ro_bank\[13\]\.u_ro\.g_inv\[28\]\.u_inv
*7735 u_puf\.u_core\.g_ro_bank\[13\]\.u_ro\.g_inv\[29\]\.u_inv
*7736 u_puf\.u_core\.g_ro_bank\[13\]\.u_ro\.g_inv\[2\]\.u_inv
*7737 u_puf\.u_core\.g_ro_bank\[13\]\.u_ro\.g_inv\[30\]\.u_inv
*7738 u_puf\.u_core\.g_ro_bank\[13\]\.u_ro\.g_inv\[3\]\.u_inv
*7739 u_puf\.u_core\.g_ro_bank\[13\]\.u_ro\.g_inv\[4\]\.u_inv
*7740 u_puf\.u_core\.g_ro_bank\[13\]\.u_ro\.g_inv\[5\]\.u_inv
*7741 u_puf\.u_core\.g_ro_bank\[13\]\.u_ro\.g_inv\[6\]\.u_inv
*7742 u_puf\.u_core\.g_ro_bank\[13\]\.u_ro\.g_inv\[7\]\.u_inv
*7743 u_puf\.u_core\.g_ro_bank\[13\]\.u_ro\.g_inv\[8\]\.u_inv
*7744 u_puf\.u_core\.g_ro_bank\[13\]\.u_ro\.g_inv\[9\]\.u_inv
*7745 u_puf\.u_core\.g_ro_bank\[13\]\.u_ro\.u_buf
*7746 u_puf\.u_core\.g_ro_bank\[13\]\.u_ro\.u_nand
*7747 u_puf\.u_core\.g_ro_bank\[14\]\.u_ro\.g_inv\[10\]\.u_inv
*7748 u_puf\.u_core\.g_ro_bank\[14\]\.u_ro\.g_inv\[11\]\.u_inv
*7749 u_puf\.u_core\.g_ro_bank\[14\]\.u_ro\.g_inv\[12\]\.u_inv
*7750 u_puf\.u_core\.g_ro_bank\[14\]\.u_ro\.g_inv\[13\]\.u_inv
*7751 u_puf\.u_core\.g_ro_bank\[14\]\.u_ro\.g_inv\[14\]\.u_inv
*7752 u_puf\.u_core\.g_ro_bank\[14\]\.u_ro\.g_inv\[15\]\.u_inv
*7753 u_puf\.u_core\.g_ro_bank\[14\]\.u_ro\.g_inv\[16\]\.u_inv
*7754 u_puf\.u_core\.g_ro_bank\[14\]\.u_ro\.g_inv\[17\]\.u_inv
*7755 u_puf\.u_core\.g_ro_bank\[14\]\.u_ro\.g_inv\[18\]\.u_inv
*7756 u_puf\.u_core\.g_ro_bank\[14\]\.u_ro\.g_inv\[19\]\.u_inv
*7757 u_puf\.u_core\.g_ro_bank\[14\]\.u_ro\.g_inv\[1\]\.u_inv
*7758 u_puf\.u_core\.g_ro_bank\[14\]\.u_ro\.g_inv\[20\]\.u_inv
*7759 u_puf\.u_core\.g_ro_bank\[14\]\.u_ro\.g_inv\[21\]\.u_inv
*7760 u_puf\.u_core\.g_ro_bank\[14\]\.u_ro\.g_inv\[22\]\.u_inv
*7761 u_puf\.u_core\.g_ro_bank\[14\]\.u_ro\.g_inv\[23\]\.u_inv
*7762 u_puf\.u_core\.g_ro_bank\[14\]\.u_ro\.g_inv\[24\]\.u_inv
*7763 u_puf\.u_core\.g_ro_bank\[14\]\.u_ro\.g_inv\[25\]\.u_inv
*7764 u_puf\.u_core\.g_ro_bank\[14\]\.u_ro\.g_inv\[26\]\.u_inv
*7765 u_puf\.u_core\.g_ro_bank\[14\]\.u_ro\.g_inv\[27\]\.u_inv
*7766 u_puf\.u_core\.g_ro_bank\[14\]\.u_ro\.g_inv\[28\]\.u_inv
*7767 u_puf\.u_core\.g_ro_bank\[14\]\.u_ro\.g_inv\[29\]\.u_inv
*7768 u_puf\.u_core\.g_ro_bank\[14\]\.u_ro\.g_inv\[2\]\.u_inv
*7769 u_puf\.u_core\.g_ro_bank\[14\]\.u_ro\.g_inv\[30\]\.u_inv
*7770 u_puf\.u_core\.g_ro_bank\[14\]\.u_ro\.g_inv\[3\]\.u_inv
*7771 u_puf\.u_core\.g_ro_bank\[14\]\.u_ro\.g_inv\[4\]\.u_inv
*7772 u_puf\.u_core\.g_ro_bank\[14\]\.u_ro\.g_inv\[5\]\.u_inv
*7773 u_puf\.u_core\.g_ro_bank\[14\]\.u_ro\.g_inv\[6\]\.u_inv
*7774 u_puf\.u_core\.g_ro_bank\[14\]\.u_ro\.g_inv\[7\]\.u_inv
*7775 u_puf\.u_core\.g_ro_bank\[14\]\.u_ro\.g_inv\[8\]\.u_inv
*7776 u_puf\.u_core\.g_ro_bank\[14\]\.u_ro\.g_inv\[9\]\.u_inv
*7777 u_puf\.u_core\.g_ro_bank\[14\]\.u_ro\.u_buf
*7778 u_puf\.u_core\.g_ro_bank\[14\]\.u_ro\.u_nand
*7779 u_puf\.u_core\.g_ro_bank\[15\]\.u_ro\.g_inv\[10\]\.u_inv
*7780 u_puf\.u_core\.g_ro_bank\[15\]\.u_ro\.g_inv\[11\]\.u_inv
*7781 u_puf\.u_core\.g_ro_bank\[15\]\.u_ro\.g_inv\[12\]\.u_inv
*7782 u_puf\.u_core\.g_ro_bank\[15\]\.u_ro\.g_inv\[13\]\.u_inv
*7783 u_puf\.u_core\.g_ro_bank\[15\]\.u_ro\.g_inv\[14\]\.u_inv
*7784 u_puf\.u_core\.g_ro_bank\[15\]\.u_ro\.g_inv\[15\]\.u_inv
*7785 u_puf\.u_core\.g_ro_bank\[15\]\.u_ro\.g_inv\[16\]\.u_inv
*7786 u_puf\.u_core\.g_ro_bank\[15\]\.u_ro\.g_inv\[17\]\.u_inv
*7787 u_puf\.u_core\.g_ro_bank\[15\]\.u_ro\.g_inv\[18\]\.u_inv
*7788 u_puf\.u_core\.g_ro_bank\[15\]\.u_ro\.g_inv\[19\]\.u_inv
*7789 u_puf\.u_core\.g_ro_bank\[15\]\.u_ro\.g_inv\[1\]\.u_inv
*7790 u_puf\.u_core\.g_ro_bank\[15\]\.u_ro\.g_inv\[20\]\.u_inv
*7791 u_puf\.u_core\.g_ro_bank\[15\]\.u_ro\.g_inv\[21\]\.u_inv
*7792 u_puf\.u_core\.g_ro_bank\[15\]\.u_ro\.g_inv\[22\]\.u_inv
*7793 u_puf\.u_core\.g_ro_bank\[15\]\.u_ro\.g_inv\[23\]\.u_inv
*7794 u_puf\.u_core\.g_ro_bank\[15\]\.u_ro\.g_inv\[24\]\.u_inv
*7795 u_puf\.u_core\.g_ro_bank\[15\]\.u_ro\.g_inv\[25\]\.u_inv
*7796 u_puf\.u_core\.g_ro_bank\[15\]\.u_ro\.g_inv\[26\]\.u_inv
*7797 u_puf\.u_core\.g_ro_bank\[15\]\.u_ro\.g_inv\[27\]\.u_inv
*7798 u_puf\.u_core\.g_ro_bank\[15\]\.u_ro\.g_inv\[28\]\.u_inv
*7799 u_puf\.u_core\.g_ro_bank\[15\]\.u_ro\.g_inv\[29\]\.u_inv
*7800 u_puf\.u_core\.g_ro_bank\[15\]\.u_ro\.g_inv\[2\]\.u_inv
*7801 u_puf\.u_core\.g_ro_bank\[15\]\.u_ro\.g_inv\[30\]\.u_inv
*7802 u_puf\.u_core\.g_ro_bank\[15\]\.u_ro\.g_inv\[3\]\.u_inv
*7803 u_puf\.u_core\.g_ro_bank\[15\]\.u_ro\.g_inv\[4\]\.u_inv
*7804 u_puf\.u_core\.g_ro_bank\[15\]\.u_ro\.g_inv\[5\]\.u_inv
*7805 u_puf\.u_core\.g_ro_bank\[15\]\.u_ro\.g_inv\[6\]\.u_inv
*7806 u_puf\.u_core\.g_ro_bank\[15\]\.u_ro\.g_inv\[7\]\.u_inv
*7807 u_puf\.u_core\.g_ro_bank\[15\]\.u_ro\.g_inv\[8\]\.u_inv
*7808 u_puf\.u_core\.g_ro_bank\[15\]\.u_ro\.g_inv\[9\]\.u_inv
*7809 u_puf\.u_core\.g_ro_bank\[15\]\.u_ro\.u_buf
*7810 u_puf\.u_core\.g_ro_bank\[15\]\.u_ro\.u_nand
*7811 u_puf\.u_core\.g_ro_bank\[1\]\.u_ro\.g_inv\[10\]\.u_inv
*7812 u_puf\.u_core\.g_ro_bank\[1\]\.u_ro\.g_inv\[11\]\.u_inv
*7813 u_puf\.u_core\.g_ro_bank\[1\]\.u_ro\.g_inv\[12\]\.u_inv
*7814 u_puf\.u_core\.g_ro_bank\[1\]\.u_ro\.g_inv\[13\]\.u_inv
*7815 u_puf\.u_core\.g_ro_bank\[1\]\.u_ro\.g_inv\[14\]\.u_inv
*7816 u_puf\.u_core\.g_ro_bank\[1\]\.u_ro\.g_inv\[15\]\.u_inv
*7817 u_puf\.u_core\.g_ro_bank\[1\]\.u_ro\.g_inv\[16\]\.u_inv
*7818 u_puf\.u_core\.g_ro_bank\[1\]\.u_ro\.g_inv\[17\]\.u_inv
*7819 u_puf\.u_core\.g_ro_bank\[1\]\.u_ro\.g_inv\[18\]\.u_inv
*7820 u_puf\.u_core\.g_ro_bank\[1\]\.u_ro\.g_inv\[19\]\.u_inv
*7821 u_puf\.u_core\.g_ro_bank\[1\]\.u_ro\.g_inv\[1\]\.u_inv
*7822 u_puf\.u_core\.g_ro_bank\[1\]\.u_ro\.g_inv\[20\]\.u_inv
*7823 u_puf\.u_core\.g_ro_bank\[1\]\.u_ro\.g_inv\[21\]\.u_inv
*7824 u_puf\.u_core\.g_ro_bank\[1\]\.u_ro\.g_inv\[22\]\.u_inv
*7825 u_puf\.u_core\.g_ro_bank\[1\]\.u_ro\.g_inv\[23\]\.u_inv
*7826 u_puf\.u_core\.g_ro_bank\[1\]\.u_ro\.g_inv\[24\]\.u_inv
*7827 u_puf\.u_core\.g_ro_bank\[1\]\.u_ro\.g_inv\[25\]\.u_inv
*7828 u_puf\.u_core\.g_ro_bank\[1\]\.u_ro\.g_inv\[26\]\.u_inv
*7829 u_puf\.u_core\.g_ro_bank\[1\]\.u_ro\.g_inv\[27\]\.u_inv
*7830 u_puf\.u_core\.g_ro_bank\[1\]\.u_ro\.g_inv\[28\]\.u_inv
*7831 u_puf\.u_core\.g_ro_bank\[1\]\.u_ro\.g_inv\[29\]\.u_inv
*7832 u_puf\.u_core\.g_ro_bank\[1\]\.u_ro\.g_inv\[2\]\.u_inv
*7833 u_puf\.u_core\.g_ro_bank\[1\]\.u_ro\.g_inv\[30\]\.u_inv
*7834 u_puf\.u_core\.g_ro_bank\[1\]\.u_ro\.g_inv\[3\]\.u_inv
*7835 u_puf\.u_core\.g_ro_bank\[1\]\.u_ro\.g_inv\[4\]\.u_inv
*7836 u_puf\.u_core\.g_ro_bank\[1\]\.u_ro\.g_inv\[5\]\.u_inv
*7837 u_puf\.u_core\.g_ro_bank\[1\]\.u_ro\.g_inv\[6\]\.u_inv
*7838 u_puf\.u_core\.g_ro_bank\[1\]\.u_ro\.g_inv\[7\]\.u_inv
*7839 u_puf\.u_core\.g_ro_bank\[1\]\.u_ro\.g_inv\[8\]\.u_inv
*7840 u_puf\.u_core\.g_ro_bank\[1\]\.u_ro\.g_inv\[9\]\.u_inv
*7841 u_puf\.u_core\.g_ro_bank\[1\]\.u_ro\.u_buf
*7842 u_puf\.u_core\.g_ro_bank\[1\]\.u_ro\.u_nand
*7843 u_puf\.u_core\.g_ro_bank\[2\]\.u_ro\.g_inv\[10\]\.u_inv
*7844 u_puf\.u_core\.g_ro_bank\[2\]\.u_ro\.g_inv\[11\]\.u_inv
*7845 u_puf\.u_core\.g_ro_bank\[2\]\.u_ro\.g_inv\[12\]\.u_inv
*7846 u_puf\.u_core\.g_ro_bank\[2\]\.u_ro\.g_inv\[13\]\.u_inv
*7847 u_puf\.u_core\.g_ro_bank\[2\]\.u_ro\.g_inv\[14\]\.u_inv
*7848 u_puf\.u_core\.g_ro_bank\[2\]\.u_ro\.g_inv\[15\]\.u_inv
*7849 u_puf\.u_core\.g_ro_bank\[2\]\.u_ro\.g_inv\[16\]\.u_inv
*7850 u_puf\.u_core\.g_ro_bank\[2\]\.u_ro\.g_inv\[17\]\.u_inv
*7851 u_puf\.u_core\.g_ro_bank\[2\]\.u_ro\.g_inv\[18\]\.u_inv
*7852 u_puf\.u_core\.g_ro_bank\[2\]\.u_ro\.g_inv\[19\]\.u_inv
*7853 u_puf\.u_core\.g_ro_bank\[2\]\.u_ro\.g_inv\[1\]\.u_inv
*7854 u_puf\.u_core\.g_ro_bank\[2\]\.u_ro\.g_inv\[20\]\.u_inv
*7855 u_puf\.u_core\.g_ro_bank\[2\]\.u_ro\.g_inv\[21\]\.u_inv
*7856 u_puf\.u_core\.g_ro_bank\[2\]\.u_ro\.g_inv\[22\]\.u_inv
*7857 u_puf\.u_core\.g_ro_bank\[2\]\.u_ro\.g_inv\[23\]\.u_inv
*7858 u_puf\.u_core\.g_ro_bank\[2\]\.u_ro\.g_inv\[24\]\.u_inv
*7859 u_puf\.u_core\.g_ro_bank\[2\]\.u_ro\.g_inv\[25\]\.u_inv
*7860 u_puf\.u_core\.g_ro_bank\[2\]\.u_ro\.g_inv\[26\]\.u_inv
*7861 u_puf\.u_core\.g_ro_bank\[2\]\.u_ro\.g_inv\[27\]\.u_inv
*7862 u_puf\.u_core\.g_ro_bank\[2\]\.u_ro\.g_inv\[28\]\.u_inv
*7863 u_puf\.u_core\.g_ro_bank\[2\]\.u_ro\.g_inv\[29\]\.u_inv
*7864 u_puf\.u_core\.g_ro_bank\[2\]\.u_ro\.g_inv\[2\]\.u_inv
*7865 u_puf\.u_core\.g_ro_bank\[2\]\.u_ro\.g_inv\[30\]\.u_inv
*7866 u_puf\.u_core\.g_ro_bank\[2\]\.u_ro\.g_inv\[3\]\.u_inv
*7867 u_puf\.u_core\.g_ro_bank\[2\]\.u_ro\.g_inv\[4\]\.u_inv
*7868 u_puf\.u_core\.g_ro_bank\[2\]\.u_ro\.g_inv\[5\]\.u_inv
*7869 u_puf\.u_core\.g_ro_bank\[2\]\.u_ro\.g_inv\[6\]\.u_inv
*7870 u_puf\.u_core\.g_ro_bank\[2\]\.u_ro\.g_inv\[7\]\.u_inv
*7871 u_puf\.u_core\.g_ro_bank\[2\]\.u_ro\.g_inv\[8\]\.u_inv
*7872 u_puf\.u_core\.g_ro_bank\[2\]\.u_ro\.g_inv\[9\]\.u_inv
*7873 u_puf\.u_core\.g_ro_bank\[2\]\.u_ro\.u_buf
*7874 u_puf\.u_core\.g_ro_bank\[2\]\.u_ro\.u_nand
*7875 u_puf\.u_core\.g_ro_bank\[3\]\.u_ro\.g_inv\[10\]\.u_inv
*7876 u_puf\.u_core\.g_ro_bank\[3\]\.u_ro\.g_inv\[11\]\.u_inv
*7877 u_puf\.u_core\.g_ro_bank\[3\]\.u_ro\.g_inv\[12\]\.u_inv
*7878 u_puf\.u_core\.g_ro_bank\[3\]\.u_ro\.g_inv\[13\]\.u_inv
*7879 u_puf\.u_core\.g_ro_bank\[3\]\.u_ro\.g_inv\[14\]\.u_inv
*7880 u_puf\.u_core\.g_ro_bank\[3\]\.u_ro\.g_inv\[15\]\.u_inv
*7881 u_puf\.u_core\.g_ro_bank\[3\]\.u_ro\.g_inv\[16\]\.u_inv
*7882 u_puf\.u_core\.g_ro_bank\[3\]\.u_ro\.g_inv\[17\]\.u_inv
*7883 u_puf\.u_core\.g_ro_bank\[3\]\.u_ro\.g_inv\[18\]\.u_inv
*7884 u_puf\.u_core\.g_ro_bank\[3\]\.u_ro\.g_inv\[19\]\.u_inv
*7885 u_puf\.u_core\.g_ro_bank\[3\]\.u_ro\.g_inv\[1\]\.u_inv
*7886 u_puf\.u_core\.g_ro_bank\[3\]\.u_ro\.g_inv\[20\]\.u_inv
*7887 u_puf\.u_core\.g_ro_bank\[3\]\.u_ro\.g_inv\[21\]\.u_inv
*7888 u_puf\.u_core\.g_ro_bank\[3\]\.u_ro\.g_inv\[22\]\.u_inv
*7889 u_puf\.u_core\.g_ro_bank\[3\]\.u_ro\.g_inv\[23\]\.u_inv
*7890 u_puf\.u_core\.g_ro_bank\[3\]\.u_ro\.g_inv\[24\]\.u_inv
*7891 u_puf\.u_core\.g_ro_bank\[3\]\.u_ro\.g_inv\[25\]\.u_inv
*7892 u_puf\.u_core\.g_ro_bank\[3\]\.u_ro\.g_inv\[26\]\.u_inv
*7893 u_puf\.u_core\.g_ro_bank\[3\]\.u_ro\.g_inv\[27\]\.u_inv
*7894 u_puf\.u_core\.g_ro_bank\[3\]\.u_ro\.g_inv\[28\]\.u_inv
*7895 u_puf\.u_core\.g_ro_bank\[3\]\.u_ro\.g_inv\[29\]\.u_inv
*7896 u_puf\.u_core\.g_ro_bank\[3\]\.u_ro\.g_inv\[2\]\.u_inv
*7897 u_puf\.u_core\.g_ro_bank\[3\]\.u_ro\.g_inv\[30\]\.u_inv
*7898 u_puf\.u_core\.g_ro_bank\[3\]\.u_ro\.g_inv\[3\]\.u_inv
*7899 u_puf\.u_core\.g_ro_bank\[3\]\.u_ro\.g_inv\[4\]\.u_inv
*7900 u_puf\.u_core\.g_ro_bank\[3\]\.u_ro\.g_inv\[5\]\.u_inv
*7901 u_puf\.u_core\.g_ro_bank\[3\]\.u_ro\.g_inv\[6\]\.u_inv
*7902 u_puf\.u_core\.g_ro_bank\[3\]\.u_ro\.g_inv\[7\]\.u_inv
*7903 u_puf\.u_core\.g_ro_bank\[3\]\.u_ro\.g_inv\[8\]\.u_inv
*7904 u_puf\.u_core\.g_ro_bank\[3\]\.u_ro\.g_inv\[9\]\.u_inv
*7905 u_puf\.u_core\.g_ro_bank\[3\]\.u_ro\.u_buf
*7906 u_puf\.u_core\.g_ro_bank\[3\]\.u_ro\.u_nand
*7907 u_puf\.u_core\.g_ro_bank\[4\]\.u_ro\.g_inv\[10\]\.u_inv
*7908 u_puf\.u_core\.g_ro_bank\[4\]\.u_ro\.g_inv\[11\]\.u_inv
*7909 u_puf\.u_core\.g_ro_bank\[4\]\.u_ro\.g_inv\[12\]\.u_inv
*7910 u_puf\.u_core\.g_ro_bank\[4\]\.u_ro\.g_inv\[13\]\.u_inv
*7911 u_puf\.u_core\.g_ro_bank\[4\]\.u_ro\.g_inv\[14\]\.u_inv
*7912 u_puf\.u_core\.g_ro_bank\[4\]\.u_ro\.g_inv\[15\]\.u_inv
*7913 u_puf\.u_core\.g_ro_bank\[4\]\.u_ro\.g_inv\[16\]\.u_inv
*7914 u_puf\.u_core\.g_ro_bank\[4\]\.u_ro\.g_inv\[17\]\.u_inv
*7915 u_puf\.u_core\.g_ro_bank\[4\]\.u_ro\.g_inv\[18\]\.u_inv
*7916 u_puf\.u_core\.g_ro_bank\[4\]\.u_ro\.g_inv\[19\]\.u_inv
*7917 u_puf\.u_core\.g_ro_bank\[4\]\.u_ro\.g_inv\[1\]\.u_inv
*7918 u_puf\.u_core\.g_ro_bank\[4\]\.u_ro\.g_inv\[20\]\.u_inv
*7919 u_puf\.u_core\.g_ro_bank\[4\]\.u_ro\.g_inv\[21\]\.u_inv
*7920 u_puf\.u_core\.g_ro_bank\[4\]\.u_ro\.g_inv\[22\]\.u_inv
*7921 u_puf\.u_core\.g_ro_bank\[4\]\.u_ro\.g_inv\[23\]\.u_inv
*7922 u_puf\.u_core\.g_ro_bank\[4\]\.u_ro\.g_inv\[24\]\.u_inv
*7923 u_puf\.u_core\.g_ro_bank\[4\]\.u_ro\.g_inv\[25\]\.u_inv
*7924 u_puf\.u_core\.g_ro_bank\[4\]\.u_ro\.g_inv\[26\]\.u_inv
*7925 u_puf\.u_core\.g_ro_bank\[4\]\.u_ro\.g_inv\[27\]\.u_inv
*7926 u_puf\.u_core\.g_ro_bank\[4\]\.u_ro\.g_inv\[28\]\.u_inv
*7927 u_puf\.u_core\.g_ro_bank\[4\]\.u_ro\.g_inv\[29\]\.u_inv
*7928 u_puf\.u_core\.g_ro_bank\[4\]\.u_ro\.g_inv\[2\]\.u_inv
*7929 u_puf\.u_core\.g_ro_bank\[4\]\.u_ro\.g_inv\[30\]\.u_inv
*7930 u_puf\.u_core\.g_ro_bank\[4\]\.u_ro\.g_inv\[3\]\.u_inv
*7931 u_puf\.u_core\.g_ro_bank\[4\]\.u_ro\.g_inv\[4\]\.u_inv
*7932 u_puf\.u_core\.g_ro_bank\[4\]\.u_ro\.g_inv\[5\]\.u_inv
*7933 u_puf\.u_core\.g_ro_bank\[4\]\.u_ro\.g_inv\[6\]\.u_inv
*7934 u_puf\.u_core\.g_ro_bank\[4\]\.u_ro\.g_inv\[7\]\.u_inv
*7935 u_puf\.u_core\.g_ro_bank\[4\]\.u_ro\.g_inv\[8\]\.u_inv
*7936 u_puf\.u_core\.g_ro_bank\[4\]\.u_ro\.g_inv\[9\]\.u_inv
*7937 u_puf\.u_core\.g_ro_bank\[4\]\.u_ro\.u_buf
*7938 u_puf\.u_core\.g_ro_bank\[4\]\.u_ro\.u_nand
*7939 u_puf\.u_core\.g_ro_bank\[5\]\.u_ro\.g_inv\[10\]\.u_inv
*7940 u_puf\.u_core\.g_ro_bank\[5\]\.u_ro\.g_inv\[11\]\.u_inv
*7941 u_puf\.u_core\.g_ro_bank\[5\]\.u_ro\.g_inv\[12\]\.u_inv
*7942 u_puf\.u_core\.g_ro_bank\[5\]\.u_ro\.g_inv\[13\]\.u_inv
*7943 u_puf\.u_core\.g_ro_bank\[5\]\.u_ro\.g_inv\[14\]\.u_inv
*7944 u_puf\.u_core\.g_ro_bank\[5\]\.u_ro\.g_inv\[15\]\.u_inv
*7945 u_puf\.u_core\.g_ro_bank\[5\]\.u_ro\.g_inv\[16\]\.u_inv
*7946 u_puf\.u_core\.g_ro_bank\[5\]\.u_ro\.g_inv\[17\]\.u_inv
*7947 u_puf\.u_core\.g_ro_bank\[5\]\.u_ro\.g_inv\[18\]\.u_inv
*7948 u_puf\.u_core\.g_ro_bank\[5\]\.u_ro\.g_inv\[19\]\.u_inv
*7949 u_puf\.u_core\.g_ro_bank\[5\]\.u_ro\.g_inv\[1\]\.u_inv
*7950 u_puf\.u_core\.g_ro_bank\[5\]\.u_ro\.g_inv\[20\]\.u_inv
*7951 u_puf\.u_core\.g_ro_bank\[5\]\.u_ro\.g_inv\[21\]\.u_inv
*7952 u_puf\.u_core\.g_ro_bank\[5\]\.u_ro\.g_inv\[22\]\.u_inv
*7953 u_puf\.u_core\.g_ro_bank\[5\]\.u_ro\.g_inv\[23\]\.u_inv
*7954 u_puf\.u_core\.g_ro_bank\[5\]\.u_ro\.g_inv\[24\]\.u_inv
*7955 u_puf\.u_core\.g_ro_bank\[5\]\.u_ro\.g_inv\[25\]\.u_inv
*7956 u_puf\.u_core\.g_ro_bank\[5\]\.u_ro\.g_inv\[26\]\.u_inv
*7957 u_puf\.u_core\.g_ro_bank\[5\]\.u_ro\.g_inv\[27\]\.u_inv
*7958 u_puf\.u_core\.g_ro_bank\[5\]\.u_ro\.g_inv\[28\]\.u_inv
*7959 u_puf\.u_core\.g_ro_bank\[5\]\.u_ro\.g_inv\[29\]\.u_inv
*7960 u_puf\.u_core\.g_ro_bank\[5\]\.u_ro\.g_inv\[2\]\.u_inv
*7961 u_puf\.u_core\.g_ro_bank\[5\]\.u_ro\.g_inv\[30\]\.u_inv
*7962 u_puf\.u_core\.g_ro_bank\[5\]\.u_ro\.g_inv\[3\]\.u_inv
*7963 u_puf\.u_core\.g_ro_bank\[5\]\.u_ro\.g_inv\[4\]\.u_inv
*7964 u_puf\.u_core\.g_ro_bank\[5\]\.u_ro\.g_inv\[5\]\.u_inv
*7965 u_puf\.u_core\.g_ro_bank\[5\]\.u_ro\.g_inv\[6\]\.u_inv
*7966 u_puf\.u_core\.g_ro_bank\[5\]\.u_ro\.g_inv\[7\]\.u_inv
*7967 u_puf\.u_core\.g_ro_bank\[5\]\.u_ro\.g_inv\[8\]\.u_inv
*7968 u_puf\.u_core\.g_ro_bank\[5\]\.u_ro\.g_inv\[9\]\.u_inv
*7969 u_puf\.u_core\.g_ro_bank\[5\]\.u_ro\.u_buf
*7970 u_puf\.u_core\.g_ro_bank\[5\]\.u_ro\.u_nand
*7971 u_puf\.u_core\.g_ro_bank\[6\]\.u_ro\.g_inv\[10\]\.u_inv
*7972 u_puf\.u_core\.g_ro_bank\[6\]\.u_ro\.g_inv\[11\]\.u_inv
*7973 u_puf\.u_core\.g_ro_bank\[6\]\.u_ro\.g_inv\[12\]\.u_inv
*7974 u_puf\.u_core\.g_ro_bank\[6\]\.u_ro\.g_inv\[13\]\.u_inv
*7975 u_puf\.u_core\.g_ro_bank\[6\]\.u_ro\.g_inv\[14\]\.u_inv
*7976 u_puf\.u_core\.g_ro_bank\[6\]\.u_ro\.g_inv\[15\]\.u_inv
*7977 u_puf\.u_core\.g_ro_bank\[6\]\.u_ro\.g_inv\[16\]\.u_inv
*7978 u_puf\.u_core\.g_ro_bank\[6\]\.u_ro\.g_inv\[17\]\.u_inv
*7979 u_puf\.u_core\.g_ro_bank\[6\]\.u_ro\.g_inv\[18\]\.u_inv
*7980 u_puf\.u_core\.g_ro_bank\[6\]\.u_ro\.g_inv\[19\]\.u_inv
*7981 u_puf\.u_core\.g_ro_bank\[6\]\.u_ro\.g_inv\[1\]\.u_inv
*7982 u_puf\.u_core\.g_ro_bank\[6\]\.u_ro\.g_inv\[20\]\.u_inv
*7983 u_puf\.u_core\.g_ro_bank\[6\]\.u_ro\.g_inv\[21\]\.u_inv
*7984 u_puf\.u_core\.g_ro_bank\[6\]\.u_ro\.g_inv\[22\]\.u_inv
*7985 u_puf\.u_core\.g_ro_bank\[6\]\.u_ro\.g_inv\[23\]\.u_inv
*7986 u_puf\.u_core\.g_ro_bank\[6\]\.u_ro\.g_inv\[24\]\.u_inv
*7987 u_puf\.u_core\.g_ro_bank\[6\]\.u_ro\.g_inv\[25\]\.u_inv
*7988 u_puf\.u_core\.g_ro_bank\[6\]\.u_ro\.g_inv\[26\]\.u_inv
*7989 u_puf\.u_core\.g_ro_bank\[6\]\.u_ro\.g_inv\[27\]\.u_inv
*7990 u_puf\.u_core\.g_ro_bank\[6\]\.u_ro\.g_inv\[28\]\.u_inv
*7991 u_puf\.u_core\.g_ro_bank\[6\]\.u_ro\.g_inv\[29\]\.u_inv
*7992 u_puf\.u_core\.g_ro_bank\[6\]\.u_ro\.g_inv\[2\]\.u_inv
*7993 u_puf\.u_core\.g_ro_bank\[6\]\.u_ro\.g_inv\[30\]\.u_inv
*7994 u_puf\.u_core\.g_ro_bank\[6\]\.u_ro\.g_inv\[3\]\.u_inv
*7995 u_puf\.u_core\.g_ro_bank\[6\]\.u_ro\.g_inv\[4\]\.u_inv
*7996 u_puf\.u_core\.g_ro_bank\[6\]\.u_ro\.g_inv\[5\]\.u_inv
*7997 u_puf\.u_core\.g_ro_bank\[6\]\.u_ro\.g_inv\[6\]\.u_inv
*7998 u_puf\.u_core\.g_ro_bank\[6\]\.u_ro\.g_inv\[7\]\.u_inv
*7999 u_puf\.u_core\.g_ro_bank\[6\]\.u_ro\.g_inv\[8\]\.u_inv
*8000 u_puf\.u_core\.g_ro_bank\[6\]\.u_ro\.g_inv\[9\]\.u_inv
*8001 u_puf\.u_core\.g_ro_bank\[6\]\.u_ro\.u_buf
*8002 u_puf\.u_core\.g_ro_bank\[6\]\.u_ro\.u_nand
*8003 u_puf\.u_core\.g_ro_bank\[7\]\.u_ro\.g_inv\[10\]\.u_inv
*8004 u_puf\.u_core\.g_ro_bank\[7\]\.u_ro\.g_inv\[11\]\.u_inv
*8005 u_puf\.u_core\.g_ro_bank\[7\]\.u_ro\.g_inv\[12\]\.u_inv
*8006 u_puf\.u_core\.g_ro_bank\[7\]\.u_ro\.g_inv\[13\]\.u_inv
*8007 u_puf\.u_core\.g_ro_bank\[7\]\.u_ro\.g_inv\[14\]\.u_inv
*8008 u_puf\.u_core\.g_ro_bank\[7\]\.u_ro\.g_inv\[15\]\.u_inv
*8009 u_puf\.u_core\.g_ro_bank\[7\]\.u_ro\.g_inv\[16\]\.u_inv
*8010 u_puf\.u_core\.g_ro_bank\[7\]\.u_ro\.g_inv\[17\]\.u_inv
*8011 u_puf\.u_core\.g_ro_bank\[7\]\.u_ro\.g_inv\[18\]\.u_inv
*8012 u_puf\.u_core\.g_ro_bank\[7\]\.u_ro\.g_inv\[19\]\.u_inv
*8013 u_puf\.u_core\.g_ro_bank\[7\]\.u_ro\.g_inv\[1\]\.u_inv
*8014 u_puf\.u_core\.g_ro_bank\[7\]\.u_ro\.g_inv\[20\]\.u_inv
*8015 u_puf\.u_core\.g_ro_bank\[7\]\.u_ro\.g_inv\[21\]\.u_inv
*8016 u_puf\.u_core\.g_ro_bank\[7\]\.u_ro\.g_inv\[22\]\.u_inv
*8017 u_puf\.u_core\.g_ro_bank\[7\]\.u_ro\.g_inv\[23\]\.u_inv
*8018 u_puf\.u_core\.g_ro_bank\[7\]\.u_ro\.g_inv\[24\]\.u_inv
*8019 u_puf\.u_core\.g_ro_bank\[7\]\.u_ro\.g_inv\[25\]\.u_inv
*8020 u_puf\.u_core\.g_ro_bank\[7\]\.u_ro\.g_inv\[26\]\.u_inv
*8021 u_puf\.u_core\.g_ro_bank\[7\]\.u_ro\.g_inv\[27\]\.u_inv
*8022 u_puf\.u_core\.g_ro_bank\[7\]\.u_ro\.g_inv\[28\]\.u_inv
*8023 u_puf\.u_core\.g_ro_bank\[7\]\.u_ro\.g_inv\[29\]\.u_inv
*8024 u_puf\.u_core\.g_ro_bank\[7\]\.u_ro\.g_inv\[2\]\.u_inv
*8025 u_puf\.u_core\.g_ro_bank\[7\]\.u_ro\.g_inv\[30\]\.u_inv
*8026 u_puf\.u_core\.g_ro_bank\[7\]\.u_ro\.g_inv\[3\]\.u_inv
*8027 u_puf\.u_core\.g_ro_bank\[7\]\.u_ro\.g_inv\[4\]\.u_inv
*8028 u_puf\.u_core\.g_ro_bank\[7\]\.u_ro\.g_inv\[5\]\.u_inv
*8029 u_puf\.u_core\.g_ro_bank\[7\]\.u_ro\.g_inv\[6\]\.u_inv
*8030 u_puf\.u_core\.g_ro_bank\[7\]\.u_ro\.g_inv\[7\]\.u_inv
*8031 u_puf\.u_core\.g_ro_bank\[7\]\.u_ro\.g_inv\[8\]\.u_inv
*8032 u_puf\.u_core\.g_ro_bank\[7\]\.u_ro\.g_inv\[9\]\.u_inv
*8033 u_puf\.u_core\.g_ro_bank\[7\]\.u_ro\.u_buf
*8034 u_puf\.u_core\.g_ro_bank\[7\]\.u_ro\.u_nand
*8035 u_puf\.u_core\.g_ro_bank\[8\]\.u_ro\.g_inv\[10\]\.u_inv
*8036 u_puf\.u_core\.g_ro_bank\[8\]\.u_ro\.g_inv\[11\]\.u_inv
*8037 u_puf\.u_core\.g_ro_bank\[8\]\.u_ro\.g_inv\[12\]\.u_inv
*8038 u_puf\.u_core\.g_ro_bank\[8\]\.u_ro\.g_inv\[13\]\.u_inv
*8039 u_puf\.u_core\.g_ro_bank\[8\]\.u_ro\.g_inv\[14\]\.u_inv
*8040 u_puf\.u_core\.g_ro_bank\[8\]\.u_ro\.g_inv\[15\]\.u_inv
*8041 u_puf\.u_core\.g_ro_bank\[8\]\.u_ro\.g_inv\[16\]\.u_inv
*8042 u_puf\.u_core\.g_ro_bank\[8\]\.u_ro\.g_inv\[17\]\.u_inv
*8043 u_puf\.u_core\.g_ro_bank\[8\]\.u_ro\.g_inv\[18\]\.u_inv
*8044 u_puf\.u_core\.g_ro_bank\[8\]\.u_ro\.g_inv\[19\]\.u_inv
*8045 u_puf\.u_core\.g_ro_bank\[8\]\.u_ro\.g_inv\[1\]\.u_inv
*8046 u_puf\.u_core\.g_ro_bank\[8\]\.u_ro\.g_inv\[20\]\.u_inv
*8047 u_puf\.u_core\.g_ro_bank\[8\]\.u_ro\.g_inv\[21\]\.u_inv
*8048 u_puf\.u_core\.g_ro_bank\[8\]\.u_ro\.g_inv\[22\]\.u_inv
*8049 u_puf\.u_core\.g_ro_bank\[8\]\.u_ro\.g_inv\[23\]\.u_inv
*8050 u_puf\.u_core\.g_ro_bank\[8\]\.u_ro\.g_inv\[24\]\.u_inv
*8051 u_puf\.u_core\.g_ro_bank\[8\]\.u_ro\.g_inv\[25\]\.u_inv
*8052 u_puf\.u_core\.g_ro_bank\[8\]\.u_ro\.g_inv\[26\]\.u_inv
*8053 u_puf\.u_core\.g_ro_bank\[8\]\.u_ro\.g_inv\[27\]\.u_inv
*8054 u_puf\.u_core\.g_ro_bank\[8\]\.u_ro\.g_inv\[28\]\.u_inv
*8055 u_puf\.u_core\.g_ro_bank\[8\]\.u_ro\.g_inv\[29\]\.u_inv
*8056 u_puf\.u_core\.g_ro_bank\[8\]\.u_ro\.g_inv\[2\]\.u_inv
*8057 u_puf\.u_core\.g_ro_bank\[8\]\.u_ro\.g_inv\[30\]\.u_inv
*8058 u_puf\.u_core\.g_ro_bank\[8\]\.u_ro\.g_inv\[3\]\.u_inv
*8059 u_puf\.u_core\.g_ro_bank\[8\]\.u_ro\.g_inv\[4\]\.u_inv
*8060 u_puf\.u_core\.g_ro_bank\[8\]\.u_ro\.g_inv\[5\]\.u_inv
*8061 u_puf\.u_core\.g_ro_bank\[8\]\.u_ro\.g_inv\[6\]\.u_inv
*8062 u_puf\.u_core\.g_ro_bank\[8\]\.u_ro\.g_inv\[7\]\.u_inv
*8063 u_puf\.u_core\.g_ro_bank\[8\]\.u_ro\.g_inv\[8\]\.u_inv
*8064 u_puf\.u_core\.g_ro_bank\[8\]\.u_ro\.g_inv\[9\]\.u_inv
*8065 u_puf\.u_core\.g_ro_bank\[8\]\.u_ro\.u_buf
*8066 u_puf\.u_core\.g_ro_bank\[8\]\.u_ro\.u_nand
*8067 u_puf\.u_core\.g_ro_bank\[9\]\.u_ro\.g_inv\[10\]\.u_inv
*8068 u_puf\.u_core\.g_ro_bank\[9\]\.u_ro\.g_inv\[11\]\.u_inv
*8069 u_puf\.u_core\.g_ro_bank\[9\]\.u_ro\.g_inv\[12\]\.u_inv
*8070 u_puf\.u_core\.g_ro_bank\[9\]\.u_ro\.g_inv\[13\]\.u_inv
*8071 u_puf\.u_core\.g_ro_bank\[9\]\.u_ro\.g_inv\[14\]\.u_inv
*8072 u_puf\.u_core\.g_ro_bank\[9\]\.u_ro\.g_inv\[15\]\.u_inv
*8073 u_puf\.u_core\.g_ro_bank\[9\]\.u_ro\.g_inv\[16\]\.u_inv
*8074 u_puf\.u_core\.g_ro_bank\[9\]\.u_ro\.g_inv\[17\]\.u_inv
*8075 u_puf\.u_core\.g_ro_bank\[9\]\.u_ro\.g_inv\[18\]\.u_inv
*8076 u_puf\.u_core\.g_ro_bank\[9\]\.u_ro\.g_inv\[19\]\.u_inv
*8077 u_puf\.u_core\.g_ro_bank\[9\]\.u_ro\.g_inv\[1\]\.u_inv
*8078 u_puf\.u_core\.g_ro_bank\[9\]\.u_ro\.g_inv\[20\]\.u_inv
*8079 u_puf\.u_core\.g_ro_bank\[9\]\.u_ro\.g_inv\[21\]\.u_inv
*8080 u_puf\.u_core\.g_ro_bank\[9\]\.u_ro\.g_inv\[22\]\.u_inv
*8081 u_puf\.u_core\.g_ro_bank\[9\]\.u_ro\.g_inv\[23\]\.u_inv
*8082 u_puf\.u_core\.g_ro_bank\[9\]\.u_ro\.g_inv\[24\]\.u_inv
*8083 u_puf\.u_core\.g_ro_bank\[9\]\.u_ro\.g_inv\[25\]\.u_inv
*8084 u_puf\.u_core\.g_ro_bank\[9\]\.u_ro\.g_inv\[26\]\.u_inv
*8085 u_puf\.u_core\.g_ro_bank\[9\]\.u_ro\.g_inv\[27\]\.u_inv
*8086 u_puf\.u_core\.g_ro_bank\[9\]\.u_ro\.g_inv\[28\]\.u_inv
*8087 u_puf\.u_core\.g_ro_bank\[9\]\.u_ro\.g_inv\[29\]\.u_inv
*8088 u_puf\.u_core\.g_ro_bank\[9\]\.u_ro\.g_inv\[2\]\.u_inv
*8089 u_puf\.u_core\.g_ro_bank\[9\]\.u_ro\.g_inv\[30\]\.u_inv
*8090 u_puf\.u_core\.g_ro_bank\[9\]\.u_ro\.g_inv\[3\]\.u_inv
*8091 u_puf\.u_core\.g_ro_bank\[9\]\.u_ro\.g_inv\[4\]\.u_inv
*8092 u_puf\.u_core\.g_ro_bank\[9\]\.u_ro\.g_inv\[5\]\.u_inv
*8093 u_puf\.u_core\.g_ro_bank\[9\]\.u_ro\.g_inv\[6\]\.u_inv
*8094 u_puf\.u_core\.g_ro_bank\[9\]\.u_ro\.g_inv\[7\]\.u_inv
*8095 u_puf\.u_core\.g_ro_bank\[9\]\.u_ro\.g_inv\[8\]\.u_inv
*8096 u_puf\.u_core\.g_ro_bank\[9\]\.u_ro\.g_inv\[9\]\.u_inv
*8097 u_puf\.u_core\.g_ro_bank\[9\]\.u_ro\.u_buf
*8098 u_puf\.u_core\.g_ro_bank\[9\]\.u_ro\.u_nand
*8099 u_rob0
*8100 u_rob1
*8101 u_rob10
*8102 u_rob11
*8103 u_rob12
*8104 u_rob13
*8105 u_rob14
*8106 u_rob15
*8107 u_rob2
*8108 u_rob3
*8109 u_rob4
*8110 u_rob5
*8111 u_rob6
*8112 u_rob7
*8113 u_rob8
*8114 u_rob9
*8115 wire19

*PORTS
clk I
ena I
rst_n I
ui_in[0] I
ui_in[1] I
ui_in[2] I
ui_in[3] I
ui_in[4] I
ui_in[5] I
ui_in[6] I
ui_in[7] I
uio_in[0] I
uio_in[1] I
uio_in[2] I
uio_in[3] I
uio_in[4] I
uio_in[5] I
uio_in[6] I
uio_in[7] I
uio_oe[0] O
uio_oe[1] O
uio_oe[2] O
uio_oe[3] O
uio_oe[4] O
uio_oe[5] O
uio_oe[6] O
uio_oe[7] O
uio_out[0] O
uio_out[1] O
uio_out[2] O
uio_out[3] O
uio_out[4] O
uio_out[5] O
uio_out[6] O
uio_out[7] O
uo_out[0] O
uo_out[1] O
uo_out[2] O
uo_out[3] O
uo_out[4] O
uo_out[5] O
uo_out[6] O
uo_out[7] O

*D_NET *3 0.0128505
*CONN
*P clk I
*I *7536:A I *D sky130_fd_sc_hd__clkbuf_16
*CAP
1 clk 0.0044762
2 *7536:A 7.12587e-05
3 *3:30 0.00454745
4 *7536:A *157:20 7.20217e-06
5 *7536:A *784:12 3.41649e-05
6 *3:30 uio_out[0] 0.000449997
7 *3:30 *7369:B 0
8 *3:30 *7376:A4 1.65128e-05
9 *3:30 *7377:A 0.000875115
10 *3:30 *7378:A 2.27759e-05
11 *3:30 *7393:S0 7.01733e-05
12 *3:30 *7398:A 8.34603e-06
13 *3:30 *7398:B 0.000122494
14 *3:30 *7436:A2 0.000299095
15 *3:30 *7475:A 1.07049e-06
16 *3:30 *7477:A1 0
17 *3:30 *7479:B1 1.80266e-06
18 *3:30 *7508:RESET_B 5.75656e-05
19 *3:30 *7511:D 6.29685e-05
20 *3:30 *7517:CLK 0.000125851
21 *3:30 *7533:RESET_B 0.000144275
22 *3:30 *7561:A 2.83548e-05
23 *3:30 *104:38 0.000430329
24 *3:30 *104:61 1.00609e-05
25 *3:30 *157:20 4.85015e-05
26 *3:30 *198:26 1.07733e-05
27 *3:30 *202:12 0
28 *3:30 *202:35 0.000787484
29 *3:30 *206:20 0.000106546
30 *3:30 *206:45 0
31 *3:30 *237:12 3.41162e-05
*RES
1 clk *3:30 41.3821 
2 *3:30 *7536:A 15.1571 
*END

*D_NET *5 0.000872273
*CONN
*P rst_n I
*I *7561:A I *D sky130_fd_sc_hd__clkdlybuf4s25_1
*CAP
1 rst_n 0.000322087
2 *7561:A 0.000322087
3 *7561:A *7507:RESET_B 0
4 *7561:A *7562:A 9.89123e-05
5 *7561:A *237:12 0.000100831
6 *3:30 *7561:A 2.83548e-05
*RES
1 rst_n *7561:A 23.9395 
*END

*D_NET *6 0.000908458
*CONN
*P ui_in[0] I
*I *7562:A I *D sky130_fd_sc_hd__clkdlybuf4s25_1
*CAP
1 ui_in[0] 0.000320423
2 *7562:A 0.000320423
3 *7562:A *7507:RESET_B 0.00015234
4 *7562:A *7563:A 1.63602e-05
5 *7562:A *7564:A 0
6 *7561:A *7562:A 9.89123e-05
*RES
1 ui_in[0] *7562:A 24.0116 
*END

*D_NET *7 0.000920154
*CONN
*P ui_in[1] I
*I *7563:A I *D sky130_fd_sc_hd__clkdlybuf4s25_1
*CAP
1 ui_in[1] 0.000426167
2 *7563:A 0.000426167
3 *7563:A *7564:A 2.08644e-05
4 *7563:A *243:10 4.46186e-06
5 *7563:A *243:25 2.61337e-05
6 *7562:A *7563:A 1.63602e-05
*RES
1 ui_in[1] *7563:A 26.1581 
*END

*D_NET *8 0.0017018
*CONN
*P ui_in[2] I
*I *7564:A I *D sky130_fd_sc_hd__clkdlybuf4s25_1
*CAP
1 ui_in[2] 0.000619174
2 *7564:A 0.000619174
3 *7564:A *7565:A 0.00031758
4 *7564:A *7566:A 0.000125012
5 *7562:A *7564:A 0
6 *7563:A *7564:A 2.08644e-05
*RES
1 ui_in[2] *7564:A 24.6602 
*END

*D_NET *9 0.00165639
*CONN
*P ui_in[3] I
*I *7565:A I *D sky130_fd_sc_hd__clkdlybuf4s25_1
*CAP
1 ui_in[3] 0.000624189
2 *7565:A 0.000624189
3 *7565:A *7494:A 0
4 *7565:A *7566:A 8.76012e-05
5 *7565:A *244:12 2.8266e-06
6 *7564:A *7565:A 0.00031758
*RES
1 ui_in[3] *7565:A 25.3049 
*END

*D_NET *10 0.00228516
*CONN
*P ui_in[4] I
*I *7566:A I *D sky130_fd_sc_hd__clkdlybuf4s25_1
*CAP
1 ui_in[4] 0.000828317
2 *7566:A 0.000828317
3 *7566:A *7508:CLK 4.79842e-05
4 *7566:A *7508:D 0
5 *7566:A *7567:A 0.000176486
6 *7566:A *228:16 0.00011018
7 *7566:A *236:10 0
8 *7566:A *243:10 7.62717e-05
9 *7566:A *243:25 4.99283e-06
10 *7564:A *7566:A 0.000125012
11 *7565:A *7566:A 8.76012e-05
*RES
1 ui_in[4] *7566:A 27.5149 
*END

*D_NET *11 0.00223055
*CONN
*P ui_in[5] I
*I *7567:A I *D sky130_fd_sc_hd__clkdlybuf4s25_1
*CAP
1 ui_in[5] 0.00069093
2 *7567:A 0.00069093
3 *7567:A uio_out[0] 1.25084e-05
4 *7567:A *7489:A 0
5 *7567:A *7504:CLK 6.76574e-05
6 *7567:A *7510:RESET_B 0
7 *7567:A *7513:CLK 9.47456e-05
8 *7567:A *7513:D 0
9 *7567:A *7568:A 0.000334726
10 *7567:A *231:10 0.000162565
11 *7566:A *7567:A 0.000176486
*RES
1 ui_in[5] *7567:A 27.6465 
*END

*D_NET *12 0.00219405
*CONN
*P ui_in[6] I
*I *7568:A I *D sky130_fd_sc_hd__clkdlybuf4s25_1
*CAP
1 ui_in[6] 0.000806407
2 *7568:A 0.000806407
3 *7568:A uio_out[0] 1.25084e-05
4 *7568:A *7343:A 0
5 *7568:A *7489:A 0.000233997
6 *7568:A *7510:D 0
7 *7568:A *250:23 0
8 *7567:A *7568:A 0.000334726
*RES
1 ui_in[6] *7568:A 25.5215 
*END

*D_NET *22 0.000487661
*CONN
*P uio_oe[0] O
*I *7586:HI O *D sky130_fd_sc_hd__conb_1
*CAP
1 uio_oe[0] 0.000163303
2 *7586:HI 0.000163303
3 uio_oe[0] uio_oe[1] 7.88136e-05
4 uio_oe[0] uio_out[7] 8.22407e-05
*RES
1 *7586:HI uio_oe[0] 21.5109 
*END

*D_NET *23 0.000508546
*CONN
*P uio_oe[1] O
*I *7572:LO O *D sky130_fd_sc_hd__conb_1
*CAP
1 uio_oe[1] 0.00017546
2 *7572:LO 0.00017546
3 uio_oe[1] uio_oe[2] 7.88136e-05
4 uio_oe[0] uio_oe[1] 7.88136e-05
*RES
1 *7572:LO uio_oe[1] 21.5485 
*END

*D_NET *24 0.000508546
*CONN
*P uio_oe[2] O
*I *7573:LO O *D sky130_fd_sc_hd__conb_1
*CAP
1 uio_oe[2] 0.00017546
2 *7573:LO 0.00017546
3 uio_oe[2] uio_oe[3] 7.88136e-05
4 uio_oe[1] uio_oe[2] 7.88136e-05
*RES
1 *7573:LO uio_oe[2] 21.5485 
*END

*D_NET *25 0.000508546
*CONN
*P uio_oe[3] O
*I *7574:LO O *D sky130_fd_sc_hd__conb_1
*CAP
1 uio_oe[3] 0.00017546
2 *7574:LO 0.00017546
3 uio_oe[3] uio_oe[4] 7.88136e-05
4 uio_oe[2] uio_oe[3] 7.88136e-05
*RES
1 *7574:LO uio_oe[3] 21.5485 
*END

*D_NET *26 0.000508546
*CONN
*P uio_oe[4] O
*I *7575:LO O *D sky130_fd_sc_hd__conb_1
*CAP
1 uio_oe[4] 0.00017546
2 *7575:LO 0.00017546
3 uio_oe[4] uio_oe[5] 7.88136e-05
4 uio_oe[3] uio_oe[4] 7.88136e-05
*RES
1 *7575:LO uio_oe[4] 21.5485 
*END

*D_NET *27 0.000508546
*CONN
*P uio_oe[5] O
*I *7576:LO O *D sky130_fd_sc_hd__conb_1
*CAP
1 uio_oe[5] 0.00017546
2 *7576:LO 0.00017546
3 uio_oe[5] uio_oe[6] 7.88136e-05
4 uio_oe[4] uio_oe[5] 7.88136e-05
*RES
1 *7576:LO uio_oe[5] 21.5485 
*END

*D_NET *28 0.000508546
*CONN
*P uio_oe[6] O
*I *7577:LO O *D sky130_fd_sc_hd__conb_1
*CAP
1 uio_oe[6] 0.00017546
2 *7577:LO 0.00017546
3 uio_oe[6] uio_oe[7] 7.88136e-05
4 uio_oe[5] uio_oe[6] 7.88136e-05
*RES
1 *7577:LO uio_oe[6] 21.5485 
*END

*D_NET *29 0.000504274
*CONN
*P uio_oe[7] O
*I *7578:LO O *D sky130_fd_sc_hd__conb_1
*CAP
1 uio_oe[7] 0.00021273
2 *7578:LO 0.00021273
3 uio_oe[6] uio_oe[7] 7.88136e-05
*RES
1 *7578:LO uio_oe[7] 21.5485 
*END

*D_NET *30 0.0167876
*CONN
*P uio_out[0] O
*I *7535:X O *D sky130_fd_sc_hd__buf_2
*CAP
1 uio_out[0] 0.00691296
2 *7535:X 0.00691296
3 uio_out[0] uio_out[1] 7.88136e-05
4 uio_out[0] uo_out[0] 0
5 uio_out[0] uo_out[7] 0.000329897
6 uio_out[0] *7363:C 4.99344e-06
7 uio_out[0] *7390:A1 0
8 uio_out[0] *7390:A3 0.000125866
9 uio_out[0] *7393:S0 7.81607e-05
10 uio_out[0] *7535:A 0.000142327
11 uio_out[0] *7556:A 0.000123242
12 uio_out[0] *97:42 0.000178531
13 uio_out[0] *202:35 0.00049672
14 uio_out[0] *215:26 4.73891e-05
15 uio_out[0] *220:16 0.000376948
16 uio_out[0] *228:16 0.000303214
17 uio_out[0] *228:38 9.06546e-05
18 uio_out[0] *249:30 0.00010988
19 *7567:A uio_out[0] 1.25084e-05
20 *7568:A uio_out[0] 1.25084e-05
21 *3:30 uio_out[0] 0.000449997
*RES
1 *7535:X uio_out[0] 46.4359 
*END

*D_NET *31 0.000508546
*CONN
*P uio_out[1] O
*I *7579:LO O *D sky130_fd_sc_hd__conb_1
*CAP
1 uio_out[1] 0.00017546
2 *7579:LO 0.00017546
3 uio_out[1] uio_out[2] 7.88136e-05
4 uio_out[0] uio_out[1] 7.88136e-05
*RES
1 *7579:LO uio_out[1] 21.5485 
*END

*D_NET *32 0.00041663
*CONN
*P uio_out[2] O
*I *7580:LO O *D sky130_fd_sc_hd__conb_1
*CAP
1 uio_out[2] 0.000129501
2 *7580:LO 0.000129501
3 uio_out[2] uio_out[3] 7.88136e-05
4 uio_out[1] uio_out[2] 7.88136e-05
*RES
1 *7580:LO uio_out[2] 21.4044 
*END

*D_NET *33 0.000508546
*CONN
*P uio_out[3] O
*I *7581:LO O *D sky130_fd_sc_hd__conb_1
*CAP
1 uio_out[3] 0.00017546
2 *7581:LO 0.00017546
3 uio_out[3] uio_out[4] 7.88136e-05
4 uio_out[2] uio_out[3] 7.88136e-05
*RES
1 *7581:LO uio_out[3] 21.5485 
*END

*D_NET *34 0.000508546
*CONN
*P uio_out[4] O
*I *7582:LO O *D sky130_fd_sc_hd__conb_1
*CAP
1 uio_out[4] 0.00017546
2 *7582:LO 0.00017546
3 uio_out[4] uio_out[5] 7.88136e-05
4 uio_out[3] uio_out[4] 7.88136e-05
*RES
1 *7582:LO uio_out[4] 21.5485 
*END

*D_NET *35 0.000508546
*CONN
*P uio_out[5] O
*I *7583:LO O *D sky130_fd_sc_hd__conb_1
*CAP
1 uio_out[5] 0.00017546
2 *7583:LO 0.00017546
3 uio_out[5] uio_out[6] 7.88136e-05
4 uio_out[4] uio_out[5] 7.88136e-05
*RES
1 *7583:LO uio_out[5] 21.5485 
*END

*D_NET *36 0.000508546
*CONN
*P uio_out[6] O
*I *7584:LO O *D sky130_fd_sc_hd__conb_1
*CAP
1 uio_out[6] 0.00017546
2 *7584:LO 0.00017546
3 uio_out[6] uio_out[7] 7.88136e-05
4 uio_out[5] uio_out[6] 7.88136e-05
*RES
1 *7584:LO uio_out[6] 21.5485 
*END

*D_NET *37 0.000498471
*CONN
*P uio_out[7] O
*I *7585:LO O *D sky130_fd_sc_hd__conb_1
*CAP
1 uio_out[7] 0.000168708
2 *7585:LO 0.000168708
3 uio_oe[0] uio_out[7] 8.22407e-05
4 uio_out[6] uio_out[7] 7.88136e-05
*RES
1 *7585:LO uio_out[7] 21.5485 
*END

*D_NET *38 0.00437993
*CONN
*P uo_out[0] O
*I *7427:X O *D sky130_fd_sc_hd__mux2_1
*CAP
1 uo_out[0] 0.00166771
2 *7427:X 0.00166771
3 uo_out[0] uo_out[1] 0.000834443
4 uo_out[0] *7494:A 9.59532e-06
5 uo_out[0] *246:6 0.00020047
6 uio_out[0] uo_out[0] 0
*RES
1 *7427:X uo_out[0] 26.1483 
*END

*D_NET *39 0.00568321
*CONN
*P uo_out[1] O
*I *7428:X O *D sky130_fd_sc_hd__mux2_1
*CAP
1 uo_out[1] 0.00229931
2 *7428:X 0.00229931
3 uo_out[1] uo_out[2] 1.63602e-05
4 uo_out[1] uo_out[3] 0
5 uo_out[1] *231:37 0.000107413
6 uo_out[1] *238:16 0.000126381
7 uo_out[0] uo_out[1] 0.000834443
*RES
1 *7428:X uo_out[1] 26.0104 
*END

*D_NET *40 0.00376789
*CONN
*P uo_out[2] O
*I *7429:X O *D sky130_fd_sc_hd__mux2_1
*CAP
1 uo_out[2] 0.00133112
2 *7429:X 0.00133112
3 uo_out[2] uo_out[3] 0.00108929
4 uo_out[2] *7505:RESET_B 0
5 uo_out[1] uo_out[2] 1.63602e-05
*RES
1 *7429:X uo_out[2] 29.1543 
*END

*D_NET *41 0.00288883
*CONN
*P uo_out[3] O
*I *7430:X O *D sky130_fd_sc_hd__mux2_1
*CAP
1 uo_out[3] 0.000881006
2 *7430:X 0.000881006
3 uo_out[3] uo_out[4] 3.7536e-05
4 uo_out[3] *7515:RESET_B 0
5 uo_out[1] uo_out[3] 0
6 uo_out[2] uo_out[3] 0.00108929
*RES
1 *7430:X uo_out[3] 26.852 
*END

*D_NET *42 0.000525572
*CONN
*P uo_out[4] O
*I *7431:X O *D sky130_fd_sc_hd__mux2_1
*CAP
1 uo_out[4] 0.000214726
2 *7431:X 0.000214726
3 uo_out[4] uo_out[5] 4.20402e-05
4 uo_out[4] uo_out[6] 0
5 uo_out[4] *7487:A 1.40306e-05
6 uo_out[4] *240:10 2.51343e-06
7 uo_out[3] uo_out[4] 3.7536e-05
*RES
1 *7431:X uo_out[4] 22.9413 
*END

*D_NET *43 0.000795436
*CONN
*P uo_out[5] O
*I *7432:X O *D sky130_fd_sc_hd__mux2_1
*CAP
1 uo_out[5] 0.000251933
2 *7432:X 0.000251933
3 uo_out[5] uo_out[6] 0.00024953
4 uo_out[4] uo_out[5] 4.20402e-05
*RES
1 *7432:X uo_out[5] 21.9747 
*END

*D_NET *44 0.00161947
*CONN
*P uo_out[6] O
*I *7433:X O *D sky130_fd_sc_hd__mux2_1
*CAP
1 uo_out[6] 0.000566252
2 *7433:X 0.000566252
3 uo_out[6] uo_out[7] 0.000206067
4 uo_out[6] *7431:A0 0
5 uo_out[6] *7433:A1 3.1367e-05
6 uo_out[4] uo_out[6] 0
7 uo_out[5] uo_out[6] 0.00024953
*RES
1 *7433:X uo_out[6] 24.6584 
*END

*D_NET *45 0.00235175
*CONN
*P uo_out[7] O
*I *7434:X O *D sky130_fd_sc_hd__mux2_1
*CAP
1 uo_out[7] 0.000900808
2 *7434:X 0.000900808
3 uo_out[7] *7434:A1 1.41706e-05
4 uo_out[7] *7434:S 0
5 uo_out[7] *7502:RESET_B 0
6 uio_out[0] uo_out[7] 0.000329897
7 uo_out[6] uo_out[7] 0.000206067
*RES
1 *7434:X uo_out[7] 24.9781 
*END

*D_NET *46 0.000413104
*CONN
*I *7511:D I *D sky130_fd_sc_hd__dfrtp_2
*I *7378:X O *D sky130_fd_sc_hd__or2_2
*CAP
1 *7511:D 8.42001e-05
2 *7378:X 8.42001e-05
3 *7511:D *7378:A 9.83704e-05
4 *7511:D *7530:CLK 2.84109e-05
5 *7511:D *235:18 5.49544e-05
6 *3:30 *7511:D 6.29685e-05
*RES
1 *7378:X *7511:D 29.7786 
*END

*D_NET *47 0.00021138
*CONN
*I *7513:D I *D sky130_fd_sc_hd__dfrtp_2
*I *7342:Y O *D sky130_fd_sc_hd__inv_2
*CAP
1 *7513:D 0.00010569
2 *7342:Y 0.00010569
3 *7513:D *7510:RESET_B 0
4 *7567:A *7513:D 0
*RES
1 *7342:Y *7513:D 29.2429 
*END

*D_NET *48 0.00110204
*CONN
*I *7507:D I *D sky130_fd_sc_hd__dfrtp_2
*I *7347:Y O *D sky130_fd_sc_hd__inv_2
*CAP
1 *7507:D 0.0004376
2 *7347:Y 0.0004376
3 *7507:D *7347:A 0.00010096
4 *7507:D *7509:RESET_B 0.000125877
*RES
1 *7347:Y *7507:D 26.5286 
*END

*D_NET *49 0.000409274
*CONN
*I *7506:D I *D sky130_fd_sc_hd__dfrtp_2
*I *7349:Y O *D sky130_fd_sc_hd__inv_2
*CAP
1 *7506:D 9.42955e-05
2 *7349:Y 9.42955e-05
3 *7506:D *7505:RESET_B 2.73453e-05
4 *7506:D *7506:CLK 5.33005e-05
5 *7506:D *238:14 7.55747e-05
6 *7506:D *245:25 6.44623e-05
*RES
1 *7349:Y *7506:D 29.7786 
*END

*D_NET *50 0.000596458
*CONN
*I *7505:D I *D sky130_fd_sc_hd__dfrtp_2
*I *7351:Y O *D sky130_fd_sc_hd__inv_2
*CAP
1 *7505:D 5.27281e-05
2 *7351:Y 5.27281e-05
3 *7505:D *7503:RESET_B 0.000317082
4 *7505:D *239:6 0.000173921
*RES
1 *7351:Y *7505:D 21.6 
*END

*D_NET *51 0.000824034
*CONN
*I *7503:D I *D sky130_fd_sc_hd__dfrtp_2
*I *7353:Y O *D sky130_fd_sc_hd__inv_2
*CAP
1 *7503:D 6.53474e-05
2 *7353:Y 6.53474e-05
3 *7503:D *7503:CLK 0.000176925
4 *7503:D *239:14 6.66408e-05
5 *7503:D *240:8 0.000449773
*RES
1 *7353:Y *7503:D 22.8321 
*END

*D_NET *52 0.000374525
*CONN
*I *7502:D I *D sky130_fd_sc_hd__dfrtp_2
*I *7355:Y O *D sky130_fd_sc_hd__inv_2
*CAP
1 *7502:D 7.14857e-05
2 *7355:Y 7.14857e-05
3 *7502:D *7355:A 0.000231554
*RES
1 *7355:Y *7502:D 20.7786 
*END

*D_NET *53 0.00078831
*CONN
*I *7501:D I *D sky130_fd_sc_hd__dfrtp_2
*I *7357:Y O *D sky130_fd_sc_hd__inv_2
*CAP
1 *7501:D 0.000256049
2 *7357:Y 0.000256049
3 *7501:D *209:14 0.000276211
*RES
1 *7357:Y *7501:D 31.5286 
*END

*D_NET *54 0.000640847
*CONN
*I *7508:D I *D sky130_fd_sc_hd__dfrtp_2
*I *7344:Y O *D sky130_fd_sc_hd__inv_2
*CAP
1 *7508:D 0.000228051
2 *7344:Y 0.000228051
3 *7508:D *220:12 0
4 *7508:D *221:14 0.000184745
5 *7566:A *7508:D 0
*RES
1 *7344:Y *7508:D 31.0107 
*END

*D_NET *55 0.000622124
*CONN
*I *7504:D I *D sky130_fd_sc_hd__dfrtp_2
*I *7346:Y O *D sky130_fd_sc_hd__inv_2
*CAP
1 *7504:D 0.000216702
2 *7346:Y 0.000216702
3 *7504:D *231:10 1.28585e-05
4 *7504:D *231:31 0.0001562
5 *7504:D *237:12 1.96616e-05
*RES
1 *7346:Y *7504:D 31.0107 
*END

*D_NET *56 0.000331358
*CONN
*I *7500:D I *D sky130_fd_sc_hd__dfrtp_2
*I *7348:Y O *D sky130_fd_sc_hd__inv_2
*CAP
1 *7500:D 9.03033e-05
2 *7348:Y 9.03033e-05
3 *7500:D *7348:A 0.000146618
4 *7500:D *7500:CLK 4.1331e-06
*RES
1 *7348:Y *7500:D 29.5464 
*END

*D_NET *57 0.000589089
*CONN
*I *7516:D I *D sky130_fd_sc_hd__dfrtp_2
*I *7350:Y O *D sky130_fd_sc_hd__inv_2
*CAP
1 *7516:D 0.000143154
2 *7350:Y 0.000143154
3 *7516:D *7514:RESET_B 5.52302e-05
4 *7516:D *7516:CLK 0.00010096
5 *7516:D *246:6 0.000146591
*RES
1 *7350:Y *7516:D 22.0107 
*END

*D_NET *58 0.000206237
*CONN
*I *7515:D I *D sky130_fd_sc_hd__dfrtp_2
*I *7352:Y O *D sky130_fd_sc_hd__inv_2
*CAP
1 *7515:D 8.42411e-05
2 *7352:Y 8.42411e-05
3 *7515:D *7515:CLK 3.77553e-05
*RES
1 *7352:Y *7515:D 29.2429 
*END

*D_NET *59 0.000311441
*CONN
*I *7514:D I *D sky130_fd_sc_hd__dfrtp_2
*I *7354:Y O *D sky130_fd_sc_hd__inv_2
*CAP
1 *7514:D 0.000109451
2 *7354:Y 0.000109451
3 *7514:D *7433:A0 6.97972e-05
4 *7514:D *248:14 2.27416e-05
*RES
1 *7354:Y *7514:D 29.7786 
*END

*D_NET *60 0.000463697
*CONN
*I *7512:D I *D sky130_fd_sc_hd__dfrtp_2
*I *7356:Y O *D sky130_fd_sc_hd__inv_2
*CAP
1 *7512:D 0.000203285
2 *7356:Y 0.000203285
3 *7512:D *7434:A0 3.80953e-06
4 *7512:D *7514:RESET_B 1.40415e-05
5 *7512:D *248:12 0
6 *7512:D *249:30 3.92757e-05
*RES
1 *7356:Y *7512:D 30.6 
*END

*D_NET *61 0.000534623
*CONN
*I *7510:D I *D sky130_fd_sc_hd__dfrtp_2
*I *7343:Y O *D sky130_fd_sc_hd__inv_2
*CAP
1 *7510:D 0.000175432
2 *7343:Y 0.000175432
3 *7510:D *7343:A 7.83587e-05
4 *7510:D *250:10 4.87854e-05
5 *7510:D *250:23 5.66157e-05
6 *7568:A *7510:D 0
*RES
1 *7343:Y *7510:D 31.0107 
*END

*D_NET *62 0.000992692
*CONN
*I *7509:D I *D sky130_fd_sc_hd__dfrtp_2
*I *7345:Y O *D sky130_fd_sc_hd__inv_2
*CAP
1 *7509:D 0.00034931
2 *7345:Y 0.00034931
3 *7509:D *7345:A 1.55953e-05
4 *7509:D *7494:A 1.74352e-05
5 *7509:D *7507:CLK 0.000187746
6 *7509:D *7509:CLK 7.32955e-05
*RES
1 *7345:Y *7509:D 23.5688 
*END

*D_NET *63 0.000738574
*CONN
*I *7500:CLK I *D sky130_fd_sc_hd__dfrtp_2
*I *7485:Y O *D sky130_fd_sc_hd__inv_2
*CAP
1 *7500:CLK 0.00035585
2 *7485:Y 0.00035585
3 *7500:CLK *7485:A 2.27416e-05
4 *7500:CLK *245:25 0
5 *7500:D *7500:CLK 4.1331e-06
*RES
1 *7485:Y *7500:CLK 32.2429 
*END

*D_NET *64 0.000186505
*CONN
*I *7501:CLK I *D sky130_fd_sc_hd__dfrtp_2
*I *7486:Y O *D sky130_fd_sc_hd__inv_2
*CAP
1 *7501:CLK 9.32525e-05
2 *7486:Y 9.32525e-05
*RES
1 *7486:Y *7501:CLK 29.2429 
*END

*D_NET *65 0.000854165
*CONN
*I *7502:CLK I *D sky130_fd_sc_hd__dfrtp_2
*I *7487:Y O *D sky130_fd_sc_hd__inv_2
*CAP
1 *7502:CLK 0.000411149
2 *7487:Y 0.000411149
3 *7502:CLK *7487:A 3.18676e-05
*RES
1 *7487:Y *7502:CLK 33.85 
*END

*D_NET *66 0.000905508
*CONN
*I *7503:CLK I *D sky130_fd_sc_hd__dfrtp_2
*I *7488:Y O *D sky130_fd_sc_hd__inv_2
*CAP
1 *7503:CLK 7.29452e-05
2 *7488:Y 7.29452e-05
3 *7503:CLK *239:14 0.000492887
4 *7503:CLK *240:8 1.16111e-05
5 *7503:CLK *240:10 7.8195e-05
6 *7503:D *7503:CLK 0.000176925
*RES
1 *7488:Y *7503:CLK 23.2429 
*END

*D_NET *67 0.00101065
*CONN
*I *7504:CLK I *D sky130_fd_sc_hd__dfrtp_2
*I *7489:Y O *D sky130_fd_sc_hd__inv_2
*CAP
1 *7504:CLK 0.000214059
2 *7489:Y 0.000214059
3 *7504:CLK *7427:A0 5.52302e-05
4 *7504:CLK *7427:S 2.89114e-05
5 *7504:CLK *7489:A 0.000266752
6 *7504:CLK *231:10 0.000163979
7 *7567:A *7504:CLK 6.76574e-05
*RES
1 *7489:Y *7504:CLK 34.6357 
*END

*D_NET *68 0.000850597
*CONN
*I *7505:CLK I *D sky130_fd_sc_hd__dfrtp_2
*I *7490:Y O *D sky130_fd_sc_hd__inv_2
*CAP
1 *7505:CLK 0.000287193
2 *7490:Y 0.000287193
3 *7505:CLK *245:25 0.000276211
*RES
1 *7490:Y *7505:CLK 31.8321 
*END

*D_NET *69 0.000973484
*CONN
*I *7506:CLK I *D sky130_fd_sc_hd__dfrtp_2
*I *7491:Y O *D sky130_fd_sc_hd__inv_2
*CAP
1 *7506:CLK 0.000230578
2 *7491:Y 0.000230578
3 *7506:CLK *231:37 0.000309266
4 *7506:CLK *245:25 0.000149762
5 *7506:D *7506:CLK 5.33005e-05
*RES
1 *7491:Y *7506:CLK 32.5464 
*END

*D_NET *70 0.00162161
*CONN
*I *7507:CLK I *D sky130_fd_sc_hd__dfrtp_2
*I *7492:Y O *D sky130_fd_sc_hd__inv_2
*CAP
1 *7507:CLK 0.000438378
2 *7492:Y 0.000438378
3 *7507:CLK *7509:CLK 0.000100261
4 *7507:CLK *7509:RESET_B 0.000199173
5 *7507:CLK *251:6 0.000257674
6 *7509:D *7507:CLK 0.000187746
*RES
1 *7492:Y *7507:CLK 29.9571 
*END

*D_NET *71 0.000717026
*CONN
*I *7508:CLK I *D sky130_fd_sc_hd__dfrtp_2
*I *7493:Y O *D sky130_fd_sc_hd__inv_2
*CAP
1 *7508:CLK 0.000260249
2 *7493:Y 0.000260249
3 *7508:CLK *7493:A 7.77751e-05
4 *7508:CLK *7554:A 1.74352e-05
5 *7508:CLK *220:12 0
6 *7508:CLK *236:18 5.33334e-05
7 *7566:A *7508:CLK 4.79842e-05
*RES
1 *7493:Y *7508:CLK 31.8321 
*END

*D_NET *72 0.000405998
*CONN
*I *7509:CLK I *D sky130_fd_sc_hd__dfrtp_2
*I *7494:Y O *D sky130_fd_sc_hd__inv_2
*CAP
1 *7509:CLK 5.40437e-05
2 *7494:Y 5.40437e-05
3 *7509:CLK *7345:A 1.56e-05
4 *7509:CLK *7494:A 5.52238e-05
5 *7509:CLK *251:6 3.42509e-05
6 *7509:CLK *251:8 1.92789e-05
7 *7507:CLK *7509:CLK 0.000100261
8 *7509:D *7509:CLK 7.32955e-05
*RES
1 *7494:Y *7509:CLK 20.7786 
*END

*D_NET *73 0.00116013
*CONN
*I *7510:CLK I *D sky130_fd_sc_hd__dfrtp_2
*I *7495:Y O *D sky130_fd_sc_hd__inv_2
*CAP
1 *7510:CLK 0.000425643
2 *7495:Y 0.000425643
3 *7510:CLK *7348:A 0
4 *7510:CLK *7485:A 0.000230482
5 *7510:CLK *7495:A 7.83587e-05
6 *7510:CLK *7500:RESET_B 0
7 *7510:CLK *245:25 0
*RES
1 *7495:Y *7510:CLK 35.4929 
*END

*D_NET *74 0.000112637
*CONN
*I *7512:CLK I *D sky130_fd_sc_hd__dfrtp_2
*I *7496:Y O *D sky130_fd_sc_hd__inv_2
*CAP
1 *7512:CLK 5.63185e-05
2 *7496:Y 5.63185e-05
*RES
1 *7496:Y *7512:CLK 19.5464 
*END

*D_NET *75 0.000367807
*CONN
*I *7514:CLK I *D sky130_fd_sc_hd__dfrtp_2
*I *7497:Y O *D sky130_fd_sc_hd__inv_2
*CAP
1 *7514:CLK 7.48854e-05
2 *7497:Y 7.48854e-05
3 *7514:CLK *7433:A0 6.2379e-05
4 *7514:CLK *7497:A 0.000127246
5 *7514:CLK *232:114 2.84109e-05
*RES
1 *7497:Y *7514:CLK 29.7786 
*END

*D_NET *76 0.000290617
*CONN
*I *7515:CLK I *D sky130_fd_sc_hd__dfrtp_2
*I *7498:Y O *D sky130_fd_sc_hd__inv_2
*CAP
1 *7515:CLK 6.0128e-05
2 *7498:Y 6.0128e-05
3 *7515:CLK *7432:A0 5.7119e-05
4 *7515:CLK *247:12 7.54868e-05
5 *7515:D *7515:CLK 3.77553e-05
*RES
1 *7498:Y *7515:CLK 29.2429 
*END

*D_NET *77 0.000224162
*CONN
*I *7516:CLK I *D sky130_fd_sc_hd__dfrtp_2
*I *7499:Y O *D sky130_fd_sc_hd__inv_2
*CAP
1 *7516:CLK 1.1121e-05
2 *7499:Y 1.1121e-05
3 *7516:CLK *246:6 0.00010096
4 *7516:D *7516:CLK 0.00010096
*RES
1 *7499:Y *7516:CLK 19.5464 
*END

*D_NET *78 0.00135224
*CONN
*I *7517:D I *D sky130_fd_sc_hd__dfrtp_2
*I *7436:X O *D sky130_fd_sc_hd__o21a_2
*CAP
1 *7517:D 0.000501997
2 *7436:X 0.000501997
3 *7517:D *7436:A1 5.62995e-05
4 *7517:D *7517:CLK 5.67857e-05
5 *7517:D *7556:A 0.000100979
6 *7517:D *104:23 0.000134184
7 *7517:D *202:35 0
*RES
1 *7436:X *7517:D 35.3902 
*END

*D_NET *79 0.00218457
*CONN
*I *7518:D I *D sky130_fd_sc_hd__dfrtp_2
*I *7438:X O *D sky130_fd_sc_hd__o21a_2
*CAP
1 *7518:D 0.000738755
2 *7438:X 0.000738755
3 *7518:D *7518:RESET_B 0.000212427
4 *7518:D *7519:D 0
5 *7518:D *198:52 0.000190684
6 *7518:D *218:28 0.000264663
7 *7518:D *219:117 0
8 *7518:D *781:10 3.92854e-05
*RES
1 *7438:X *7518:D 39.8679 
*END

*D_NET *80 0.000536571
*CONN
*I *7519:D I *D sky130_fd_sc_hd__dfrtp_2
*I *7441:Y O *D sky130_fd_sc_hd__nor3_2
*CAP
1 *7519:D 0.000195899
2 *7441:Y 0.000195899
3 *7519:D *206:134 0.000144773
4 *7518:D *7519:D 0
*RES
1 *7441:Y *7519:D 30.2964 
*END

*D_NET *81 0.00114925
*CONN
*I *7520:D I *D sky130_fd_sc_hd__dfrtp_2
*I *7443:X O *D sky130_fd_sc_hd__o21a_2
*CAP
1 *7520:D 0.000220631
2 *7443:X 0.000220631
3 *7520:D *7440:A 0
4 *7520:D *7443:B1 5.80706e-06
5 *7520:D *7446:A 2.78729e-05
6 *7520:D *7520:CLK 0.000175502
7 *7520:D *7520:RESET_B 5.52302e-05
8 *7520:D *218:56 0.00040381
9 *7520:D *219:117 3.97657e-05
10 *7520:D *788:10 0
11 *7520:D *788:14 0
*RES
1 *7443:X *7520:D 34.0821 
*END

*D_NET *82 0.00065193
*CONN
*I *7521:D I *D sky130_fd_sc_hd__dfrtp_2
*I *7447:X O *D sky130_fd_sc_hd__and3_2
*CAP
1 *7521:D 0.0002049
2 *7447:X 0.0002049
3 *7521:D *7446:B 7.55769e-05
4 *7521:D *7447:B 8.6229e-06
5 *7521:D *7447:C 2.94203e-05
6 *7521:D *7521:CLK 0.000128509
*RES
1 *7447:X *7521:D 30.8723 
*END

*D_NET *83 0.00159511
*CONN
*I *7522:D I *D sky130_fd_sc_hd__dfrtp_2
*I *7450:Y O *D sky130_fd_sc_hd__nor3_2
*CAP
1 *7522:D 0.000543941
2 *7450:Y 0.000543941
3 *7522:D *7448:A2 2.66026e-05
4 *7522:D *7450:B 5.71472e-05
5 *7522:D *7450:C 5.52302e-05
6 *7522:D *7522:CLK 0
7 *7522:D *7529:RESET_B 0
8 *7522:D *196:55 0
9 *7522:D *218:103 0.000313017
10 *7522:D *789:10 5.52302e-05
*RES
1 *7450:Y *7522:D 38.2786 
*END

*D_NET *84 0.000550231
*CONN
*I *7523:D I *D sky130_fd_sc_hd__dfrtp_2
*I *7453:X O *D sky130_fd_sc_hd__o21a_2
*CAP
1 *7523:D 0.000171929
2 *7453:X 0.000171929
3 *7523:D *7523:RESET_B 2.15245e-05
4 *7523:D *200:48 5.33882e-05
5 *7523:D *200:59 7.6507e-05
6 *7523:D *792:10 5.49544e-05
*RES
1 *7453:X *7523:D 31.1179 
*END

*D_NET *85 0.00051068
*CONN
*I *7524:D I *D sky130_fd_sc_hd__dfrtp_2
*I *7456:Y O *D sky130_fd_sc_hd__nor3_2
*CAP
1 *7524:D 0.000197725
2 *7456:Y 0.000197725
3 *7524:D *7456:C 5.49489e-05
4 *7524:D *144:10 6.02811e-05
*RES
1 *7456:Y *7524:D 31.2071 
*END

*D_NET *86 0.000469647
*CONN
*I *7525:D I *D sky130_fd_sc_hd__dfrtp_2
*I *7460:X O *D sky130_fd_sc_hd__o21a_2
*CAP
1 *7525:D 0.000188089
2 *7460:X 0.000188089
3 *7525:D *7460:A2 3.85148e-05
4 *7525:D *7525:CLK 5.49544e-05
*RES
1 *7460:X *7525:D 31.0107 
*END

*D_NET *87 0.000907261
*CONN
*I *7526:D I *D sky130_fd_sc_hd__dfrtp_2
*I *7462:X O *D sky130_fd_sc_hd__o21a_2
*CAP
1 *7526:D 0.000370821
2 *7462:X 0.000370821
3 *7526:D *798:DIODE 0
4 *7526:D *7526:RESET_B 2.38907e-05
5 *7526:D *795:20 0.000141729
*RES
1 *7462:X *7526:D 33.283 
*END

*D_NET *88 0.000477493
*CONN
*I *7527:D I *D sky130_fd_sc_hd__dfrtp_2
*I *7465:Y O *D sky130_fd_sc_hd__nor3_2
*CAP
1 *7527:D 0.000157434
2 *7465:Y 0.000157434
3 *7527:D *798:DIODE 0
4 *7527:D *7465:B 0
5 *7527:D *7526:CLK 0.000162626
*RES
1 *7465:Y *7527:D 31.1 
*END

*D_NET *89 0.0011118
*CONN
*I *7528:D I *D sky130_fd_sc_hd__dfrtp_2
*I *7468:Y O *D sky130_fd_sc_hd__nor3_2
*CAP
1 *7528:D 0.000196171
2 *7468:Y 0.000196171
3 *7528:D *7467:B 0.000195547
4 *7528:D *7528:RESET_B 9.27404e-05
5 *7528:D *103:51 0.000184745
6 *7528:D *152:18 0.000184745
7 *7528:D *199:14 0
8 *7528:D *782:12 6.1684e-05
*RES
1 *7468:Y *7528:D 33.7429 
*END

*D_NET *90 0.000806869
*CONN
*I *7529:D I *D sky130_fd_sc_hd__dfrtp_2
*I *7472:X O *D sky130_fd_sc_hd__o211a_2
*CAP
1 *7529:D 0.000211398
2 *7472:X 0.000211398
3 *7529:D *7472:A1 5.52302e-05
4 *7529:D *7559:A 0
5 *7529:D *103:33 0.000107749
6 *7529:D *108:10 6.62868e-05
7 *7529:D *155:24 5.71472e-05
8 *7529:D *199:51 9.7659e-05
*RES
1 *7472:X *7529:D 32.7607 
*END

*D_NET *91 0.000649081
*CONN
*I *7530:D I *D sky130_fd_sc_hd__dfrtp_2
*I *7474:Y O *D sky130_fd_sc_hd__a21oi_2
*CAP
1 *7530:D 0.000243284
2 *7474:Y 0.000243284
3 *7530:D *7474:B1 4.6025e-06
4 *7530:D *7530:CLK 7.77652e-05
5 *7530:D *196:11 0
6 *7530:D *784:6 3.80385e-05
7 *7530:D *784:47 4.21078e-05
*RES
1 *7474:Y *7530:D 32.1357 
*END

*D_NET *92 0.00221245
*CONN
*I *7531:D I *D sky130_fd_sc_hd__dfrtp_2
*I *7479:X O *D sky130_fd_sc_hd__a31o_2
*CAP
1 *7531:D 0.000562334
2 *7479:X 0.000562334
3 *7531:D *7477:B1 5.03772e-05
4 *7531:D *7479:A3 0.000224348
5 *7531:D *7480:A1 5.52238e-05
6 *7531:D *7531:RESET_B 0.000118383
7 *7531:D *7558:A 0.00012653
8 *7531:D *112:12 0.000195205
9 *7531:D *196:73 0.000136719
10 *7531:D *219:100 7.87837e-05
11 *7531:D *785:6 2.59355e-05
12 *7531:D *785:10 7.62707e-05
*RES
1 *7479:X *7531:D 40.6714 
*END

*D_NET *93 0.000565194
*CONN
*I *7532:D I *D sky130_fd_sc_hd__dfrtp_2
*I *7482:Y O *D sky130_fd_sc_hd__nor3_2
*CAP
1 *7532:D 0.000279944
2 *7482:Y 0.000279944
3 *7532:D *7374:C 0
4 *7532:D *7482:A 5.30637e-06
*RES
1 *7482:Y *7532:D 31.7071 
*END

*D_NET *94 0.00192265
*CONN
*I *7533:D I *D sky130_fd_sc_hd__dfrtp_2
*I *7484:Y O *D sky130_fd_sc_hd__a21oi_2
*CAP
1 *7533:D 0.000649078
2 *7484:Y 0.000649078
3 *7533:D *7377:A 0
4 *7533:D *7531:RESET_B 1.46624e-05
5 *7533:D *7547:A 9.32966e-05
6 *7533:D *7555:A 0.000126439
7 *7533:D *197:12 2.47833e-05
8 *7533:D *197:27 0.000365314
*RES
1 *7484:Y *7533:D 38.2295 
*END

*D_NET *95 0.000875544
*CONN
*I *7379:B I *D sky130_fd_sc_hd__nor2_2
*I *7435:A I *D sky130_fd_sc_hd__nor2_2
*I *7340:Y O *D sky130_fd_sc_hd__inv_2
*CAP
1 *7379:B 0
2 *7435:A 0.000209488
3 *7340:Y 0.000105399
4 *95:8 0.000314887
5 *7435:A *7340:A 4.6025e-06
6 *7435:A *7358:A 2.83284e-06
7 *7435:A *7436:A2 0.00010096
8 *7435:A *104:38 7.00073e-05
9 *7435:A *110:14 5.52238e-05
10 *95:8 *220:16 1.21436e-05
*RES
1 *7340:Y *95:8 11.0857 
2 *95:8 *7435:A 22.6393 
3 *95:8 *7379:B 9.3 
*END

*D_NET *96 0.000680915
*CONN
*I *7474:A1 I *D sky130_fd_sc_hd__a21oi_2
*I *7341:Y O *D sky130_fd_sc_hd__inv_2
*CAP
1 *7474:A1 8.11824e-05
2 *7341:Y 8.11824e-05
3 *7474:A1 *7473:A1 5.52302e-05
4 *7474:A1 *7474:A2 0.000331448
5 *7474:A1 *7474:B1 5.71472e-05
6 *7474:A1 *196:33 7.47252e-05
*RES
1 *7341:Y *7474:A1 22.0286 
*END

*D_NET *97 0.0289404
*CONN
*I *7548:A I *D sky130_fd_sc_hd__clkdlybuf4s25_1
*I *7549:A I *D sky130_fd_sc_hd__clkdlybuf4s25_1
*I *7358:X O *D sky130_fd_sc_hd__and2_2
*CAP
1 *7548:A 0.00153919
2 *7549:A 0
3 *7358:X 0.00197056
4 *97:42 0.00247426
5 *97:34 0.00290562
6 *97:12 0.00184652
7 *97:10 0.00329852
8 *97:6 0.00145199
9 *7548:A *7348:A 9.90367e-05
10 *7548:A *7359:B 0.00032505
11 *7548:A *7489:A 5.52302e-05
12 *7548:A *98:10 0.000589176
13 *7548:A *168:8 0.000211066
14 *7548:A *209:8 0.000320024
15 *7548:A *230:8 0.000102207
16 *97:10 *113:10 0.00132881
17 *97:12 *113:12 0
18 *97:12 *124:14 0.0060896
19 *97:12 *210:8 7.77751e-05
20 *97:12 *228:38 0.000762151
21 *97:34 *7358:A 7.6644e-05
22 *97:34 *7358:B 5.62995e-05
23 *97:34 *202:35 0.000516466
24 *97:34 *214:26 0.000321991
25 *97:34 *220:16 0.000511968
26 *97:42 *7390:S1 0.000447579
27 *97:42 *7510:RESET_B 0
28 *97:42 *7513:RESET_B 0.00040279
29 *97:42 *214:26 3.08664e-05
30 *97:42 *220:16 0.000112706
31 *97:42 *228:16 0.000794238
32 *97:42 *229:8 4.35141e-05
33 uio_out[0] *97:42 0.000178531
*RES
1 *7358:X *97:6 13.8 
2 *97:6 *97:10 45.3036 
3 *97:10 *97:12 57.2143 
4 *97:12 *7549:A 9.3 
5 *7358:X *97:34 45.8893 
6 *97:34 *97:42 31.3036 
7 *97:42 *7548:A 41.8893 
*END

*D_NET *98 0.0455331
*CONN
*I *7365:B I *D sky130_fd_sc_hd__and3_2
*I *7411:A I *D sky130_fd_sc_hd__and3_2
*I *7414:A I *D sky130_fd_sc_hd__and3_2
*I *7392:A1 I *D sky130_fd_sc_hd__a22o_2
*I *7383:B2 I *D sky130_fd_sc_hd__a22o_2
*I *7412:A I *D sky130_fd_sc_hd__and3_2
*I *7413:A I *D sky130_fd_sc_hd__and3_2
*I *7367:B I *D sky130_fd_sc_hd__and3_2
*I *799:DIODE I *D sky130_fd_sc_hd__diode_2
*I *7363:B I *D sky130_fd_sc_hd__and3_2
*I *7361:B I *D sky130_fd_sc_hd__and3_2
*I *7359:X O *D sky130_fd_sc_hd__and2_2
*CAP
1 *7365:B 9.07085e-05
2 *7411:A 0.000211348
3 *7414:A 5.64539e-05
4 *7392:A1 0.000241544
5 *7383:B2 4.92706e-05
6 *7412:A 1.7586e-05
7 *7413:A 0.000366087
8 *7367:B 0
9 *799:DIODE 0.000930082
10 *7363:B 0
11 *7361:B 0
12 *7359:X 0
13 *98:105 0.00115509
14 *98:95 0.00150816
15 *98:93 0.000798776
16 *98:91 0.000808251
17 *98:78 0.00140762
18 *98:63 0.00113546
19 *98:52 0.000185214
20 *98:36 0.00426288
21 *98:34 0.00537702
22 *98:18 0.00187609
23 *98:14 0.00279776
24 *98:10 0.00332842
25 *98:4 0.00436264
26 *799:DIODE *7367:A 2.89114e-05
27 *799:DIODE *8106:en 0.000829752
28 *7365:B *169:20 0.000130419
29 *7383:B2 *7396:A 5.33005e-05
30 *7383:B2 *116:12 5.41794e-05
31 *7383:B2 *216:24 5.59013e-05
32 *7392:A1 *797:DIODE 2.95726e-05
33 *7392:A1 *7388:A2 1.97381e-05
34 *7392:A1 *7392:B2 4.58976e-05
35 *7392:A1 *7396:A 0.000532958
36 *7392:A1 *124:36 3.17067e-05
37 *7411:A *205:44 0.000142856
38 *7411:A *205:55 0
39 *7412:A *7365:A 2.08464e-05
40 *7413:A *7367:A 0
41 *7413:A *7413:C 0
42 *7413:A *101:101 0.000166295
43 *7413:A *113:25 0
44 *7413:A *124:30 0
45 *7413:A *210:16 0
46 *7413:A *221:55 8.82021e-05
47 *7413:A *228:46 4.16021e-05
48 *7414:A *7382:A0 0.000139913
49 *7414:A *7713:A 0.00014183
50 *98:10 *7348:A 4.01768e-05
51 *98:10 *7359:B 0.000621798
52 *98:10 *7489:A 2.27416e-05
53 *98:10 *168:8 0.000624791
54 *98:10 *209:8 9.01258e-06
55 *98:10 *217:26 0.00022266
56 *98:10 *230:8 0.000102207
57 *98:14 *7357:A 0.000100942
58 *98:14 *209:8 8.04806e-06
59 *98:14 *209:14 0.000259631
60 *98:18 *7357:A 0.000117379
61 *98:18 *7361:A 0.000209611
62 *98:18 *167:8 0.000449539
63 *98:18 *209:14 0.00134165
64 *98:34 *229:12 1.43349e-05
65 *98:34 *229:14 0
66 *98:36 *8106:en 0.000376713
67 *98:36 *169:22 0.00168711
68 *98:52 *8106:en 0.000144773
69 *98:63 *7367:A 0
70 *98:63 *8106:en 5.52238e-05
71 *98:78 *7365:A 1.68715e-05
72 *98:78 *169:22 0.000882808
73 *98:91 *7365:A 0.000319793
74 *98:91 *7737:A 2.12087e-05
75 *98:91 *169:20 0.000397073
76 *98:95 *7367:C 0
77 *98:95 *7411:B 0
78 *98:95 *7698:A 0.000104974
79 *98:95 *102:74 5.99221e-05
80 *98:105 *7382:S1 0.000588349
81 *98:105 *7385:A3 0.000100757
82 *98:105 *7411:B 0
83 *98:105 *7804:A 0.000148903
84 *98:105 *8049:A 0.000176234
85 *98:105 *8066:A 0.000342495
86 *98:105 *102:74 0.000113868
87 *98:105 *116:12 0.00138314
88 *98:105 *216:24 0.000358861
89 *7548:A *98:10 0.000589176
*RES
1 *7359:X *98:4 9.3 
2 *98:4 *98:10 36.8214 
3 *98:10 *98:14 12.6696 
4 *98:14 *98:18 41.0089 
5 *98:18 *7361:B 9.3 
6 *98:10 *7363:B 9.3 
7 *98:4 *98:34 48.2857 
8 *98:34 *98:36 81.2411 
9 *98:36 *799:DIODE 29.2554 
10 *799:DIODE *98:52 10.6571 
11 *98:52 *7367:B 9.3 
12 *98:52 *98:63 6.07143 
13 *98:63 *7413:A 21.5143 
14 *98:63 *98:78 14.6964 
15 *98:78 *7412:A 9.72857 
16 *98:78 *98:91 11.5536 
17 *98:91 *98:93 4.5 
18 *98:93 *98:95 11.0536 
19 *98:95 *98:105 29.6786 
20 *98:105 *7383:B2 15.0679 
21 *98:105 *7392:A1 28.5857 
22 *98:95 *7414:A 15.5679 
23 *98:93 *7411:A 17.4071 
24 *98:91 *7365:B 10.6571 
*END

*D_NET *99 0.0227667
*CONN
*I *7411:B I *D sky130_fd_sc_hd__and3_2
*I *7407:A I *D sky130_fd_sc_hd__and3_2
*I *7399:A I *D sky130_fd_sc_hd__and3_2
*I *7403:A I *D sky130_fd_sc_hd__and3_2
*I *8115:A I *D sky130_fd_sc_hd__clkbuf_4
*I *7360:Y O *D sky130_fd_sc_hd__nor2_2
*CAP
1 *7411:B 0.00126307
2 *7407:A 0.000154737
3 *7399:A 0
4 *7403:A 9.89869e-05
5 *8115:A 0
6 *7360:Y 6.47017e-05
7 *99:45 0.00256177
8 *99:32 0.00124802
9 *99:21 0.000418532
10 *99:14 0.00196399
11 *99:8 0.00224418
12 *7403:A *7403:B 2.15245e-05
13 *7403:A *7403:C 5.52302e-05
14 *7403:A *204:82 2.22999e-05
15 *7407:A *7407:B 1.58163e-05
16 *7407:A *8066:A 2.59355e-05
17 *7407:A *205:61 2.79421e-05
18 *7411:B *7367:C 0.000357054
19 *7411:B *7382:S1 0.00115564
20 *7411:B *7385:S0 0.00129019
21 *7411:B *7720:A 5.72546e-05
22 *7411:B *7733:A 0.000121573
23 *7411:B *7745:A 6.88884e-05
24 *7411:B *101:101 2.65754e-05
25 *7411:B *205:44 1.56e-05
26 *99:8 *214:109 0.00014285
27 *99:14 *210:45 0.00172204
28 *99:14 *211:42 0.000342046
29 *99:21 *214:109 0.000756709
30 *99:21 *216:47 0.000708636
31 *99:32 *214:109 0.000389861
32 *99:32 *216:47 0.000381318
33 *99:45 *7382:S1 0.00062369
34 *99:45 *7385:A2 7.83659e-05
35 *99:45 *7385:S0 0.000584153
36 *99:45 *7396:B 0.000144657
37 *99:45 *7397:B1 0.00010326
38 *99:45 *7841:A 7.54384e-05
39 *99:45 *7977:A 0.000112451
40 *99:45 *7979:A 0.000167256
41 *99:45 *7980:A 4.19241e-05
42 *99:45 *118:130 1.9245e-05
43 *99:45 *118:141 0.00010841
44 *99:45 *214:109 0.00118709
45 *99:45 *214:120 0.000211441
46 *99:45 *214:139 0.00038774
47 *99:45 *216:47 0.00119861
48 *98:95 *7411:B 0
49 *98:105 *7411:B 0
*RES
1 *7360:Y *99:8 15.1571 
2 *99:8 *99:14 42.0536 
3 *99:14 *8115:A 9.3 
4 *99:8 *99:21 9.83929 
5 *99:21 *7403:A 15.5679 
6 *99:21 *99:32 4.98214 
7 *99:32 *7399:A 13.8 
8 *99:32 *99:45 43.0893 
9 *99:45 *7407:A 16.4071 
10 *99:45 *7411:B 45.9786 
*END

*D_NET *100 0.0585087
*CONN
*I *7400:A I *D sky130_fd_sc_hd__and3_2
*I *7412:B I *D sky130_fd_sc_hd__and3_2
*I *7408:A I *D sky130_fd_sc_hd__and3_2
*I *7404:A I *D sky130_fd_sc_hd__and3_2
*I *7363:C I *D sky130_fd_sc_hd__and3_2
*I *7424:B I *D sky130_fd_sc_hd__and3_2
*I *7420:B I *D sky130_fd_sc_hd__and3_2
*I *7416:B I *D sky130_fd_sc_hd__and3_2
*I *7362:X O *D sky130_fd_sc_hd__and2b_2
*CAP
1 *7400:A 0.00031141
2 *7412:B 0
3 *7408:A 0.000493297
4 *7404:A 0.00010298
5 *7363:C 0.00624021
6 *7424:B 0
7 *7420:B 0
8 *7416:B 0.000501398
9 *7362:X 9.52605e-05
10 *100:114 0.00178895
11 *100:89 0.00398194
12 *100:77 0.00259833
13 *100:64 0.00139643
14 *100:26 0.00133617
15 *100:24 0.00107692
16 *100:14 0.0143007
17 *100:8 0.00861981
18 *7363:C *7390:A1 9.97767e-06
19 *7400:A *7832:A 0.000107603
20 *7400:A *7834:A 7.79069e-05
21 *7404:A *7875:A 7.82904e-05
22 *7404:A *7904:A 0.000111776
23 *7408:A *7408:B 0.000126104
24 *7408:A *8088:A 3.00023e-05
25 *7408:A *8090:A 9.27788e-05
26 *7408:A *8091:A 9.56254e-05
27 *7408:A *8092:A 9.52792e-05
28 *7408:A *8093:A 7.66879e-05
29 *7408:A *8094:A 0.000159524
30 *7408:A *8095:A 7.61109e-05
31 *7416:B *7419:C 0.000754312
32 *7416:B *7420:C 1.32552e-05
33 *100:8 *216:49 5.65955e-05
34 *100:8 *216:55 9.83442e-05
35 *100:14 *7360:A 0
36 *100:14 *7391:S0 0.000593684
37 *100:14 *7391:S1 0.000813381
38 *100:14 *101:20 0.000397876
39 *100:14 *120:156 0.00033802
40 *100:14 *188:9 0.000615273
41 *100:14 *212:12 0.00100958
42 *100:14 *214:59 0.00486637
43 *100:14 *214:89 0.000118413
44 *100:24 *7391:A1 0
45 *100:24 *8110:en 3.8221e-05
46 *100:24 *118:22 7.6644e-05
47 *100:24 *179:14 3.92854e-05
48 *100:26 *7420:C 6.62761e-06
49 *100:26 *8110:en 0.00123123
50 *100:26 *209:77 1.02439e-05
51 *100:64 *7896:A 0
52 *100:64 *7906:B 0
53 *100:77 *7878:A 4.88847e-05
54 *100:77 *7888:A 0
55 *100:89 *7381:A2 0
56 *100:89 *7395:A2 0.00110723
57 *100:89 *7395:B2 1.95045e-05
58 *100:89 *7405:C 0.000146311
59 *100:89 *7623:A 0
60 *100:89 *7624:A 0
61 *100:89 *7630:A 0
62 *100:89 *7637:A 0
63 *100:89 *7639:A 4.57445e-05
64 *100:89 *7813:A 0
65 *100:89 *7840:A 0
66 *100:89 *7845:A 4.03318e-05
67 *100:89 *7872:A 1.24368e-05
68 *100:89 *7973:A 0.000128146
69 *100:89 *7987:A 0
70 *100:89 *7988:A 0.00015234
71 *100:89 *7989:A 0.000107503
72 *100:89 *8067:A 0.000129868
73 *100:89 *102:40 0
74 *100:89 *780:14 9.59532e-06
75 *100:114 *7382:S0 0.000187616
76 *100:114 *7395:A2 0
77 *100:114 *7408:B 2.65014e-05
78 *100:114 *7718:A 0.000134557
79 *100:114 *7727:A 3.25078e-05
80 *100:114 *7730:A 0
81 *100:114 *7746:A 5.80706e-06
82 *100:114 *7759:A 0
83 *100:114 *7763:A 0.000267472
84 *100:114 *7777:A 0.000109809
85 *100:114 *7779:A 0
86 *100:114 *7783:A 4.79842e-05
87 *100:114 *7808:A 0.000153054
88 *100:114 *8067:A 0.000164314
89 *100:114 *8068:A 0.000109195
90 *100:114 *8070:A 1.00332e-05
91 *100:114 *8073:A 0
92 *100:114 *8075:A 4.57538e-05
93 *100:114 *8078:A 0
94 *100:114 *8095:A 3.00023e-05
95 *100:114 *8096:A 9.57215e-05
96 *100:114 *205:25 7.6644e-05
97 uio_out[0] *7363:C 4.99344e-06
*RES
1 *7362:X *100:8 15.1571 
2 *100:8 *100:14 31.3452 
3 *100:14 *100:24 10.9585 
4 *100:24 *100:26 12.4464 
5 *100:26 *7416:B 16.8179 
6 *100:26 *7420:B 9.3 
7 *100:24 *7424:B 9.3 
8 *100:14 *7363:C 47.2774 
9 *100:8 *100:64 11.9643 
10 *100:64 *7404:A 15.9786 
11 *100:64 *100:77 14.3393 
12 *100:77 *100:89 45.5 
13 *100:89 *7408:A 18.8714 
14 *100:89 *100:114 44.125 
15 *100:114 *7412:B 9.3 
16 *100:77 *7400:A 14.3536 
*END

*D_NET *101 0.0359237
*CONN
*I *7405:A I *D sky130_fd_sc_hd__and3_2
*I *7425:B I *D sky130_fd_sc_hd__and3_2
*I *7365:C I *D sky130_fd_sc_hd__and3_2
*I *7413:B I *D sky130_fd_sc_hd__and3_2
*I *7409:A I *D sky130_fd_sc_hd__and3_2
*I *7401:A I *D sky130_fd_sc_hd__and3_2
*I *7421:B I *D sky130_fd_sc_hd__and3_2
*I *7417:B I *D sky130_fd_sc_hd__and3_2
*I *7364:X O *D sky130_fd_sc_hd__and2b_2
*CAP
1 *7405:A 4.30516e-05
2 *7425:B 0.000226109
3 *7365:C 0
4 *7413:B 0
5 *7409:A 2.17614e-05
6 *7401:A 4.00275e-05
7 *7421:B 0
8 *7417:B 0.000531283
9 *7364:X 5.10376e-05
10 *101:101 0.00147568
11 *101:80 0.00288524
12 *101:69 0.00160833
13 *101:65 0.000919708
14 *101:59 0.00149306
15 *101:44 0.00175804
16 *101:28 0.000584279
17 *101:22 0.00494284
18 *101:20 0.00631959
19 *101:8 0.00226538
20 *7405:A *221:55 4.46618e-05
21 *7409:A *118:79 9.71197e-05
22 *7409:A *210:31 9.71197e-05
23 *7417:B *7391:S1 0.000134008
24 *7417:B *120:37 2.89114e-05
25 *7417:B *211:8 1.33343e-05
26 *7417:B *211:27 0.000289246
27 *7425:B *7406:B 0.000222666
28 *7425:B *7997:A 2.38951e-05
29 *101:8 *7364:A_N 0.000131439
30 *101:8 *214:80 6.20656e-05
31 *101:20 *7364:A_N 0.00010096
32 *101:20 *120:60 8.57539e-05
33 *101:20 *120:64 0
34 *101:20 *125:12 0
35 *101:20 *212:12 0
36 *101:22 *102:12 0.0011895
37 *101:22 *125:12 0.0035449
38 *101:28 *120:16 7.6644e-05
39 *101:44 *210:41 0
40 *101:44 *214:59 4.50033e-05
41 *101:59 *7856:A 0.000153047
42 *101:59 *7857:A 4.23086e-05
43 *101:59 *7865:A 4.79842e-05
44 *101:59 *7874:B 0
45 *101:59 *7981:A 0.000153054
46 *101:59 *7992:A 6.39262e-05
47 *101:59 *8002:B 3.71247e-05
48 *101:59 *204:31 0
49 *101:59 *210:41 0
50 *101:59 *221:55 2.49484e-05
51 *101:65 *7995:A 0.000138172
52 *101:65 *7996:A 3.72958e-05
53 *101:65 *7997:A 1.4024e-05
54 *101:65 *8002:B 2.70899e-05
55 *101:65 *221:55 0.000222704
56 *101:69 *7408:C 9.69119e-06
57 *101:69 *204:12 0.000150847
58 *101:69 *221:55 0
59 *101:80 *7397:B2 0
60 *101:80 *7408:C 0.000220179
61 *101:80 *7642:A 5.86416e-05
62 *101:80 *7647:A 5.26091e-05
63 *101:80 *7774:A 5.35423e-05
64 *101:80 *7775:A 0.000175795
65 *101:80 *7778:A 0.000316031
66 *101:80 *7778:B 0.000318339
67 *101:80 *8084:A 3.01126e-05
68 *101:80 *8085:A 8.06427e-05
69 *101:80 *8088:A 0.000150618
70 *101:80 *8098:A 6.6593e-05
71 *101:80 *113:25 0
72 *101:80 *204:10 3.57844e-05
73 *101:80 *204:12 5.33978e-05
74 *101:80 *221:55 0
75 *101:101 *7365:A 0.000352663
76 *101:101 *7715:A 5.33783e-05
77 *101:101 *7716:A 5.33783e-05
78 *101:101 *7717:A 5.33783e-05
79 *101:101 *7718:A 7.41811e-05
80 *101:101 *7730:A 1.62049e-05
81 *101:101 *7731:A 0.000118925
82 *101:101 *7732:A 4.02348e-05
83 *101:101 *7733:A 3.63281e-05
84 *101:101 *7744:A 1.67305e-05
85 *101:101 *7778:A 1.02504e-05
86 *101:101 *7778:B 2.31791e-05
87 *101:101 *113:12 6.05161e-06
88 *101:101 *113:25 9.31893e-05
89 *101:101 *124:30 0.0002526
90 *101:101 *169:20 2.65105e-05
91 *101:101 *205:25 1.00073e-05
92 *101:101 *205:44 8.6229e-06
93 *101:101 *221:55 0
94 *7411:B *101:101 2.65754e-05
95 *7413:A *101:101 0.000166295
96 *100:14 *101:20 0.000397876
*RES
1 *7364:X *101:8 11.0857 
2 *101:8 *101:20 36.25 
3 *101:20 *101:22 71.5893 
4 *101:22 *101:28 10.0357 
5 *101:28 *7417:B 16.8179 
6 *101:28 *7421:B 9.3 
7 *101:8 *101:44 18.5893 
8 *101:44 *7401:A 14.3357 
9 *101:44 *101:59 19.1518 
10 *101:59 *101:65 14.3482 
11 *101:65 *101:69 8.26786 
12 *101:69 *7409:A 14.7464 
13 *101:69 *101:80 31.3929 
14 *101:80 *7413:B 13.8 
15 *101:80 *101:101 41 
16 *101:101 *7365:C 9.3 
17 *101:65 *7425:B 12.3 
18 *101:59 *7405:A 14.9161 
*END

*D_NET *102 0.0344238
*CONN
*I *7402:A I *D sky130_fd_sc_hd__and3_2
*I *7426:B I *D sky130_fd_sc_hd__and3_2
*I *7367:C I *D sky130_fd_sc_hd__and3_2
*I *7414:B I *D sky130_fd_sc_hd__and3_2
*I *7410:A I *D sky130_fd_sc_hd__and3_2
*I *7406:A I *D sky130_fd_sc_hd__and3_2
*I *7422:B I *D sky130_fd_sc_hd__and3_2
*I *7418:B I *D sky130_fd_sc_hd__and3_2
*I *7366:X O *D sky130_fd_sc_hd__and2_2
*CAP
1 *7402:A 2.65312e-05
2 *7426:B 0.00074825
3 *7367:C 0.00136377
4 *7414:B 7.34394e-05
5 *7410:A 0.000379183
6 *7406:A 6.07393e-05
7 *7422:B 0
8 *7418:B 0.000534241
9 *7366:X 0
10 *102:74 0.0021803
11 *102:59 0.00162037
12 *102:44 0.00079835
13 *102:40 0.00252253
14 *102:36 0.00220213
15 *102:18 0.000628201
16 *102:12 0.0017808
17 *102:6 0.00232769
18 *7367:C *7691:A 0.000123288
19 *7367:C *7698:A 3.34672e-05
20 *7367:C *7737:A 8.21617e-05
21 *7367:C *7740:A 0.000111825
22 *7367:C *7741:A 9.57215e-05
23 *7367:C *7742:A 6.55592e-05
24 *7367:C *7746:A 0.000141734
25 *7367:C *7746:B 5.03808e-05
26 *7367:C *8106:en 0.00010096
27 *7367:C *169:20 0.000687816
28 *7367:C *205:44 0.000288624
29 *7367:C *205:55 0.000385956
30 *7402:A *204:54 1.40415e-05
31 *7406:A *7979:A 8.33504e-05
32 *7406:A *8034:A 1.97695e-05
33 *7406:A *120:92 5.33005e-05
34 *7406:A *120:104 8.54072e-05
35 *7410:A *7408:B 3.5479e-06
36 *7410:A *7410:C 5.49544e-05
37 *7410:A *7661:A 1.4487e-05
38 *7410:A *7682:A 0.000181803
39 *7414:B *7713:A 3.67142e-05
40 *7418:B *120:39 0.000794121
41 *7418:B *120:60 5.52302e-05
42 *7426:B *7395:A2 0.000151291
43 *7426:B *7409:B 9.90431e-05
44 *7426:B *7641:A 5.99725e-05
45 *7426:B *7650:A 0.00014183
46 *7426:B *7650:B 2.48262e-05
47 *7426:B *8000:A 3.84385e-05
48 *7426:B *118:94 2.15245e-05
49 *7426:B *165:14 0
50 *7426:B *166:12 7.61932e-05
51 *7426:B *210:31 0.00017138
52 *7426:B *228:59 0
53 *102:12 *125:12 0.00441988
54 *102:12 *210:41 0
55 *102:12 *211:46 0
56 *102:12 *214:80 4.64488e-06
57 *102:36 *204:54 5.05484e-05
58 *102:36 *210:41 0
59 *102:36 *211:46 0
60 *102:36 *214:80 0
61 *102:40 *7395:A2 8.11028e-06
62 *102:40 *7845:A 0.000125724
63 *102:40 *7847:A 0.000148903
64 *102:40 *7864:A 0
65 *102:40 *7867:A 0
66 *102:40 *7872:A 0
67 *102:40 *7888:A 0
68 *102:40 *7890:A 0
69 *102:40 *7894:A 0.000125724
70 *102:40 *7895:A 2.82057e-05
71 *102:40 *7971:A 0
72 *102:40 *7972:A 0.000123589
73 *102:40 *7989:A 0.000109809
74 *102:40 *8000:A 8.45492e-06
75 *102:40 *204:54 0
76 *102:40 *210:41 0
77 *102:40 *211:46 2.8266e-06
78 *102:40 *211:57 0.000112758
79 *102:40 *228:59 0
80 *102:44 *7395:A2 0.000232564
81 *102:44 *7406:B 0.00126387
82 *102:44 *7972:A 7.18982e-05
83 *102:44 *7973:A 8.71761e-06
84 *102:44 *7979:A 0.000195235
85 *102:44 *118:130 0.000455792
86 *102:44 *120:104 3.36959e-05
87 *102:59 *7385:A0 0
88 *102:59 *7385:A1 0.000175505
89 *102:59 *7388:A2 0
90 *102:59 *7388:B1 0.00020042
91 *102:59 *7389:B 0.000134608
92 *102:59 *8034:A 2.89114e-05
93 *102:59 *116:12 0.000723806
94 *102:59 *120:92 2.05612e-05
95 *102:59 *211:106 0.000318316
96 *102:59 *216:24 5.56962e-05
97 *102:74 *7682:B 0
98 *102:74 *7800:A 8.39e-05
99 *102:74 *7802:A 0.000347354
100 *102:74 *8056:A 0.000154762
101 *102:74 *116:12 0.0013334
102 *102:74 *205:55 0
103 *102:74 *205:61 0
104 *7411:B *7367:C 0.000357054
105 *98:95 *7367:C 0
106 *98:95 *102:74 5.99221e-05
107 *98:105 *102:74 0.000113868
108 *100:89 *102:40 0
109 *101:22 *102:12 0.0011895
*RES
1 *7366:X *102:6 13.8 
2 *102:6 *102:12 48.9643 
3 *102:12 *102:18 10.3393 
4 *102:18 *7418:B 17.2286 
5 *102:18 *7422:B 9.3 
6 *102:6 *102:36 15.8036 
7 *102:36 *102:40 34.375 
8 *102:40 *102:44 16.9464 
9 *102:44 *7406:A 11.2509 
10 *102:44 *102:59 19.6429 
11 *102:59 *7410:A 18.4607 
12 *102:59 *102:74 22.0179 
13 *102:74 *7414:B 14.7464 
14 *102:74 *7367:C 47.6214 
15 *102:40 *7426:B 28.675 
16 *102:36 *7402:A 9.83571 
*END

*D_NET *103 0.0198461
*CONN
*I *7468:A I *D sky130_fd_sc_hd__nor3_2
*I *7461:B1 I *D sky130_fd_sc_hd__a21oi_2
*I *7465:A I *D sky130_fd_sc_hd__nor3_2
*I *7547:A I *D sky130_fd_sc_hd__clkdlybuf4s25_1
*I *7368:X O *D sky130_fd_sc_hd__and2b_2
*CAP
1 *7468:A 0
2 *7461:B1 0.000439721
3 *7465:A 0.000309462
4 *7547:A 0.000205138
5 *7368:X 0.00184109
6 *103:51 0.00135482
7 *103:33 0.00137906
8 *103:27 0.0039563
9 *103:23 0.00332165
10 *103:10 0.00218501
11 *7461:B1 *7461:A2 0.000227539
12 *7461:B1 *7462:B1 5.65955e-05
13 *7461:B1 *7463:A2 0.000358971
14 *7461:B1 *7469:B 1.5424e-05
15 *7461:B1 *795:20 0.00012765
16 *7461:B1 *795:22 4.58976e-05
17 *7465:A *7465:B 0.000178101
18 *7465:A *7465:C 3.15739e-05
19 *7465:A *7469:C 2.09826e-05
20 *7465:A *7469:D 2.56694e-05
21 *7547:A *7377:A 0
22 *7547:A *7531:RESET_B 0
23 *7547:A *7555:A 0
24 *7547:A *162:25 0
25 *7547:A *197:27 0
26 *7547:A *198:16 2.26424e-05
27 *7547:A *222:12 0.00010326
28 *103:10 *7484:A1 0.00014285
29 *103:10 *7484:A2 3.48705e-05
30 *103:10 *112:12 2.65105e-05
31 *103:23 *7377:A 0
32 *103:23 *7484:B1 2.56295e-05
33 *103:23 *222:12 9.25014e-06
34 *103:27 *111:37 0.000750562
35 *103:27 *196:97 0.000738644
36 *103:33 *7472:A2 0.000465823
37 *103:33 *7472:C1 0
38 *103:33 *7521:CLK 0
39 *103:33 *7521:RESET_B 0
40 *103:33 *7529:RESET_B 0.0001531
41 *103:33 *155:24 0
42 *103:33 *196:33 4.37917e-05
43 *103:33 *208:105 9.24395e-05
44 *103:33 *789:10 0
45 *103:33 *789:16 0
46 *103:51 *7467:B 9.60939e-05
47 *103:51 *7469:B 7.77652e-05
48 *103:51 *7472:A2 0.000129616
49 *103:51 *152:18 0.000126784
50 *103:51 *153:10 0.000205842
51 *103:51 *199:8 0.000134184
52 *103:51 *782:25 0
53 *7528:D *103:51 0.000184745
54 *7529:D *103:33 0.000107749
55 *7533:D *7547:A 9.32966e-05
*RES
1 *7368:X *103:10 42.6929 
2 *103:10 *7547:A 18.4786 
3 *103:10 *103:23 6.75 
4 *103:23 *103:27 47.75 
5 *103:27 *103:33 21.2857 
6 *103:33 *103:51 22.875 
7 *103:51 *7465:A 24.425 
8 *103:51 *7461:B1 18.4964 
9 *103:33 *7468:A 9.3 
*END

*D_NET *104 0.019401
*CONN
*I *7483:B1 I *D sky130_fd_sc_hd__o21ai_2
*I *7447:A I *D sky130_fd_sc_hd__and3_2
*I *7472:C1 I *D sky130_fd_sc_hd__o211a_2
*I *7479:A2 I *D sky130_fd_sc_hd__a31o_2
*I *7478:A I *D sky130_fd_sc_hd__and4_2
*I *7436:B1 I *D sky130_fd_sc_hd__o21a_2
*I *7398:B I *D sky130_fd_sc_hd__and2_2
*I *7369:Y O *D sky130_fd_sc_hd__nand2b_2
*CAP
1 *7483:B1 0.000240327
2 *7447:A 0
3 *7472:C1 0.000352414
4 *7479:A2 1.77153e-05
5 *7478:A 0.00022436
6 *7436:B1 0
7 *7398:B 0.00060173
8 *7369:Y 0.000276552
9 *104:78 0.00226436
10 *104:61 0.0022206
11 *104:42 0.000975745
12 *104:38 0.00210139
13 *104:23 0.00193499
14 *104:10 0.00141266
15 *7398:B *7398:A 5.49489e-05
16 *7398:B *7551:A 8.97354e-05
17 *7398:B *215:10 3.18676e-05
18 *7398:B *234:8 2.36643e-05
19 *7472:C1 *7447:C 5.15208e-05
20 *7472:C1 *7474:A2 0.000105163
21 *7472:C1 *7521:CLK 0.000177492
22 *7472:C1 *7521:RESET_B 0.000134329
23 *7472:C1 *154:18 0.000605828
24 *7472:C1 *196:33 0
25 *7472:C1 *202:35 0.000234893
26 *7478:A *7478:C 8.89094e-05
27 *7478:A *7479:B1 2.68976e-05
28 *7478:A *112:12 7.69776e-06
29 *7478:A *197:47 2.30116e-06
30 *7478:A *206:37 6.34053e-05
31 *7479:A2 *7479:A1 4.37992e-05
32 *7479:A2 *206:20 4.24541e-05
33 *7483:B1 *162:25 0.000133408
34 *104:10 *7393:S0 0
35 *104:10 *202:35 0
36 *104:10 *221:14 0
37 *104:23 *7436:A1 0.000188586
38 *104:23 *215:10 2.14658e-05
39 *104:38 *7436:A1 0.000144773
40 *104:38 *7436:A2 0.00142457
41 *104:38 *7532:RESET_B 0.000396117
42 *104:38 *110:14 0.00024029
43 *104:38 *162:25 1.09732e-05
44 *104:38 *208:10 7.55769e-05
45 *104:42 *7377:A 0.000825193
46 *104:42 *7476:A 0
47 *104:42 *154:38 0
48 *104:42 *206:20 6.67536e-05
49 *104:61 *206:20 0.000166414
50 *104:78 *7376:A4 0
51 *104:78 *7447:B 3.59221e-05
52 *104:78 *7447:C 4.6025e-06
53 *104:78 *106:18 0.000491542
54 *104:78 *154:38 0
55 *104:78 *202:35 0
56 *7435:A *104:38 7.00073e-05
57 *7517:D *104:23 0.000134184
58 *3:30 *7398:B 0.000122494
59 *3:30 *104:38 0.000430329
60 *3:30 *104:61 1.00609e-05
61 *103:33 *7472:C1 0
*RES
1 *7369:Y *104:10 22.675 
2 *104:10 *7398:B 20.2464 
3 *104:10 *104:23 10.3929 
4 *104:23 *7436:B1 9.3 
5 *104:23 *104:38 31.9196 
6 *104:38 *104:42 4.82627 
7 *104:42 *7478:A 20.9154 
8 *104:42 *104:61 0.4794 
9 *104:61 *7479:A2 17.7904 
10 *104:61 *104:78 8.92704 
11 *104:78 *7472:C1 26.6574 
12 *104:78 *7447:A 13.8 
13 *104:38 *7483:B1 18.6304 
*END

*D_NET *105 0.00181161
*CONN
*I *7457:A I *D sky130_fd_sc_hd__and3_2
*I *7470:A I *D sky130_fd_sc_hd__and4_2
*I *7370:X O *D sky130_fd_sc_hd__and2_2
*CAP
1 *7457:A 0.000145375
2 *7470:A 0.000162085
3 *7370:X 0.000471254
4 *105:6 0.000778714
5 *7457:A *7373:D_N 0
6 *7457:A *7457:B 9.25014e-06
7 *7457:A *7470:C 2.74584e-05
8 *7457:A *145:8 0
9 *7457:A *154:18 2.06178e-05
10 *7457:A *208:117 0
11 *7470:A *7469:C 5.33005e-05
12 *7470:A *7470:D 7.15962e-05
13 *105:6 *7371:B 7.1959e-05
*RES
1 *7370:X *105:6 16.4071 
2 *105:6 *7470:A 12.3 
3 *105:6 *7457:A 20.8536 
*END

*D_NET *106 0.00970859
*CONN
*I *7375:A I *D sky130_fd_sc_hd__or4_2
*I *7376:A1 I *D sky130_fd_sc_hd__o41a_2
*I *7371:Y O *D sky130_fd_sc_hd__nand4_2
*CAP
1 *7375:A 0
2 *7376:A1 5.41535e-05
3 *7371:Y 0.00242784
4 *106:18 0.002482
5 *7376:A1 *7375:C 6.89313e-05
6 *7376:A1 *7375:D 5.2714e-05
7 *7376:A1 *7376:A3 0.000178046
8 *7376:A1 *110:14 3.49788e-05
9 *106:18 *7371:B 5.26291e-05
10 *106:18 *7511:RESET_B 2.09897e-05
11 *106:18 *108:10 0.000243851
12 *106:18 *145:8 0
13 *106:18 *154:18 0.00339071
14 *106:18 *196:71 8.23597e-06
15 *106:18 *202:35 0.000201961
16 *104:78 *106:18 0.000491542
*RES
1 *7371:Y *106:18 34.4604 
2 *106:18 *7376:A1 12.05 
3 *106:18 *7375:A 9.3 
*END

*D_NET *107 0.00262852
*CONN
*I *7376:A2 I *D sky130_fd_sc_hd__o41a_2
*I *7375:B I *D sky130_fd_sc_hd__or4_2
*I *7372:X O *D sky130_fd_sc_hd__or4b_2
*CAP
1 *7376:A2 8.83335e-05
2 *7375:B 0.000810913
3 *7372:X 0.00072258
4 *7375:B *7438:A1 2.79421e-05
5 *7375:B *7439:A2 1.24368e-05
6 *7375:B *7439:B1 0.00040279
7 *7375:B *108:10 1.90111e-05
8 *7375:B *110:14 9.90367e-05
9 *7375:B *154:30 0.000200626
10 *7375:B *196:71 9.79406e-05
11 *7375:B *206:91 0
12 *7375:B *781:53 2.13481e-06
13 *7376:A2 *110:14 0.000144773
*RES
1 *7372:X *7375:B 38.2071 
2 *7375:B *7376:A2 19.9571 
*END

*D_NET *108 0.00651532
*CONN
*I *7376:A3 I *D sky130_fd_sc_hd__o41a_2
*I *7375:C I *D sky130_fd_sc_hd__or4_2
*I *7373:X O *D sky130_fd_sc_hd__or4b_2
*CAP
1 *7376:A3 0.00025485
2 *7375:C 4.92459e-05
3 *7373:X 0.00204585
4 *108:10 0.00234994
5 *7375:C *7375:D 0
6 *7375:C *7439:A2 3.99614e-06
7 *7375:C *110:14 9.90431e-05
8 *7376:A3 *7375:D 0.000113089
9 *108:10 *7373:D_N 5.17614e-05
10 *108:10 *7439:A1 5.52238e-05
11 *108:10 *7439:A2 1.39841e-05
12 *108:10 *7473:A2 0.000142856
13 *108:10 *7528:RESET_B 0.000136182
14 *108:10 *7559:A 2.52796e-05
15 *108:10 *110:14 1.39726e-05
16 *108:10 *154:30 0.000156024
17 *108:10 *196:33 0.000374397
18 *108:10 *199:51 4.5416e-05
19 *108:10 *783:23 8.0786e-06
20 *7375:B *108:10 1.90111e-05
21 *7376:A1 *7375:C 6.89313e-05
22 *7376:A1 *7376:A3 0.000178046
23 *7529:D *108:10 6.62868e-05
24 *106:18 *108:10 0.000243851
*RES
1 *7373:X *108:10 37.4964 
2 *108:10 *7375:C 10.9786 
3 *108:10 *7376:A3 13.9964 
*END

*D_NET *109 0.00361288
*CONN
*I *7375:D I *D sky130_fd_sc_hd__or4_2
*I *7376:A4 I *D sky130_fd_sc_hd__o41a_2
*I *7374:X O *D sky130_fd_sc_hd__or4_2
*CAP
1 *7375:D 5.49056e-05
2 *7376:A4 0.000922425
3 *7374:X 0.000867519
4 *7375:D *110:14 0.000232399
5 *7376:A4 *7376:B1 0.000114845
6 *7376:A4 *7378:B 1.90936e-05
7 *7376:A4 *7481:D 2.88045e-05
8 *7376:A4 *7511:RESET_B 0
9 *7376:A4 *157:20 2.89016e-05
10 *7376:A4 *197:47 2.04825e-05
11 *7376:A4 *202:35 0.00099087
12 *7376:A4 *206:45 0.000132258
13 *7376:A4 *785:10 1.80611e-05
14 *7375:C *7375:D 0
15 *7376:A1 *7375:D 5.2714e-05
16 *7376:A3 *7375:D 0.000113089
17 *3:30 *7376:A4 1.65128e-05
18 *104:78 *7376:A4 0
*RES
1 *7374:X *7376:A4 40.1775 
2 *7376:A4 *7375:D 21.2071 
*END

*D_NET *110 0.00557815
*CONN
*I *7435:B I *D sky130_fd_sc_hd__nor2_2
*I *7375:X O *D sky130_fd_sc_hd__or4_2
*CAP
1 *7435:B 0
2 *7375:X 0.0020765
3 *110:14 0.0020765
4 *110:14 *7478:C 0.000137733
5 *110:14 *7478:D 4.83486e-05
6 *110:14 *7532:RESET_B 0.000125628
7 *110:14 *111:12 9.60875e-05
8 *110:14 *786:6 7.77652e-05
9 *110:14 *786:17 1.98839e-05
10 *7375:B *110:14 9.90367e-05
11 *7375:C *110:14 9.90431e-05
12 *7375:D *110:14 0.000232399
13 *7376:A1 *110:14 3.49788e-05
14 *7376:A2 *110:14 0.000144773
15 *7435:A *110:14 5.52238e-05
16 *104:38 *110:14 0.00024029
17 *108:10 *110:14 1.39726e-05
*RES
1 *7375:X *110:14 40.7107 
2 *110:14 *7435:B 9.3 
*END

*D_NET *111 0.0070923
*CONN
*I *7546:A I *D sky130_fd_sc_hd__clkdlybuf4s25_1
*I *7545:A I *D sky130_fd_sc_hd__clkdlybuf4s25_1
*I *7376:X O *D sky130_fd_sc_hd__o41a_2
*CAP
1 *7546:A 0.000435275
2 *7545:A 4.45179e-05
3 *7376:X 0.000322625
4 *111:37 0.00202166
5 *111:12 0.00195353
6 *7545:A *7437:A1 7.77888e-05
7 *7545:A *208:54 9.90367e-05
8 *7545:A *208:61 5.88445e-05
9 *7546:A *7448:B1 9.90431e-05
10 *7546:A *7450:C 9.71197e-05
11 *7546:A *7522:CLK 6.42338e-05
12 *7546:A *7541:A 0
13 *7546:A *196:55 0.000111815
14 *111:12 *7376:B1 8.07951e-05
15 *111:12 *7511:RESET_B 0
16 *111:12 *154:38 2.82057e-05
17 *111:12 *196:97 5.53592e-05
18 *111:12 *208:54 0.000406861
19 *111:12 *219:117 0
20 *111:37 *154:38 5.19266e-05
21 *111:37 *196:97 0.000237018
22 *103:27 *111:37 0.000750562
23 *110:14 *111:12 9.60875e-05
*RES
1 *7376:X *111:12 21.175 
2 *111:12 *7545:A 15.7598 
3 *111:12 *111:37 46.4464 
4 *111:37 *7546:A 22.7643 
*END

*D_NET *112 0.00494393
*CONN
*I *7479:A3 I *D sky130_fd_sc_hd__a31o_2
*I *7480:A1 I *D sky130_fd_sc_hd__o21ba_2
*I *7377:Y O *D sky130_fd_sc_hd__inv_2
*CAP
1 *7479:A3 0.000156022
2 *7480:A1 0.000103218
3 *7377:Y 0.00133028
4 *112:12 0.00158952
5 *7479:A3 *7479:B1 5.49489e-05
6 *7479:A3 *196:73 9.77264e-06
7 *7480:A1 *196:73 1.39841e-05
8 *7480:A1 *197:12 5.33005e-05
9 *7480:A1 *197:47 0.00012265
10 *7480:A1 *785:10 0.000145116
11 *112:12 *7484:A2 0.000331128
12 *112:12 *7484:B1 5.52302e-05
13 *112:12 *7558:A 6.8646e-06
14 *112:12 *158:12 0.000358971
15 *112:12 *162:25 1.39726e-05
16 *112:12 *198:16 5.58128e-05
17 *112:12 *206:20 0
18 *112:12 *219:100 3.00941e-05
19 *112:12 *785:10 4.04691e-06
20 *7478:A *112:12 7.69776e-06
21 *7531:D *7479:A3 0.000224348
22 *7531:D *7480:A1 5.52238e-05
23 *7531:D *112:12 0.000195205
24 *103:10 *112:12 2.65105e-05
*RES
1 *7377:Y *112:12 37.7643 
2 *112:12 *7480:A1 21.1929 
3 *112:12 *7479:A3 12.3 
*END

*D_NET *113 0.0166024
*CONN
*I *7543:A I *D sky130_fd_sc_hd__clkdlybuf4s25_1
*I *7544:A I *D sky130_fd_sc_hd__clkdlybuf4s25_1
*I *7379:Y O *D sky130_fd_sc_hd__nor2_2
*CAP
1 *7543:A 0
2 *7544:A 0
3 *7379:Y 0
4 *113:25 0.00170589
5 *113:12 0.0043757
6 *113:10 0.0043435
7 *113:6 0.0016737
8 *113:10 *7340:A 0
9 *113:10 *7358:A 0.000127439
10 *113:10 *7358:B 0
11 *113:12 *124:14 0
12 *113:12 *182:17 0.00189812
13 *113:12 *195:9 0
14 *113:12 *228:46 1.21258e-05
15 *113:25 *7397:B2 1.02504e-05
16 *113:25 *7413:C 9.55094e-05
17 *113:25 *7647:A 0.000151333
18 *113:25 *7756:A 6.39262e-05
19 *113:25 *7757:A 0.000121411
20 *113:25 *7778:A 0.000107929
21 *113:25 *8084:A 0.000151333
22 *113:25 *8085:A 4.00025e-05
23 *113:25 *8088:A 5.03787e-05
24 *113:25 *127:16 0.000245773
25 *113:25 *228:59 0
26 *7413:A *113:25 0
27 *97:10 *113:10 0.00132881
28 *97:12 *113:12 0
29 *101:80 *113:25 0
30 *101:101 *113:12 6.05161e-06
31 *101:101 *113:25 9.31893e-05
*RES
1 *7379:Y *113:6 13.8 
2 *113:6 *113:10 49.8571 
3 *113:10 *113:12 60.5 
4 *113:12 *7544:A 9.3 
5 *113:12 *113:25 44.8929 
6 *113:25 *7543:A 9.3 
*END

*D_NET *114 0.0151519
*CONN
*I *7416:C I *D sky130_fd_sc_hd__and3_2
*I *7415:C I *D sky130_fd_sc_hd__and3_2
*I *7571:A I *D sky130_fd_sc_hd__buf_2
*I *7380:Y O *D sky130_fd_sc_hd__nor2_2
*CAP
1 *7416:C 0
2 *7415:C 0.000846181
3 *7571:A 0.000191411
4 *7380:Y 0.000344917
5 *114:34 0.00108523
6 *114:28 0.00104309
7 *114:26 0.000957543
8 *7415:C *209:62 0.000871124
9 *7415:C *209:69 9.90367e-05
10 *7571:A *7380:B 5.00663e-05
11 *7571:A *209:98 0.000144773
12 *114:26 *7380:A 2.61337e-05
13 *114:26 *118:51 0
14 *114:26 *229:22 4.78056e-05
15 *114:28 *125:12 0.00245419
16 *114:28 *180:9 0.00157603
17 *114:28 *212:12 0.00540988
18 *114:34 *171:10 4.46186e-06
*RES
1 *7380:Y *7571:A 21.7473 
2 *7380:Y *114:26 20.8536 
3 *114:26 *114:28 51.0536 
4 *114:28 *114:34 12.4643 
5 *114:34 *7415:C 25.9964 
6 *114:34 *7416:C 9.3 
*END

*D_NET *115 0.00197141
*CONN
*I *7383:A2 I *D sky130_fd_sc_hd__a22o_2
*I *7381:X O *D sky130_fd_sc_hd__mux4_2
*CAP
1 *7383:A2 0.000621627
2 *7381:X 0.000621627
3 *7383:A2 *7388:A2 6.04162e-05
4 *7383:A2 *7389:B 0.000114111
5 *7383:A2 *7392:B2 0.000115143
6 *7383:A2 *7396:A 0.000115143
7 *7383:A2 *125:16 0
8 *7383:A2 *211:106 0.000323341
*RES
1 *7381:X *7383:A2 42.5107 
*END

*D_NET *116 0.00556961
*CONN
*I *7383:B1 I *D sky130_fd_sc_hd__a22o_2
*I *7382:X O *D sky130_fd_sc_hd__mux4_2
*CAP
1 *7383:B1 0
2 *7382:X 0.000852327
3 *116:12 0.000852327
4 *116:12 *7382:S1 2.79421e-05
5 *116:12 *8066:A 0.000342495
6 *7383:B2 *116:12 5.41794e-05
7 *98:105 *116:12 0.00138314
8 *102:59 *116:12 0.000723806
9 *102:74 *116:12 0.0013334
*RES
1 *7382:X *116:12 47.1214 
2 *116:12 *7383:B1 9.3 
*END

*D_NET *117 0.000312954
*CONN
*I *7389:A I *D sky130_fd_sc_hd__or2_2
*I *7383:X O *D sky130_fd_sc_hd__a22o_2
*CAP
1 *7389:A 7.82644e-05
2 *7383:X 7.82644e-05
3 *7389:A *7388:A2 0
4 *7389:A *7389:B 0.000150618
5 *7389:A *7396:A 5.80706e-06
*RES
1 *7383:X *7389:A 29.5464 
*END

*D_NET *118 0.0477611
*CONN
*I *7407:C I *D sky130_fd_sc_hd__and3_2
*I *7410:C I *D sky130_fd_sc_hd__and3_2
*I *7388:A1 I *D sky130_fd_sc_hd__a22o_2
*I *7395:A1 I *D sky130_fd_sc_hd__a22o_2
*I *7425:C I *D sky130_fd_sc_hd__and3_2
*I *7409:C I *D sky130_fd_sc_hd__and3_2
*I *7408:C I *D sky130_fd_sc_hd__and3_2
*I *7426:C I *D sky130_fd_sc_hd__and3_2
*I *7424:C I *D sky130_fd_sc_hd__and3_2
*I *7423:C I *D sky130_fd_sc_hd__and3_2
*I *7384:X O *D sky130_fd_sc_hd__and2b_2
*CAP
1 *7407:C 0.000160895
2 *7410:C 1.75463e-05
3 *7388:A1 0.000237993
4 *7395:A1 0
5 *7425:C 8.6073e-06
6 *7409:C 0
7 *7408:C 0.000282212
8 *7426:C 0
9 *7424:C 0
10 *7423:C 0.000117657
11 *7384:X 0.00186453
12 *118:141 0.000733645
13 *118:130 0.00110607
14 *118:113 0.000890632
15 *118:94 0.000828467
16 *118:79 0.000455371
17 *118:66 0.000650993
18 *118:59 0.000308842
19 *118:53 0.0046199
20 *118:51 0.00602137
21 *118:47 0.00155481
22 *118:24 0.0036695
23 *118:22 0.00375349
24 *118:14 0.00206617
25 *7388:A1 *7388:B2 7.02611e-05
26 *7407:C *7385:S0 9.7367e-05
27 *7407:C *205:74 7.54868e-05
28 *7408:C *7642:A 0.000123288
29 *7408:C *221:55 0.000770209
30 *7410:C *7408:B 1.28239e-05
31 *7423:C *8109:en 0
32 *7423:C *180:7 0
33 *7423:C *212:51 3.69697e-05
34 *7425:C *7999:A 1.0562e-05
35 *7425:C *228:59 2.11419e-05
36 *118:14 *7391:S1 0.000476082
37 *118:14 *209:98 0.00174779
38 *118:22 *7391:A2 0
39 *118:22 *7391:A3 0
40 *118:22 *209:98 2.89114e-05
41 *118:24 *180:9 0.00567638
42 *118:51 *7380:A 0
43 *118:51 *229:22 0
44 *118:51 *230:14 0.00203866
45 *118:53 *8101:en 0.00116341
46 *118:53 *8102:en 0.00129011
47 *118:53 *165:16 0.00167892
48 *118:59 *221:55 0
49 *118:66 *7426:A 5.52302e-05
50 *118:66 *210:31 0.000170379
51 *118:79 *210:31 0.000158783
52 *118:94 *7999:A 0.000115346
53 *118:94 *210:31 6.05161e-06
54 *118:94 *210:33 4.42991e-05
55 *118:94 *228:59 0.000342718
56 *118:113 *7395:B1 9.54798e-06
57 *118:113 *7395:B2 2.75651e-06
58 *118:130 *7395:A2 5.73125e-05
59 *118:130 *7396:B 0.000172815
60 *118:130 *120:104 0.000520485
61 *118:141 *7385:A2 3.6337e-05
62 *118:141 *7385:S0 0.00016774
63 *118:141 *7396:B 0.000125599
64 *118:141 *7626:A 4.51198e-05
65 *7409:A *118:79 9.71197e-05
66 *7410:A *7410:C 5.49544e-05
67 *7426:B *118:94 2.15245e-05
68 *99:45 *118:130 1.9245e-05
69 *99:45 *118:141 0.00010841
70 *100:24 *118:22 7.6644e-05
71 *101:69 *7408:C 9.69119e-06
72 *101:80 *7408:C 0.000220179
73 *102:44 *118:130 0.000455792
74 *114:26 *118:51 0
*RES
1 *7384:X *118:14 38.05 
2 *118:14 *118:22 12.0893 
3 *118:22 *118:24 53.5179 
4 *118:24 *7423:C 20.55 
5 *118:14 *7424:C 9.3 
6 *7384:X *118:47 13.8 
7 *118:47 *118:51 49.25 
8 *118:51 *118:53 108.964 
9 *118:53 *118:59 11.5536 
10 *118:59 *7426:C 9.3 
11 *118:59 *118:66 2.17857 
12 *118:66 *7408:C 28.1393 
13 *118:66 *118:79 3 
14 *118:79 *7409:C 9.3 
15 *118:79 *118:94 10.6339 
16 *118:94 *7425:C 14.0768 
17 *118:94 *118:113 12.7969 
18 *118:113 *7395:A1 9.3 
19 *118:113 *118:130 14.625 
20 *118:130 *7388:A1 17.2107 
21 *118:130 *118:141 11.3571 
22 *118:141 *7410:C 14.3357 
23 *118:141 *7407:C 17.2643 
*END

*D_NET *119 0.00136825
*CONN
*I *7388:A2 I *D sky130_fd_sc_hd__a22o_2
*I *7385:X O *D sky130_fd_sc_hd__mux4_2
*CAP
1 *7388:A2 0.000448249
2 *7385:X 0.000448249
3 *7388:A2 *7388:B2 0.000286169
4 *7388:A2 *7396:A 2.61337e-05
5 *7388:A2 *124:36 0
6 *7388:A2 *125:16 7.92975e-05
7 *7388:A2 *325:10 0
8 *7383:A2 *7388:A2 6.04162e-05
9 *7389:A *7388:A2 0
10 *7392:A1 *7388:A2 1.97381e-05
11 *102:59 *7388:A2 0
*RES
1 *7385:X *7388:A2 36.8679 
*END

*D_NET *120 0.0504092
*CONN
*I *7420:C I *D sky130_fd_sc_hd__and3_2
*I *7419:C I *D sky130_fd_sc_hd__and3_2
*I *7388:B1 I *D sky130_fd_sc_hd__a22o_2
*I *7406:C I *D sky130_fd_sc_hd__and3_2
*I *7395:B2 I *D sky130_fd_sc_hd__a22o_2
*I *7405:C I *D sky130_fd_sc_hd__and3_2
*I *7404:C I *D sky130_fd_sc_hd__and3_2
*I *7403:C I *D sky130_fd_sc_hd__and3_2
*I *7422:C I *D sky130_fd_sc_hd__and3_2
*I *7421:C I *D sky130_fd_sc_hd__and3_2
*I *7386:X O *D sky130_fd_sc_hd__and2b_2
*CAP
1 *7420:C 6.27424e-05
2 *7419:C 0.00113192
3 *7388:B1 0.00012068
4 *7406:C 0
5 *7395:B2 4.03143e-05
6 *7405:C 0.000807988
7 *7404:C 0.000213139
8 *7403:C 0.000104516
9 *7422:C 0.000114057
10 *7421:C 0.000136133
11 *7386:X 7.25276e-05
12 *120:160 0.00140891
13 *120:156 0.00139317
14 *120:104 0.00149175
15 *120:92 0.000752932
16 *120:88 0.000881407
17 *120:77 0.00102091
18 *120:66 0.000524542
19 *120:64 0.00283017
20 *120:60 0.00331993
21 *120:39 0.00193194
22 *120:37 0.0021217
23 *120:16 0.00245952
24 *120:8 0.00251776
25 *7388:B1 *211:106 3.57844e-05
26 *7388:B1 *216:24 0.000255886
27 *7395:B2 *7395:B1 1.36181e-05
28 *7403:C *7403:B 1.03968e-05
29 *7404:C *7404:B 1.28171e-05
30 *7404:C *7875:A 5.65955e-05
31 *7404:C *7970:A 6.03196e-05
32 *7405:C *7394:A0 0.00013359
33 *7405:C *7394:A1 0.000139907
34 *7405:C *7394:A2 0.000307336
35 *7405:C *7394:A3 9.91086e-05
36 *7405:C *7394:S0 3.83238e-05
37 *7405:C *7395:B1 0.000213792
38 *7405:C *7973:A 0.000126439
39 *7405:C *8002:A 0.000142856
40 *7405:C *204:18 1.25672e-06
41 *7405:C *210:41 1.08359e-05
42 *7419:C *178:8 0.000451463
43 *7419:C *209:31 0.000624791
44 *7419:C *209:51 0.000951131
45 *7419:C *209:62 0.00177266
46 *7419:C *209:69 0.000308536
47 *7419:C *209:77 9.22103e-06
48 *7419:C *212:20 0.000467133
49 *7420:C *209:77 9.42062e-05
50 *7421:C *211:27 5.52302e-05
51 *7422:C *210:45 5.52302e-05
52 *120:8 *230:14 0
53 *120:16 *125:12 0.000716375
54 *120:16 *229:22 0.000490416
55 *120:37 *7391:S1 0.000192863
56 *120:37 *8111:en 0.000723842
57 *120:37 *211:27 0.00195928
58 *120:37 *211:29 1.33343e-05
59 *120:39 *211:29 0.000787997
60 *120:39 *211:42 0.00092556
61 *120:60 *8112:en 0.000582901
62 *120:60 *211:42 0.00135718
63 *120:66 *125:16 0
64 *120:66 *214:109 0.000280098
65 *120:77 *125:16 0
66 *120:77 *204:86 0.000173797
67 *120:77 *214:109 6.04891e-05
68 *120:88 *7381:A1 0.00010326
69 *120:88 *7381:S0 0.000565832
70 *120:88 *7399:C 5.7616e-05
71 *120:88 *7400:B 0.000468679
72 *120:88 *125:16 0
73 *120:88 *204:86 0.000213635
74 *120:88 *211:89 0.000315639
75 *120:88 *211:106 0.00066482
76 *120:88 *214:109 0.000284874
77 *120:88 *214:120 1.18064e-05
78 *120:88 *216:24 0.000148182
79 *120:92 *8034:A 1.24368e-05
80 *120:104 *7395:A2 9.21201e-05
81 *120:104 *7979:A 9.82025e-05
82 *120:104 *7980:A 7.67146e-05
83 *120:156 *7391:S0 0.000589027
84 *120:156 *188:9 0.0023695
85 *120:156 *212:12 0.000875072
86 *120:156 *230:14 0
87 *7403:A *7403:C 5.52302e-05
88 *7406:A *120:92 5.33005e-05
89 *7406:A *120:104 8.54072e-05
90 *7416:B *7419:C 0.000754312
91 *7416:B *7420:C 1.32552e-05
92 *7417:B *120:37 2.89114e-05
93 *7418:B *120:39 0.000794121
94 *7418:B *120:60 5.52302e-05
95 *100:14 *120:156 0.00033802
96 *100:26 *7420:C 6.62761e-06
97 *100:89 *7395:B2 1.95045e-05
98 *100:89 *7405:C 0.000146311
99 *101:20 *120:60 8.57539e-05
100 *101:20 *120:64 0
101 *101:28 *120:16 7.6644e-05
102 *102:44 *120:104 3.36959e-05
103 *102:59 *7388:B1 0.00020042
104 *102:59 *120:92 2.05612e-05
105 *118:113 *7395:B2 2.75651e-06
106 *118:130 *120:104 0.000520485
*RES
1 *7386:X *120:8 14.8357 
2 *120:8 *120:16 27.6071 
3 *120:16 *7421:C 15.3714 
4 *120:16 *120:37 38.9732 
5 *120:37 *120:39 27.4375 
6 *120:39 *7422:C 19.8714 
7 *120:39 *120:60 28.9643 
8 *120:60 *120:64 48.5714 
9 *120:64 *120:66 6.5 
10 *120:66 *7403:C 15.1571 
11 *120:66 *120:77 3.76786 
12 *120:77 *7404:C 17.2107 
13 *120:77 *120:88 25.625 
14 *120:88 *120:92 5.85714 
15 *120:92 *120:104 15.1786 
16 *120:104 *7405:C 38.8179 
17 *120:104 *7395:B2 14.5321 
18 *120:92 *7406:C 9.3 
19 *120:88 *7388:B1 17.8 
20 *120:8 *120:156 48.4464 
21 *120:156 *120:160 7.66071 
22 *120:160 *7419:C 49.1929 
23 *120:160 *7420:C 11.0768 
*END

*D_NET *121 0.001813
*CONN
*I *7388:B2 I *D sky130_fd_sc_hd__a22o_2
*I *7387:X O *D sky130_fd_sc_hd__mux4_2
*CAP
1 *7388:B2 0.000728286
2 *7387:X 0.000728286
3 *7388:B2 *8024:A 0
4 *7388:B2 *8025:A 0
5 *7388:B2 *125:16 0
6 *7388:A1 *7388:B2 7.02611e-05
7 *7388:A2 *7388:B2 0.000286169
*RES
1 *7387:X *7388:B2 39.6179 
*END

*D_NET *122 0.00103353
*CONN
*I *7389:B I *D sky130_fd_sc_hd__or2_2
*I *7388:X O *D sky130_fd_sc_hd__a22o_2
*CAP
1 *7389:B 0.000195606
2 *7388:X 0.000195606
3 *7389:B *7396:A 1.46717e-05
4 *7389:B *7397:A2 5.52238e-05
5 *7389:B *211:106 0.000173083
6 *7383:A2 *7389:B 0.000114111
7 *7389:A *7389:B 0.000150618
8 *102:59 *7389:B 0.000134608
*RES
1 *7388:X *7389:B 33.725 
*END

*D_NET *123 0.00258845
*CONN
*I *7397:A2 I *D sky130_fd_sc_hd__a22o_2
*I *7389:X O *D sky130_fd_sc_hd__or2_2
*CAP
1 *7397:A2 0.000601637
2 *7389:X 0.000601637
3 *7397:A2 *7385:A2 8.17206e-05
4 *7397:A2 *7397:B1 0.00101922
5 *7397:A2 *7630:A 3.42322e-05
6 *7397:A2 *7631:A 9.47974e-05
7 *7397:A2 *7649:A 9.99853e-05
8 *7389:B *7397:A2 5.52238e-05
*RES
1 *7389:X *7397:A2 33.0107 
*END

*D_NET *124 0.0337265
*CONN
*I *7392:A2 I *D sky130_fd_sc_hd__a22o_2
*I *7390:X O *D sky130_fd_sc_hd__mux4_2
*CAP
1 *7392:A2 0
2 *7390:X 0.00146507
3 *124:36 0.0019879
4 *124:30 0.00309821
5 *124:14 0.00221409
6 *124:12 0.00312653
7 *124:8 0.00348782
8 *124:8 *7390:A3 0.000369333
9 *124:8 *7390:S0 0.000103897
10 *124:14 *7365:A 0.000126629
11 *124:14 *169:22 0.00756848
12 *124:14 *210:8 0.000111442
13 *124:14 *228:38 0.00104603
14 *124:30 *7413:C 3.34295e-05
15 *124:30 *7696:A 6.71295e-05
16 *124:30 *7698:A 0.000110144
17 *124:30 *7699:A 9.57215e-05
18 *124:30 *7700:A 3.52408e-05
19 *124:30 *7715:A 9.57215e-05
20 *124:30 *7716:A 9.57215e-05
21 *124:30 *7717:A 9.56254e-05
22 *124:30 *7730:A 2.80715e-05
23 *124:30 *7731:A 0.000224967
24 *124:30 *7732:A 9.22786e-05
25 *124:30 *7733:A 3.51773e-05
26 *124:30 *7742:A 3.34295e-05
27 *124:30 *7744:A 2.80853e-05
28 *124:30 *205:25 0.000662725
29 *124:36 *7385:A0 0
30 *124:36 *7396:A 9.42425e-06
31 *124:36 *7654:A 0
32 *124:36 *7655:A 0
33 *124:36 *7673:A 0
34 *124:36 *7677:A 0
35 *124:36 *7679:A 8.06427e-05
36 *124:36 *7681:A 0.000201127
37 *124:36 *7696:A 0
38 *124:36 *7697:A 0
39 *124:36 *7713:A 0
40 *124:36 *7798:A 0
41 *124:36 *7810:A 4.25716e-05
42 *124:36 *8039:A 0
43 *124:36 *8042:A 0.000101545
44 *124:36 *8044:A 0.000148903
45 *124:36 *8059:A 6.07626e-05
46 *124:36 *8065:A 0.000117378
47 *124:36 *205:55 0
48 *124:36 *205:61 0
49 *124:36 *325:10 0.000151333
50 *7388:A2 *124:36 0
51 *7392:A1 *124:36 3.17067e-05
52 *7413:A *124:30 0
53 *97:12 *124:14 0.0060896
54 *101:101 *124:30 0.0002526
55 *113:12 *124:14 0
*RES
1 *7390:X *124:8 31.175 
2 *124:8 *124:12 45 
3 *124:12 *124:14 71.1786 
4 *124:14 *124:30 37.9107 
5 *124:30 *124:36 41.6607 
6 *124:36 *7392:A2 9.3 
*END

*D_NET *125 0.0314791
*CONN
*I *7392:B1 I *D sky130_fd_sc_hd__a22o_2
*I *797:DIODE I *D sky130_fd_sc_hd__diode_2
*I *7391:X O *D sky130_fd_sc_hd__mux4_2
*CAP
1 *7392:B1 0
2 *797:DIODE 7.82686e-05
3 *7391:X 7.51806e-05
4 *125:18 7.82686e-05
5 *125:16 0.00248276
6 *125:14 0.00248276
7 *125:12 0.0041841
8 *125:10 0.00425928
9 *797:DIODE *7392:B2 5.52238e-05
10 *125:10 *7391:A0 5.33882e-05
11 *125:10 *179:18 9.11365e-06
12 *125:12 *212:12 0.0055401
13 *125:12 *229:22 0.000488493
14 *125:16 *7387:A0 0.000209659
15 *125:16 *7399:C 0
16 *125:16 *7829:A 0
17 *125:16 *7833:A 0
18 *125:16 *7842:A 0
19 *125:16 *7907:A 0
20 *125:16 *7916:A 0
21 *125:16 *7920:A 7.60306e-05
22 *125:16 *7923:A 0
23 *125:16 *7926:A 8.39e-05
24 *125:16 *7929:A 0
25 *125:16 *7931:A 0
26 *125:16 *7937:A 0
27 *125:16 *7938:A 7.8327e-05
28 *125:16 *8024:A 0
29 *125:16 *211:89 0
30 *125:16 *211:106 0
31 *125:16 *589:10 0
32 *7383:A2 *125:16 0
33 *7388:A2 *125:16 7.92975e-05
34 *7388:B2 *125:16 0
35 *7392:A1 *797:DIODE 2.95726e-05
36 *101:20 *125:12 0
37 *101:22 *125:12 0.0035449
38 *102:12 *125:12 0.00441988
39 *114:28 *125:12 0.00245419
40 *120:16 *125:12 0.000716375
41 *120:66 *125:16 0
42 *120:77 *125:16 0
43 *120:88 *125:16 0
*RES
1 *7391:X *125:10 19.9429 
2 *125:10 *125:12 154.554 
3 *125:12 *125:14 4.5 
4 *125:14 *125:16 45.9643 
5 *125:16 *125:18 4.5 
6 *125:18 *797:DIODE 10.6571 
7 *125:18 *7392:B1 9.3 
*END

*D_NET *126 0.00185053
*CONN
*I *7396:A I *D sky130_fd_sc_hd__or2_2
*I *7392:X O *D sky130_fd_sc_hd__a22o_2
*CAP
1 *7396:A 0.000514524
2 *7392:X 0.000514524
3 *7396:A *7392:B2 6.40434e-05
4 *7383:A2 *7396:A 0.000115143
5 *7383:B2 *7396:A 5.33005e-05
6 *7388:A2 *7396:A 2.61337e-05
7 *7389:A *7396:A 5.80706e-06
8 *7389:B *7396:A 1.46717e-05
9 *7392:A1 *7396:A 0.000532958
10 *124:36 *7396:A 9.42425e-06
*RES
1 *7392:X *7396:A 36.8143 
*END

*D_NET *127 0.0075191
*CONN
*I *7395:A2 I *D sky130_fd_sc_hd__a22o_2
*I *7393:X O *D sky130_fd_sc_hd__mux4_2
*CAP
1 *7395:A2 0.00157968
2 *7393:X 0.000609481
3 *127:16 0.00218916
4 *7395:A2 *7629:A 0
5 *7395:A2 *7777:A 0
6 *7395:A2 *7779:A 0.000148189
7 *7395:A2 *7973:A 9.60875e-05
8 *7395:A2 *8068:A 0
9 *7395:A2 *8075:A 4.79842e-05
10 *7395:A2 *8078:A 0.000148903
11 *7395:A2 *8080:A 0
12 *7395:A2 *8081:A 0
13 *7395:A2 *8093:A 0
14 *7395:A2 *8094:A 0
15 *7395:A2 *228:59 0
16 *7395:A2 *424:12 5.03694e-05
17 *127:16 *7413:C 7.6644e-05
18 *127:16 *7756:A 0.000253717
19 *127:16 *7757:A 0.000123589
20 *127:16 *7758:A 6.62761e-06
21 *127:16 *228:55 5.52238e-05
22 *127:16 *228:59 0.000239039
23 *7426:B *7395:A2 0.000151291
24 *100:89 *7395:A2 0.00110723
25 *100:114 *7395:A2 0
26 *102:40 *7395:A2 8.11028e-06
27 *102:44 *7395:A2 0.000232564
28 *113:25 *127:16 0.000245773
29 *118:130 *7395:A2 5.73125e-05
30 *120:104 *7395:A2 9.21201e-05
*RES
1 *7393:X *127:16 35.3893 
2 *127:16 *7395:A2 48.8937 
*END

*D_NET *128 0.00115749
*CONN
*I *7395:B1 I *D sky130_fd_sc_hd__a22o_2
*I *7394:X O *D sky130_fd_sc_hd__mux4_2
*CAP
1 *7395:B1 0.000425342
2 *7394:X 0.000425342
3 *7395:B1 *7984:A 0
4 *7395:B1 *7988:A 3.82062e-05
5 *7395:B1 *7989:A 3.16457e-05
6 *7395:B2 *7395:B1 1.36181e-05
7 *7405:C *7395:B1 0.000213792
8 *118:113 *7395:B1 9.54798e-06
*RES
1 *7394:X *7395:B1 35.5643 
*END

*D_NET *129 0.0019856
*CONN
*I *7396:B I *D sky130_fd_sc_hd__or2_2
*I *7395:X O *D sky130_fd_sc_hd__a22o_2
*CAP
1 *7396:B 0.000483888
2 *7395:X 0.000483888
3 *7396:B *7406:B 0.000574755
4 *99:45 *7396:B 0.000144657
5 *118:130 *7396:B 0.000172815
6 *118:141 *7396:B 0.000125599
*RES
1 *7395:X *7396:B 36.8321 
*END

*D_NET *130 0.00246886
*CONN
*I *7397:B1 I *D sky130_fd_sc_hd__a22o_2
*I *7396:X O *D sky130_fd_sc_hd__or2_2
*CAP
1 *7397:B1 0.00059051
2 *7396:X 0.00059051
3 *7397:B1 *7397:A1 2.89016e-05
4 *7397:B1 *7632:A 3.31965e-05
5 *7397:B1 *214:139 0.00010326
6 *7397:A2 *7397:B1 0.00101922
7 *99:45 *7397:B1 0.00010326
*RES
1 *7396:X *7397:B1 40.725 
*END

*D_NET *131 0.00310585
*CONN
*I *7436:A2 I *D sky130_fd_sc_hd__o21a_2
*I *7435:Y O *D sky130_fd_sc_hd__nor2_2
*CAP
1 *7436:A2 0.000640612
2 *7435:Y 0.000640612
3 *7435:A *7436:A2 0.00010096
4 *3:30 *7436:A2 0.000299095
5 *104:38 *7436:A2 0.00142457
*RES
1 *7435:Y *7436:A2 33.1 
*END

*D_NET *132 0.00184821
*CONN
*I *7438:B1 I *D sky130_fd_sc_hd__o21a_2
*I *7437:Y O *D sky130_fd_sc_hd__a21oi_2
*CAP
1 *7438:B1 0.00015382
2 *7437:Y 0.00015382
3 *7438:B1 *7439:A1 1.02504e-05
4 *7438:B1 *206:8 0.000401764
5 *7438:B1 *206:87 0.000224577
6 *7438:B1 *208:54 5.52238e-05
7 *7438:B1 *208:61 0.000557783
8 *7438:B1 *218:28 0.000150611
9 *7438:B1 *781:25 9.0573e-05
10 *7438:B1 *781:27 4.97876e-05
*RES
1 *7437:Y *7438:B1 35.4214 
*END

*D_NET *133 0.000824539
*CONN
*I *7441:B I *D sky130_fd_sc_hd__nor3_2
*I *7439:Y O *D sky130_fd_sc_hd__a21oi_2
*CAP
1 *7441:B 0.000187517
2 *7439:Y 0.000187517
3 *7441:B *7439:B1 0.000101341
4 *7441:B *7473:B1 0
5 *7441:B *206:89 0.00014699
6 *7441:B *206:91 0.000124529
7 *7441:B *206:134 7.6644e-05
8 *7441:B *208:69 0
*RES
1 *7439:Y *7441:B 31.975 
*END

*D_NET *134 0.00247795
*CONN
*I *7443:A2 I *D sky130_fd_sc_hd__o21a_2
*I *7442:A2 I *D sky130_fd_sc_hd__a21oi_2
*I *7444:A2 I *D sky130_fd_sc_hd__a21o_2
*I *7441:C I *D sky130_fd_sc_hd__nor3_2
*I *7440:X O *D sky130_fd_sc_hd__and3_2
*CAP
1 *7443:A2 0
2 *7442:A2 2.58666e-05
3 *7444:A2 0
4 *7441:C 0.000252893
5 *7440:X 0
6 *134:25 0.000260481
7 *134:15 0.000446303
8 *134:4 0.000464582
9 *7441:C *7446:A 3.48705e-05
10 *7441:C *206:134 0.000298649
11 *7441:C *208:69 0.000318101
12 *7442:A2 *208:88 9.71197e-05
13 *7442:A2 *789:20 1.98839e-05
14 *7442:A2 *790:16 5.52238e-05
15 *134:15 *7446:A 9.77862e-05
16 *134:25 *7443:A1 3.67142e-05
17 *134:25 *7446:A 0
18 *134:25 *7521:RESET_B 6.94775e-05
*RES
1 *7440:X *134:4 9.3 
2 *134:4 *7441:C 16.8357 
3 *134:4 *134:15 3.82143 
4 *134:15 *134:25 12.7321 
5 *134:25 *7444:A2 9.3 
6 *134:25 *7442:A2 10.2464 
7 *134:15 *7443:A2 9.3 
*END

*D_NET *135 0.00157888
*CONN
*I *7443:B1 I *D sky130_fd_sc_hd__o21a_2
*I *7442:Y O *D sky130_fd_sc_hd__a21oi_2
*CAP
1 *7443:B1 0.000168351
2 *7442:Y 0.000168351
3 *7443:B1 *7440:B 0
4 *7443:B1 *7446:A 0.000148196
5 *7443:B1 *7446:B 3.34295e-05
6 *7443:B1 *137:25 0.000526414
7 *7443:B1 *208:88 0.000528337
8 *7520:D *7443:B1 5.80706e-06
*RES
1 *7442:Y *7443:B1 34.6 
*END

*D_NET *136 0.000909303
*CONN
*I *7447:B I *D sky130_fd_sc_hd__and3_2
*I *7444:X O *D sky130_fd_sc_hd__a21o_2
*CAP
1 *7447:B 0.000179671
2 *7444:X 0.000179671
3 *7447:B *7446:B 0.000189017
4 *7447:B *7447:C 9.82759e-05
5 *7447:B *196:33 2.59355e-05
6 *7447:B *789:26 9.60939e-05
7 *7447:B *790:18 9.60939e-05
8 *7521:D *7447:B 8.6229e-06
9 *104:78 *7447:B 3.59221e-05
*RES
1 *7444:X *7447:B 31.9393 
*END

*D_NET *137 0.00771319
*CONN
*I *7449:C I *D sky130_fd_sc_hd__and3_2
*I *7457:B I *D sky130_fd_sc_hd__and3_2
*I *7470:B I *D sky130_fd_sc_hd__and4_2
*I *7448:A2 I *D sky130_fd_sc_hd__a21oi_2
*I *7446:B I *D sky130_fd_sc_hd__nand2_2
*I *7445:X O *D sky130_fd_sc_hd__and4_2
*CAP
1 *7449:C 0
2 *7457:B 0.000212998
3 *7470:B 5.56524e-05
4 *7448:A2 6.31256e-05
5 *7446:B 0.000365906
6 *7445:X 6.94563e-05
7 *137:50 0.000776145
8 *137:25 0.00141349
9 *137:6 0.00127823
10 *7446:B *7445:B 0
11 *7446:B *7446:A 0.000452287
12 *7446:B *7447:C 0.000121128
13 *7448:A2 *7450:B 5.71472e-05
14 *7448:A2 *7450:C 5.52238e-05
15 *7448:A2 *196:55 0
16 *7457:B *7450:C 8.46829e-05
17 *7457:B *7452:A2 1.02504e-05
18 *7457:B *7457:C 9.71197e-05
19 *7457:B *7470:C 1.52978e-05
20 *7457:B *140:24 0.000142856
21 *7457:B *141:8 3.67452e-05
22 *7457:B *792:20 1.54142e-05
23 *7470:B *7450:C 5.52302e-05
24 *7470:B *7470:C 5.01117e-05
25 *7470:B *791:12 1.02504e-05
26 *7470:B *791:20 0.000100831
27 *137:6 *208:88 5.33334e-05
28 *137:25 *7450:B 1.32552e-05
29 *137:25 *7450:C 9.7659e-05
30 *137:25 *208:88 3.82839e-05
31 *137:25 *208:95 7.84156e-05
32 *137:50 *7373:D_N 0.000183726
33 *137:50 *7449:B 0.000152112
34 *137:50 *7450:C 0.000652727
35 *137:50 *7457:C 0
36 *137:50 *792:20 4.38128e-05
37 *7443:B1 *7446:B 3.34295e-05
38 *7443:B1 *137:25 0.000526414
39 *7447:B *7446:B 0.000189017
40 *7457:A *7457:B 9.25014e-06
41 *7521:D *7446:B 7.55769e-05
42 *7522:D *7448:A2 2.66026e-05
*RES
1 *7445:X *137:6 10.2464 
2 *137:6 *7446:B 27.5143 
3 *137:6 *137:25 11.2143 
4 *137:25 *7448:A2 19.8714 
5 *137:25 *137:50 11.4107 
6 *137:50 *7470:B 20.175 
7 *137:50 *7457:B 22.3536 
8 *137:50 *7449:C 9.3 
*END

*D_NET *138 0.00110411
*CONN
*I *7447:C I *D sky130_fd_sc_hd__and3_2
*I *7446:Y O *D sky130_fd_sc_hd__nand2_2
*CAP
1 *7447:C 0.000380209
2 *7446:Y 0.000380209
3 *7447:C *7530:RESET_B 3.87443e-05
4 *7446:B *7447:C 0.000121128
5 *7447:B *7447:C 9.82759e-05
6 *7472:C1 *7447:C 5.15208e-05
7 *7521:D *7447:C 2.94203e-05
8 *104:78 *7447:C 4.6025e-06
*RES
1 *7446:Y *7447:C 34.7607 
*END

*D_NET *139 0.000521991
*CONN
*I *7450:B I *D sky130_fd_sc_hd__nor3_2
*I *7448:Y O *D sky130_fd_sc_hd__a21oi_2
*CAP
1 *7450:B 0.000154491
2 *7448:Y 0.000154491
3 *7450:B *7448:A1 2.70354e-05
4 *7450:B *7450:C 5.8424e-05
5 *7448:A2 *7450:B 5.71472e-05
6 *7522:D *7450:B 5.71472e-05
7 *137:25 *7450:B 1.32552e-05
*RES
1 *7448:Y *7450:B 22.0464 
*END

*D_NET *140 0.00507259
*CONN
*I *7452:A2 I *D sky130_fd_sc_hd__a21oi_2
*I *7454:A2 I *D sky130_fd_sc_hd__a21oi_2
*I *7455:C I *D sky130_fd_sc_hd__and3_2
*I *7453:A2 I *D sky130_fd_sc_hd__o21a_2
*I *7450:C I *D sky130_fd_sc_hd__nor3_2
*I *7449:X O *D sky130_fd_sc_hd__and3_2
*CAP
1 *7452:A2 0.000127526
2 *7454:A2 0.000105998
3 *7455:C 0.000129435
4 *7453:A2 0
5 *7450:C 0.000538256
6 *7449:X 0.000538256
7 *140:32 0.000351067
8 *140:24 0.00049221
9 *140:20 0.000292106
10 *7450:C *7448:A1 0.00020391
11 *7450:C *7448:B1 6.87476e-05
12 *7450:C *207:6 1.92905e-05
13 *7452:A2 *141:8 8.00806e-05
14 *7452:A2 *208:117 0
15 *7452:A2 *792:45 1.18927e-05
16 *7454:A2 *792:20 9.77274e-05
17 *7455:C *7453:B1 5.7661e-06
18 *7455:C *7455:A 4.21252e-05
19 *7455:C *7455:B 3.46695e-05
20 *7455:C *792:66 5.49544e-05
21 *140:24 *792:20 0.000401764
22 *140:32 *7453:B1 0.000102207
23 *140:32 *208:117 6.51946e-05
24 *140:32 *792:14 0
25 *7448:A2 *7450:C 5.52238e-05
26 *7450:B *7450:C 5.8424e-05
27 *7457:B *7450:C 8.46829e-05
28 *7457:B *7452:A2 1.02504e-05
29 *7457:B *140:24 0.000142856
30 *7470:B *7450:C 5.52302e-05
31 *7522:D *7450:C 5.52302e-05
32 *7546:A *7450:C 9.71197e-05
33 *137:25 *7450:C 9.7659e-05
34 *137:50 *7450:C 0.000652727
*RES
1 *7449:X *7450:C 31.7964 
2 *7449:X *140:20 9.3 
3 *140:20 *140:24 4.25 
4 *140:24 *140:32 13.2321 
5 *140:32 *7453:A2 9.3 
6 *140:32 *7455:C 12.3536 
7 *140:24 *7454:A2 11.4964 
8 *140:20 *7452:A2 20.6036 
*END

*D_NET *141 0.00119384
*CONN
*I *7457:C I *D sky130_fd_sc_hd__and3_2
*I *7470:C I *D sky130_fd_sc_hd__and4_2
*I *7451:X O *D sky130_fd_sc_hd__and2_2
*CAP
1 *7457:C 9.54981e-05
2 *7470:C 0.000107996
3 *7451:X 5.96395e-05
4 *141:8 0.000263133
5 *7457:C *792:20 0.000227539
6 *7470:C *7470:D 5.71472e-05
7 *7470:C *791:12 7.79781e-06
8 *141:8 *791:12 4.038e-06
9 *141:8 *792:45 6.42338e-05
10 *7452:A2 *141:8 8.00806e-05
11 *7457:A *7470:C 2.74584e-05
12 *7457:B *7457:C 9.71197e-05
13 *7457:B *7470:C 1.52978e-05
14 *7457:B *141:8 3.67452e-05
15 *7470:B *7470:C 5.01117e-05
16 *137:50 *7457:C 0
*RES
1 *7451:X *141:8 15.7464 
2 *141:8 *7470:C 15.9786 
3 *141:8 *7457:C 16.4071 
*END

*D_NET *142 0.000632166
*CONN
*I *7453:B1 I *D sky130_fd_sc_hd__o21a_2
*I *7452:Y O *D sky130_fd_sc_hd__a21oi_2
*CAP
1 *7453:B1 8.56353e-05
2 *7452:Y 8.56353e-05
3 *7453:B1 *7455:A 3.99614e-06
4 *7453:B1 *200:48 0.000320024
5 *7453:B1 *208:105 2.89016e-05
6 *7455:C *7453:B1 5.7661e-06
7 *140:32 *7453:B1 0.000102207
*RES
1 *7452:Y *7453:B1 22.0286 
*END

*D_NET *143 0.000463859
*CONN
*I *7456:B I *D sky130_fd_sc_hd__nor3_2
*I *7454:Y O *D sky130_fd_sc_hd__a21oi_2
*CAP
1 *7456:B 0.000139944
2 *7454:Y 0.000139944
3 *7456:B *208:117 0.000141729
4 *7456:B *793:25 4.22431e-05
*RES
1 *7454:Y *7456:B 21.2071 
*END

*D_NET *144 0.00174013
*CONN
*I *7460:A2 I *D sky130_fd_sc_hd__o21a_2
*I *7456:C I *D sky130_fd_sc_hd__nor3_2
*I *7455:X O *D sky130_fd_sc_hd__and3_2
*CAP
1 *7460:A2 0.00030759
2 *7456:C 7.33327e-05
3 *7455:X 0.000338715
4 *144:10 0.000719638
5 *7460:A2 *7459:A 0
6 *7460:A2 *794:18 2.07878e-05
7 *144:10 *7455:B 3.5479e-06
8 *144:10 *7524:CLK 0.000119299
9 *144:10 *793:6 3.47702e-06
10 *7524:D *7456:C 5.49489e-05
11 *7524:D *144:10 6.02811e-05
12 *7525:D *7460:A2 3.85148e-05
*RES
1 *7455:X *144:10 18.7464 
2 *144:10 *7456:C 15.1571 
3 *144:10 *7460:A2 19.2464 
*END

*D_NET *145 0.00232889
*CONN
*I *7471:B I *D sky130_fd_sc_hd__nand3_2
*I *7464:D I *D sky130_fd_sc_hd__and4_2
*I *7458:B I *D sky130_fd_sc_hd__and2_2
*I *7457:X O *D sky130_fd_sc_hd__and3_2
*CAP
1 *7471:B 0.000129137
2 *7464:D 0
3 *7458:B 0.000211383
4 *7457:X 0.000265056
5 *145:23 0.000175733
6 *145:8 0.000523034
7 *7458:B *7371:D 0
8 *7458:B *7458:A 0
9 *7458:B *146:28 3.69047e-06
10 *7458:B *795:52 0
11 *7471:B *7464:A 1.5424e-05
12 *7471:B *150:6 8.66063e-05
13 *7471:B *150:12 0.000356022
14 *7471:B *207:38 0.00032728
15 *145:8 *7371:B 0
16 *145:8 *7465:C 0
17 *145:8 *7469:C 0
18 *145:23 *7464:A 0.000186662
19 *145:23 *150:6 4.88637e-05
20 *7457:A *145:8 0
21 *106:18 *145:8 0
*RES
1 *7457:X *145:8 18.175 
2 *145:8 *7458:B 16.9964 
3 *145:8 *145:23 6.26786 
4 *145:23 *7464:D 9.3 
5 *145:23 *7471:B 14.3893 
*END

*D_NET *146 0.00315381
*CONN
*I *7459:B I *D sky130_fd_sc_hd__nor2_2
*I *7462:A2 I *D sky130_fd_sc_hd__o21a_2
*I *7461:A2 I *D sky130_fd_sc_hd__a21oi_2
*I *7463:A2 I *D sky130_fd_sc_hd__a21oi_2
*I *7458:X O *D sky130_fd_sc_hd__and2_2
*CAP
1 *7459:B 4.97767e-05
2 *7462:A2 8.6211e-05
3 *7461:A2 3.76518e-05
4 *7463:A2 6.10381e-05
5 *7458:X 0
6 *146:28 0.000787606
7 *146:10 0.0002052
8 *146:4 0.000758128
9 *7459:B *7459:A 5.37741e-06
10 *7459:B *796:40 0
11 *7461:A2 *795:22 5.52302e-05
12 *7461:A2 *795:36 0.000173328
13 *7462:A2 *796:40 0
14 *7463:A2 *7469:A 2.44318e-05
15 *7463:A2 *7469:B 9.90367e-05
16 *7463:A2 *795:36 0.000196163
17 *7463:A2 *796:18 2.44318e-05
18 *146:10 *7465:C 0
19 *146:10 *795:52 0
20 *7458:B *146:28 3.69047e-06
21 *7461:B1 *7461:A2 0.000227539
22 *7461:B1 *7463:A2 0.000358971
*RES
1 *7458:X *146:4 9.3 
2 *146:4 *146:10 10.6429 
3 *146:10 *7463:A2 12.7107 
4 *146:10 *7461:A2 11.4786 
5 *146:4 *146:28 11.6071 
6 *146:28 *7462:A2 15.1393 
7 *146:28 *7459:B 14.8357 
*END

*D_NET *147 0.000737678
*CONN
*I *7460:B1 I *D sky130_fd_sc_hd__o21a_2
*I *7459:Y O *D sky130_fd_sc_hd__nor2_2
*CAP
1 *7460:B1 0.000170453
2 *7459:Y 0.000170453
3 *7460:B1 *7459:A 0.000124869
4 *7460:B1 *794:18 0.000271904
*RES
1 *7459:Y *7460:B1 31.8321 
*END

*D_NET *148 0.000329158
*CONN
*I *7462:B1 I *D sky130_fd_sc_hd__o21a_2
*I *7461:Y O *D sky130_fd_sc_hd__a21oi_2
*CAP
1 *7462:B1 8.89529e-05
2 *7461:Y 8.89529e-05
3 *7462:B1 *795:20 9.46571e-05
4 *7461:B1 *7462:B1 5.65955e-05
*RES
1 *7461:Y *7462:B1 20.7786 
*END

*D_NET *149 0.000879045
*CONN
*I *7465:B I *D sky130_fd_sc_hd__nor3_2
*I *7463:Y O *D sky130_fd_sc_hd__a21oi_2
*CAP
1 *7465:B 0.000166239
2 *7463:Y 0.000166239
3 *7465:B *7465:C 0.000315165
4 *7465:B *7469:A 5.33005e-05
5 *7465:A *7465:B 0.000178101
6 *7527:D *7465:B 0
*RES
1 *7463:Y *7465:B 32.5107 
*END

*D_NET *150 0.00434242
*CONN
*I *7465:C I *D sky130_fd_sc_hd__nor3_2
*I *7467:B I *D sky130_fd_sc_hd__and2_2
*I *7466:B I *D sky130_fd_sc_hd__nor2_2
*I *7464:X O *D sky130_fd_sc_hd__and4_2
*CAP
1 *7465:C 0.000462829
2 *7467:B 0.00023788
3 *7466:B 2.59948e-05
4 *7464:X 8.29147e-05
5 *150:12 0.000577606
6 *150:6 0.000859475
7 *7465:C *7458:A 0.000170484
8 *7465:C *7469:C 0
9 *7465:C *7526:CLK 0.000177941
10 *7465:C *795:36 6.2589e-06
11 *7465:C *795:52 0
12 *7466:B *7373:C 1.21258e-05
13 *7466:B *7466:A 3.69047e-06
14 *7466:B *155:24 2.59355e-05
15 *7467:B *7528:RESET_B 0
16 *7467:B *153:10 0
17 *7467:B *196:39 5.80706e-06
18 *7467:B *207:23 3.47641e-06
19 *7467:B *782:12 3.34295e-05
20 *7467:B *782:25 0.000355545
21 *150:12 *7373:C 2.73185e-05
22 *150:12 *7466:A 2.18485e-05
23 *150:12 *155:24 3.20809e-05
24 *150:12 *207:38 8.9904e-05
25 *7465:A *7465:C 3.15739e-05
26 *7465:B *7465:C 0.000315165
27 *7471:B *150:6 8.66063e-05
28 *7471:B *150:12 0.000356022
29 *7528:D *7467:B 0.000195547
30 *103:51 *7467:B 9.60939e-05
31 *145:8 *7465:C 0
32 *145:23 *150:6 4.88637e-05
33 *146:10 *7465:C 0
*RES
1 *7464:X *150:6 11.0679 
2 *150:6 *150:12 6.73214 
3 *150:12 *7466:B 9.83571 
4 *150:12 *7467:B 33.3536 
5 *150:6 *7465:C 28.4429 
*END

*D_NET *151 0.000970503
*CONN
*I *7468:B I *D sky130_fd_sc_hd__nor3_2
*I *7466:Y O *D sky130_fd_sc_hd__nor2_2
*CAP
1 *7468:B 0.000298397
2 *7466:Y 0.000298397
3 *7468:B *7472:A1 0.000180777
4 *7468:B *152:18 1.02504e-05
5 *7468:B *155:24 0.000124263
6 *7468:B *199:51 5.84171e-05
*RES
1 *7466:Y *7468:B 32.2429 
*END

*D_NET *152 0.00266882
*CONN
*I *7472:A2 I *D sky130_fd_sc_hd__o211a_2
*I *7468:C I *D sky130_fd_sc_hd__nor3_2
*I *7467:X O *D sky130_fd_sc_hd__and2_2
*CAP
1 *7472:A2 0.000406548
2 *7468:C 0
3 *7467:X 0.000218263
4 *152:18 0.000624811
5 *152:18 *199:8 0.000345251
6 *152:18 *199:51 5.59013e-05
7 *152:18 *782:25 0.000100823
8 *7468:B *152:18 1.02504e-05
9 *7528:D *152:18 0.000184745
10 *103:33 *7472:A2 0.000465823
11 *103:51 *7472:A2 0.000129616
12 *103:51 *152:18 0.000126784
*RES
1 *7467:X *152:18 33.1929 
2 *152:18 *7468:C 9.3 
3 *152:18 *7472:A2 26.1393 
*END

*D_NET *153 0.0017212
*CONN
*I *7470:D I *D sky130_fd_sc_hd__and4_2
*I *7471:C I *D sky130_fd_sc_hd__nand3_2
*I *7469:X O *D sky130_fd_sc_hd__and4_2
*CAP
1 *7470:D 0.000249454
2 *7471:C 0
3 *7469:X 0.000183601
4 *153:10 0.000433055
5 *7470:D *7373:D_N 3.47641e-06
6 *7470:D *7469:C 0.00014699
7 *7470:D *207:23 0
8 *7470:D *791:20 5.52302e-05
9 *153:10 *7469:C 0.000314805
10 *7467:B *153:10 0
11 *7470:A *7470:D 7.15962e-05
12 *7470:C *7470:D 5.71472e-05
13 *103:51 *153:10 0.000205842
*RES
1 *7469:X *153:10 18.4071 
2 *153:10 *7471:C 13.8 
3 *153:10 *7470:D 19.1571 
*END

*D_NET *154 0.0150249
*CONN
*I *7473:A3 I *D sky130_fd_sc_hd__a31o_2
*I *7477:A2 I *D sky130_fd_sc_hd__a21o_2
*I *7481:C I *D sky130_fd_sc_hd__and4_2
*I *7476:A I *D sky130_fd_sc_hd__nand2_2
*I *7470:X O *D sky130_fd_sc_hd__and4_2
*CAP
1 *7473:A3 0
2 *7477:A2 0
3 *7481:C 0.000328051
4 *7476:A 0.00025932
5 *7470:X 0.00120699
6 *154:38 0.00178721
7 *154:30 0.00176328
8 *154:18 0.00177043
9 *7476:A *162:25 0
10 *7476:A *196:97 4.6025e-06
11 *7481:C *7476:B 0.000703821
12 *7481:C *7481:B 2.30285e-05
13 *7481:C *158:12 0.000532206
14 *7481:C *208:27 5.7661e-06
15 *7481:C *785:10 9.56375e-05
16 *154:18 *7473:A1 1.85762e-05
17 *154:18 *7473:A2 2.16391e-05
18 *154:18 *202:35 0.00075419
19 *154:30 *7439:A1 0.000126044
20 *154:30 *7439:A2 0.00014285
21 *154:30 *7474:B1 2.89114e-05
22 *154:30 *7511:RESET_B 0.000140933
23 *154:30 *196:71 3.39182e-05
24 *154:30 *206:91 6.87839e-06
25 *154:30 *218:28 0.000128496
26 *154:30 *219:100 0.000312209
27 *154:30 *219:117 8.76257e-05
28 *154:38 *7477:B1 6.8646e-06
29 *154:38 *208:54 0.000192968
30 *154:38 *219:100 8.84607e-05
31 *7375:B *154:30 0.000200626
32 *7457:A *154:18 2.06178e-05
33 *7472:C1 *154:18 0.000605828
34 *104:42 *7476:A 0
35 *104:42 *154:38 0
36 *104:78 *154:38 0
37 *106:18 *154:18 0.00339071
38 *108:10 *154:30 0.000156024
39 *111:12 *154:38 2.82057e-05
40 *111:37 *154:38 5.19266e-05
*RES
1 *7470:X *154:18 31.285 
2 *154:18 *154:30 22.1964 
3 *154:30 *154:38 14.7485 
4 *154:38 *7476:A 17.8941 
5 *154:38 *7481:C 27.8618 
6 *154:30 *7477:A2 9.3 
7 *154:18 *7473:A3 9.3 
*END

*D_NET *155 0.00637743
*CONN
*I *7472:B1 I *D sky130_fd_sc_hd__o211a_2
*I *7474:A2 I *D sky130_fd_sc_hd__a21oi_2
*I *7471:Y O *D sky130_fd_sc_hd__nand3_2
*CAP
1 *7472:B1 3.99336e-05
2 *7474:A2 0.00139116
3 *7471:Y 0.000729784
4 *155:24 0.00216088
5 *7474:A2 *7473:A1 7.32955e-05
6 *7474:A2 *7521:CLK 0.000194116
7 *7474:A2 *7530:RESET_B 0.000220872
8 *7474:A2 *196:33 7.95314e-05
9 *7474:A2 *196:37 1.72894e-05
10 *155:24 *7466:A 6.31066e-05
11 *155:24 *7472:A1 0.00049629
12 *155:24 *7559:A 9.54798e-06
13 *155:24 *196:37 0.000178785
14 *155:24 *199:51 9.87935e-06
15 *155:24 *207:38 3.6916e-05
16 *7466:B *155:24 2.59355e-05
17 *7468:B *155:24 0.000124263
18 *7472:C1 *7474:A2 0.000105163
19 *7474:A1 *7474:A2 0.000331448
20 *7529:D *155:24 5.71472e-05
21 *103:33 *155:24 0
22 *150:12 *155:24 3.20809e-05
*RES
1 *7471:Y *155:24 31.4964 
2 *155:24 *7474:A2 28.6393 
3 *155:24 *7472:B1 10.0321 
*END

*D_NET *156 0.000527921
*CONN
*I *7474:B1 I *D sky130_fd_sc_hd__a21oi_2
*I *7473:X O *D sky130_fd_sc_hd__a31o_2
*CAP
1 *7474:B1 0.000199868
2 *7473:X 0.000199868
3 *7474:B1 *7439:A2 0
4 *7474:B1 *7473:A1 0
5 *7474:B1 *196:11 0
6 *7474:B1 *196:33 2.89016e-05
7 *7474:B1 *196:71 0
8 *7474:B1 *784:47 8.6229e-06
9 *7474:A1 *7474:B1 5.71472e-05
10 *7530:D *7474:B1 4.6025e-06
11 *154:30 *7474:B1 2.89114e-05
*RES
1 *7473:X *7474:B1 31.0464 
*END

*D_NET *157 0.00440167
*CONN
*I *7481:D I *D sky130_fd_sc_hd__and4_2
*I *7476:B I *D sky130_fd_sc_hd__nand2_2
*I *7475:X O *D sky130_fd_sc_hd__and2_2
*CAP
1 *7481:D 0.000110301
2 *7476:B 0.000657243
3 *7475:X 0.000425719
4 *157:20 0.00119326
5 *7476:B *7374:A 7.56452e-06
6 *7476:B *7374:B 2.82375e-05
7 *7476:B *7374:C 5.30637e-06
8 *7476:B *7374:D 0.000165141
9 *7476:B *7481:B 4.02959e-05
10 *7476:B *7482:B 3.55152e-05
11 *7476:B *158:12 0.000106455
12 *7476:B *198:16 0.000274288
13 *7476:B *785:10 2.32292e-05
14 *7476:B *786:17 0.000148189
15 *7481:D *208:27 1.07719e-05
16 *7481:D *785:10 7.14469e-05
17 *157:20 *7374:A 1.89507e-06
18 *157:20 *7374:B 9.90367e-05
19 *157:20 *7390:A3 0.00014968
20 *157:20 *784:12 3.08664e-05
21 *7376:A4 *7481:D 2.88045e-05
22 *7376:A4 *157:20 2.89016e-05
23 *7481:C *7476:B 0.000703821
24 *7536:A *157:20 7.20217e-06
25 *3:30 *157:20 4.85015e-05
*RES
1 *7475:X *157:20 25.1929 
2 *157:20 *7476:B 34.3893 
3 *157:20 *7481:D 19.8714 
*END

*D_NET *158 0.00259687
*CONN
*I *7480:A2 I *D sky130_fd_sc_hd__o21ba_2
*I *7478:C I *D sky130_fd_sc_hd__and4_2
*I *7476:Y O *D sky130_fd_sc_hd__nand2_2
*CAP
1 *7480:A2 0
2 *7478:C 0.000138498
3 *7476:Y 0.000349676
4 *158:12 0.000488174
5 *158:12 *7558:A 7.15521e-05
6 *158:12 *196:97 0
7 *158:12 *198:16 1.65169e-05
8 *158:12 *785:10 0.000308174
9 *7476:B *158:12 0.000106455
10 *7478:A *7478:C 8.89094e-05
11 *7481:C *158:12 0.000532206
12 *110:14 *7478:C 0.000137733
13 *112:12 *158:12 0.000358971
*RES
1 *7476:Y *158:12 29.425 
2 *158:12 *7478:C 12.7464 
3 *158:12 *7480:A2 9.3 
*END

*D_NET *159 0.00109556
*CONN
*I *7478:D I *D sky130_fd_sc_hd__and4_2
*I *7477:X O *D sky130_fd_sc_hd__a21o_2
*CAP
1 *7478:D 0.000501616
2 *7477:X 0.000501616
3 *7478:D *7477:A1 2.56694e-05
4 *7478:D *7479:B1 0
5 *7478:D *196:73 1.83053e-05
6 *7478:D *208:54 0
7 *110:14 *7478:D 4.83486e-05
*RES
1 *7477:X *7478:D 34.1179 
*END

*D_NET *160 0.000741551
*CONN
*I *7479:B1 I *D sky130_fd_sc_hd__a31o_2
*I *7478:X O *D sky130_fd_sc_hd__and4_2
*CAP
1 *7479:B1 0.000255949
2 *7478:X 0.000255949
3 *7479:B1 *196:73 0.000114194
4 *7479:B1 *206:20 3.18091e-05
5 *7479:B1 *206:37 0
6 *7478:A *7479:B1 2.68976e-05
7 *7478:D *7479:B1 0
8 *7479:A3 *7479:B1 5.49489e-05
9 *3:30 *7479:B1 1.80266e-06
*RES
1 *7478:X *7479:B1 32.2607 
*END

*D_NET *161 0.00171501
*CONN
*I *7482:B I *D sky130_fd_sc_hd__nor3_2
*I *7480:X O *D sky130_fd_sc_hd__o21ba_2
*CAP
1 *7482:B 0.000543472
2 *7480:X 0.000543472
3 *7482:B *7374:D 7.79574e-05
4 *7482:B *7482:A 7.47974e-05
5 *7482:B *7482:C 5.52302e-05
6 *7482:B *208:10 0
7 *7482:B *208:27 0.000241352
8 *7482:B *786:17 0.000143211
9 *7476:B *7482:B 3.55152e-05
*RES
1 *7480:X *7482:B 38.3857 
*END

*D_NET *162 0.00426811
*CONN
*I *7484:A2 I *D sky130_fd_sc_hd__a21oi_2
*I *7483:A2 I *D sky130_fd_sc_hd__o21ai_2
*I *7482:C I *D sky130_fd_sc_hd__nor3_2
*I *7481:X O *D sky130_fd_sc_hd__and4_2
*CAP
1 *7484:A2 0.000135272
2 *7483:A2 0
3 *7482:C 5.07022e-05
4 *7481:X 0.000588947
5 *162:25 0.000509791
6 *162:8 0.00101417
7 *7482:C *7374:C 7.97314e-05
8 *7482:C *7482:A 5.33005e-05
9 *7482:C *208:10 2.94103e-05
10 *7484:A2 *7483:A1 3.77662e-05
11 *7484:A2 *7484:A1 0.000100625
12 *7484:A2 *7484:B1 5.71472e-05
13 *7484:A2 *198:16 1.39841e-05
14 *7484:A2 *222:12 3.99614e-06
15 *162:8 *7482:A 5.03772e-05
16 *162:8 *208:27 0.000502214
17 *162:25 *7374:C 0.000251551
18 *162:25 *7532:CLK 0
19 *162:25 *197:27 0
20 *162:25 *198:16 8.08164e-05
21 *162:25 *208:10 0.000128725
22 *162:25 *222:12 0
23 *7476:A *162:25 0
24 *7482:B *7482:C 5.52302e-05
25 *7483:B1 *162:25 0.000133408
26 *7547:A *162:25 0
27 *103:10 *7484:A2 3.48705e-05
28 *104:38 *162:25 1.09732e-05
29 *112:12 *7484:A2 0.000331128
30 *112:12 *162:25 1.39726e-05
*RES
1 *7481:X *162:8 21.7286 
2 *162:8 *7482:C 15.3714 
3 *162:8 *162:25 13.9643 
4 *162:25 *7483:A2 9.3 
5 *162:25 *7484:A2 14.5321 
*END

*D_NET *163 0.000403159
*CONN
*I *7484:B1 I *D sky130_fd_sc_hd__a21oi_2
*I *7483:Y O *D sky130_fd_sc_hd__o21ai_2
*CAP
1 *7484:B1 0.000132576
2 *7483:Y 0.000132576
3 *7484:B1 *198:16 0
4 *7484:A2 *7484:B1 5.71472e-05
5 *103:23 *7484:B1 2.56295e-05
6 *112:12 *7484:B1 5.52302e-05
*RES
1 *7483:Y *7484:B1 29.6357 
*END

*D_NET *164 0.00574402
*CONN
*I *8099:en I *D ro_macro_hard
*I *7415:X O *D sky130_fd_sc_hd__and3_2
*CAP
1 *8099:en 0.000947257
2 *7415:X 0
3 *164:10 0.00287201
4 *164:6 0.00192475
*RES
1 *7415:X *164:6 13.8 
2 *164:6 *164:10 43.4821 
3 *164:10 *8099:en 22.4643 
*END

*D_NET *165 0.0123965
*CONN
*I *8101:en I *D ro_macro_hard
*I *7425:X O *D sky130_fd_sc_hd__and3_2
*CAP
1 *8101:en 0.000750749
2 *7425:X 0.000214453
3 *165:16 0.00328378
4 *165:14 0.00274748
5 *165:14 *7999:A 2.80853e-05
6 *165:14 *8000:A 9.57291e-05
7 *165:14 *228:59 0.000125724
8 *165:16 *8102:en 0.00230819
9 *165:16 *166:12 0
10 *7426:B *165:14 0
11 *118:53 *8101:en 0.00116341
12 *118:53 *165:16 0.00167892
*RES
1 *7425:X *165:14 22.55 
2 *165:14 *165:16 66.8661 
3 *165:16 *8101:en 25.2589 
*END

*D_NET *166 0.00563767
*CONN
*I *8102:en I *D ro_macro_hard
*I *7426:X O *D sky130_fd_sc_hd__and3_2
*CAP
1 *8102:en 0.000362962
2 *7426:X 0.000497679
3 *166:12 0.000860641
4 *166:12 *7426:A 0.00014285
5 *166:12 *210:31 9.90431e-05
6 *7426:B *166:12 7.61932e-05
7 *118:53 *8102:en 0.00129011
8 *165:16 *8102:en 0.00230819
9 *165:16 *166:12 0
*RES
1 *7426:X *166:12 28.3714 
2 *166:12 *8102:en 26.8839 
*END

*D_NET *167 0.00554618
*CONN
*I *8103:en I *D ro_macro_hard
*I *7361:X O *D sky130_fd_sc_hd__and3_2
*CAP
1 *8103:en 4.12265e-05
2 *7361:X 0.000279828
3 *167:14 0.00226849
4 *167:8 0.00250709
5 *167:14 *209:27 0
6 *98:18 *167:8 0.000449539
*RES
1 *7361:X *167:8 18.0321 
2 *167:8 *167:14 48.8393 
3 *167:14 *8103:en 5.25 
*END

*D_NET *168 0.00563111
*CONN
*I *8104:en I *D ro_macro_hard
*I *7363:X O *D sky130_fd_sc_hd__and3_2
*CAP
1 *8104:en 0.00228118
2 *7363:X 0.000103189
3 *168:8 0.00238437
4 *168:8 *209:8 2.65105e-05
5 *7548:A *168:8 0.000211066
6 *98:10 *168:8 0.000624791
*RES
1 *7363:X *168:8 19.675 
2 *168:8 *8104:en 45.9554 
*END

*D_NET *169 0.020874
*CONN
*I *8105:en I *D ro_macro_hard
*I *7365:X O *D sky130_fd_sc_hd__and3_2
*CAP
1 *8105:en 9.48075e-05
2 *7365:X 0.000827707
3 *169:22 0.00216326
4 *169:20 0.00289616
5 *169:20 *7365:A 2.16629e-05
6 *169:20 *7735:A 0.000278933
7 *169:20 *7737:A 0.000174894
8 *169:20 *205:44 9.76123e-05
9 *169:22 *7365:A 0.000139921
10 *169:22 *7742:A 1.37743e-05
11 *169:22 *7743:A 5.33783e-05
12 *169:22 *8106:en 0.00237361
13 *169:22 *228:38 0.000358079
14 *7365:B *169:20 0.000130419
15 *7367:C *169:20 0.000687816
16 *98:36 *169:22 0.00168711
17 *98:78 *169:22 0.000882808
18 *98:91 *169:20 0.000397073
19 *101:101 *169:20 2.65105e-05
20 *124:14 *169:22 0.00756848
*RES
1 *7365:X *169:20 43.3714 
2 *169:20 *169:22 92.125 
3 *169:22 *8105:en 6.16071 
*END

*D_NET *170 0.00583516
*CONN
*I *8106:en I *D ro_macro_hard
*I *7367:X O *D sky130_fd_sc_hd__and3_2
*CAP
1 *8106:en 0.000959629
2 *7367:X 0.000959629
3 *8106:en *7367:A 3.48705e-05
4 *799:DIODE *8106:en 0.000829752
5 *7367:C *8106:en 0.00010096
6 *98:36 *8106:en 0.000376713
7 *98:52 *8106:en 0.000144773
8 *98:63 *8106:en 5.52238e-05
9 *169:22 *8106:en 0.00237361
*RES
1 *7367:X *8106:en 47.5946 
*END

*D_NET *171 0.00607672
*CONN
*I *8100:en I *D ro_macro_hard
*I *7416:X O *D sky130_fd_sc_hd__and3_2
*CAP
1 *8100:en 0.00111174
2 *7416:X 0
3 *171:10 0.00303613
4 *171:6 0.00192439
5 *114:34 *171:10 4.46186e-06
*RES
1 *7416:X *171:6 13.8 
2 *171:6 *171:10 43.4821 
3 *171:10 *8100:en 25.5179 
*END

*D_NET *172 0.00601758
*CONN
*I *8107:en I *D ro_macro_hard
*I *7417:X O *D sky130_fd_sc_hd__and3_2
*CAP
1 *8107:en 0.00107541
2 *7417:X 0
3 *172:10 0.00300879
4 *172:6 0.00193338
*RES
1 *7417:X *172:6 13.8 
2 *172:6 *172:10 43.4821 
3 *172:10 *8107:en 24.875 
*END

*D_NET *173 0.00582342
*CONN
*I *8108:en I *D ro_macro_hard
*I *7418:X O *D sky130_fd_sc_hd__and3_2
*CAP
1 *8108:en 0.00291171
2 *7418:X 0.00291171
*RES
1 *7418:X *8108:en 43.2189 
*END

*D_NET *174 0.00078067
*CONN
*I *8109:en I *D ro_macro_hard
*I *7419:X O *D sky130_fd_sc_hd__and3_2
*CAP
1 *8109:en 0.000191024
2 *7419:X 0.000191024
3 *8109:en *178:8 0.000105163
4 *8109:en *212:20 8.76257e-05
5 *8109:en *212:22 9.90431e-05
6 *8109:en *212:51 0.00010679
7 *7423:C *8109:en 0
*RES
1 *7419:X *8109:en 18.9429 
*END

*D_NET *175 0.00285564
*CONN
*I *8110:en I *D ro_macro_hard
*I *7420:X O *D sky130_fd_sc_hd__and3_2
*CAP
1 *8110:en 0.000437334
2 *7420:X 0.000437334
3 *8110:en *7391:A2 7.57531e-05
4 *8110:en *179:14 7.83587e-05
5 *8110:en *209:77 0.000432349
6 *8110:en *209:98 0.000125057
7 *100:24 *8110:en 3.8221e-05
8 *100:26 *8110:en 0.00123123
*RES
1 *7420:X *8110:en 30.4607 
*END

*D_NET *176 0.00294045
*CONN
*I *8111:en I *D ro_macro_hard
*I *7421:X O *D sky130_fd_sc_hd__and3_2
*CAP
1 *8111:en 0.00105572
2 *7421:X 0.00105572
3 *8111:en *7391:S1 0.000105155
4 *8111:en *188:7 0
5 *120:37 *8111:en 0.000723842
*RES
1 *7421:X *8111:en 29.3179 
*END

*D_NET *177 0.001709
*CONN
*I *8112:en I *D ro_macro_hard
*I *7422:X O *D sky130_fd_sc_hd__and3_2
*CAP
1 *8112:en 0.000563051
2 *7422:X 0.000563051
3 *120:60 *8112:en 0.000582901
*RES
1 *7422:X *8112:en 22.7107 
*END

*D_NET *178 0.00681156
*CONN
*I *8113:en I *D ro_macro_hard
*I *7423:X O *D sky130_fd_sc_hd__and3_2
*CAP
1 *8113:en 0.000335674
2 *7423:X 9.35566e-05
3 *178:14 0.00252085
4 *178:8 0.00227874
5 *8113:en *212:51 0.000254765
6 *178:8 *7423:A 3.18676e-05
7 *178:8 *209:31 4.88637e-05
8 *178:8 *212:20 0.000136019
9 *178:8 *212:22 1.74352e-05
10 *178:14 *190:13 0.000537165
11 *178:14 *209:27 0
12 *7419:C *178:8 0.000451463
13 *8109:en *178:8 0.000105163
*RES
1 *7423:X *178:8 19.2643 
2 *178:8 *178:14 49.75 
3 *178:14 *8113:en 11.2679 
*END

*D_NET *179 0.00695491
*CONN
*I *8114:en I *D ro_macro_hard
*I *7424:X O *D sky130_fd_sc_hd__and3_2
*CAP
1 *8114:en 0.000367182
2 *7424:X 0.000470175
3 *179:18 0.00253849
4 *179:14 0.00264148
5 *179:14 *180:9 0.000657852
6 *179:18 *7391:A0 3.17148e-05
7 *179:18 *7391:S0 0.000121261
8 *8110:en *179:14 7.83587e-05
9 *100:24 *179:14 3.92854e-05
10 *125:10 *179:18 9.11365e-06
*RES
1 *7424:X *179:14 30.1214 
2 *179:14 *179:18 48.6429 
3 *179:18 *8114:en 11.1696 
*END

*D_NET *180 0.0126347
*CONN
*I *7391:A0 I *D sky130_fd_sc_hd__mux4_2
*I *8099:out O *D ro_macro_hard
*CAP
1 *7391:A0 0.000111671
2 *8099:out 0.000314997
3 *180:9 0.00164585
4 *180:7 0.00184918
5 *7391:A0 *7391:S0 4.29086e-05
6 *180:7 *212:51 0
7 *180:9 *212:12 0.000674676
8 *7423:C *180:7 0
9 *114:28 *180:9 0.00157603
10 *118:24 *180:9 0.00567638
11 *125:10 *7391:A0 5.33882e-05
12 *179:14 *180:9 0.000657852
13 *179:18 *7391:A0 3.17148e-05
*RES
1 *8099:out *180:7 10.1607 
2 *180:7 *180:9 62.9643 
3 *180:9 *7391:A0 20.8536 
*END

*D_NET *181 0.0204127
*CONN
*I *7393:A2 I *D sky130_fd_sc_hd__mux4_2
*I *8101:out O *D ro_macro_hard
*CAP
1 *7393:A2 0.000728728
2 *8101:out 4.50684e-05
3 *181:9 0.00149475
4 *181:7 0.000811089
5 *7393:A2 *7393:A0 0.00135889
6 *7393:A2 *7393:A1 0.00078549
7 *7393:A2 *7393:S0 0.000452154
8 *7393:A2 *194:11 0.000452321
9 *7393:A2 *195:9 0.000229836
10 *7393:A2 *215:26 0
11 *7393:A2 *228:46 0
12 *181:9 *7393:S0 0.000916808
13 *181:9 *194:11 0.00656877
14 *181:9 *195:9 0.00656877
*RES
1 *8101:out *181:7 5.19643 
2 *181:7 *181:9 61.7321 
3 *181:9 *7393:A2 35.1925 
*END

*D_NET *182 0.0073718
*CONN
*I *7393:A3 I *D sky130_fd_sc_hd__mux4_2
*I *8102:out O *D ro_macro_hard
*CAP
1 *7393:A3 0
2 *8102:out 0.000830135
3 *182:17 0.000830135
4 *182:17 *7393:S0 0.000729896
5 *182:17 *195:9 8.17905e-05
6 *182:17 *210:16 0.000103266
7 *182:17 *228:46 0.00289846
8 *113:12 *182:17 0.00189812
*RES
1 *8102:out *182:17 46.6071 
2 *182:17 *7393:A3 13.8 
*END

*D_NET *183 0.014364
*CONN
*I *7390:A0 I *D sky130_fd_sc_hd__mux4_2
*I *8103:out O *D ro_macro_hard
*CAP
1 *7390:A0 0.000230947
2 *8103:out 5.4167e-05
3 *183:13 0.00601746
4 *183:11 0.00584068
5 *7390:A0 *7390:A2 0
6 *7390:A0 *7390:S0 0
7 *183:13 *7390:A1 0.00222071
*RES
1 *8103:out *183:11 5.80357 
2 *183:11 *183:13 108.554 
3 *183:13 *7390:A0 22.3714 
*END

*D_NET *184 0.00954983
*CONN
*I *7390:A1 I *D sky130_fd_sc_hd__mux4_2
*I *8104:out O *D ro_macro_hard
*CAP
1 *7390:A1 0.00354591
2 *8104:out 0.00354591
3 *7390:A1 *7390:A2 0.000173677
4 *7390:A1 *7390:A3 4.33979e-05
5 *7390:A1 *7390:S1 1.02504e-05
6 *7390:A1 *7513:CLK 0
7 uio_out[0] *7390:A1 0
8 *7363:C *7390:A1 9.97767e-06
9 *183:13 *7390:A1 0.00222071
*RES
1 *8104:out *7390:A1 35.3198 
*END

*D_NET *185 0.00117692
*CONN
*I *7390:A2 I *D sky130_fd_sc_hd__mux4_2
*I *8105:out O *D ro_macro_hard
*CAP
1 *7390:A2 0.000501624
2 *8105:out 0.000501624
3 *7390:A2 *7390:S0 0
4 *7390:A2 *7390:S1 0
5 *7390:A0 *7390:A2 0
6 *7390:A1 *7390:A2 0.000173677
*RES
1 *8105:out *7390:A2 21.8 
*END

*D_NET *186 0.00946131
*CONN
*I *7390:A3 I *D sky130_fd_sc_hd__mux4_2
*I *8106:out O *D ro_macro_hard
*CAP
1 *7390:A3 0.00335912
2 *8106:out 0.00335912
3 *7390:A3 *7374:C 0.000125793
4 *7390:A3 *7390:S1 1.02504e-05
5 *7390:A3 *7475:A 0.000341318
6 *7390:A3 *7477:A1 0
7 *7390:A3 *7481:B 2.5488e-05
8 *7390:A3 *202:35 0.000928235
9 *7390:A3 *215:26 9.97767e-06
10 *7390:A3 *228:38 1.59378e-05
11 *7390:A3 *235:18 0.000597794
12 uio_out[0] *7390:A3 0.000125866
13 *7390:A1 *7390:A3 4.33979e-05
14 *124:8 *7390:A3 0.000369333
15 *157:20 *7390:A3 0.00014968
*RES
1 *8106:out *7390:A3 34.8781 
*END

*D_NET *187 0.00149058
*CONN
*I *7391:A1 I *D sky130_fd_sc_hd__mux4_2
*I *8100:out O *D ro_macro_hard
*CAP
1 *7391:A1 0.000713636
2 *8100:out 0.000713636
3 *7391:A1 *7391:A3 0
4 *7391:A1 *7391:S1 6.33055e-05
5 *100:24 *7391:A1 0
*RES
1 *8100:out *7391:A1 25.3574 
*END

*D_NET *188 0.0119347
*CONN
*I *7391:A2 I *D sky130_fd_sc_hd__mux4_2
*I *8107:out O *D ro_macro_hard
*CAP
1 *7391:A2 0.000199391
2 *8107:out 0.000411707
3 *188:9 0.0013421
4 *188:7 0.00155441
5 *7391:A2 *7391:A3 4.1331e-06
6 *7391:A2 *7391:S0 0
7 *7391:A2 *7391:S1 0
8 *188:9 *7391:S0 0.000119776
9 *188:9 *212:12 0.00524261
10 *8110:en *7391:A2 7.57531e-05
11 *8111:en *188:7 0
12 *100:14 *188:9 0.000615273
13 *118:22 *7391:A2 0
14 *120:156 *188:9 0.0023695
*RES
1 *8107:out *188:7 11.375 
2 *188:7 *188:9 49.4107 
3 *188:9 *7391:A2 22.0679 
*END

*D_NET *189 0.0111158
*CONN
*I *7391:A3 I *D sky130_fd_sc_hd__mux4_2
*I *8108:out O *D ro_macro_hard
*CAP
1 *7391:A3 0.00016764
2 *8108:out 2.90133e-05
3 *189:9 0.00552169
4 *189:7 0.00538306
5 *7391:A3 *7391:S1 1.02504e-05
6 *7391:A1 *7391:A3 0
7 *7391:A2 *7391:A3 4.1331e-06
8 *118:22 *7391:A3 0
*RES
1 *8108:out *189:7 5 
2 *189:7 *189:9 101.696 
3 *189:9 *7391:A3 21.1571 
*END

*D_NET *190 0.0300083
*CONN
*I *7394:A0 I *D sky130_fd_sc_hd__mux4_2
*I *8109:out O *D ro_macro_hard
*CAP
1 *7394:A0 0.00099171
2 *8109:out 5.94094e-05
3 *190:13 0.00819356
4 *190:11 0.00726126
5 *7394:A0 *7394:A1 0.00143017
6 *7394:A0 *7394:A2 2.65052e-05
7 *7394:A0 *7394:A3 4.58324e-05
8 *7394:A0 *7989:A 3.69047e-06
9 *7394:A0 *210:41 0.000163437
10 *190:13 *191:9 0.00348704
11 *190:13 *192:9 0.00766494
12 *190:13 *193:15 9.99644e-06
13 *7405:C *7394:A0 0.00013359
14 *178:14 *190:13 0.000537165
*RES
1 *8109:out *190:11 5.91071 
2 *190:11 *190:13 184.946 
3 *190:13 *7394:A0 34.5784 
*END

*D_NET *191 0.024375
*CONN
*I *7394:A1 I *D sky130_fd_sc_hd__mux4_2
*I *8110:out O *D ro_macro_hard
*CAP
1 *7394:A1 0.000745817
2 *8110:out 6.25241e-05
3 *191:9 0.00478061
4 *191:7 0.00409731
5 *7394:A1 *7394:A2 1.36077e-05
6 *7394:A1 *204:18 0.000255926
7 *7394:A1 *210:41 0.000254212
8 *191:9 *192:9 0.00766494
9 *191:9 *193:15 0.00144299
10 *7394:A0 *7394:A1 0.00143017
11 *7405:C *7394:A1 0.000139907
12 *190:13 *191:9 0.00348704
*RES
1 *8110:out *191:7 5.55357 
2 *191:7 *191:9 131.348 
3 *191:9 *7394:A1 34.8992 
*END

*D_NET *192 0.0204311
*CONN
*I *7394:A2 I *D sky130_fd_sc_hd__mux4_2
*I *8111:out O *D ro_macro_hard
*CAP
1 *7394:A2 0.00141214
2 *8111:out 4.76896e-05
3 *192:9 0.0022971
4 *192:7 0.000932652
5 *7394:A2 *8002:A 6.42095e-05
6 *7394:A0 *7394:A2 2.65052e-05
7 *7394:A1 *7394:A2 1.36077e-05
8 *7405:C *7394:A2 0.000307336
9 *190:13 *192:9 0.00766494
10 *191:9 *192:9 0.00766494
*RES
1 *8111:out *192:7 5.25 
2 *192:7 *192:9 72 
3 *192:9 *7394:A2 40.5165 
*END

*D_NET *193 0.00583393
*CONN
*I *7394:A3 I *D sky130_fd_sc_hd__mux4_2
*I *8112:out O *D ro_macro_hard
*CAP
1 *7394:A3 0.000116144
2 *8112:out 0.00178026
3 *193:15 0.0018964
4 *7394:A3 *210:41 3.86982e-05
5 *7394:A3 *228:59 0.000317594
6 *193:15 *7994:A 1.14548e-05
7 *193:15 *7995:A 4.89533e-05
8 *193:15 *7998:A 1.65822e-05
9 *193:15 *7999:A 9.91229e-06
10 *7394:A0 *7394:A3 4.58324e-05
11 *7405:C *7394:A3 9.91086e-05
12 *190:13 *193:15 9.99644e-06
13 *191:9 *193:15 0.00144299
*RES
1 *8112:out *193:15 48.5357 
2 *193:15 *7394:A3 17.8714 
*END

*D_NET *194 0.0300787
*CONN
*I *7393:A0 I *D sky130_fd_sc_hd__mux4_2
*I *8113:out O *D ro_macro_hard
*CAP
1 *7393:A0 0.000924915
2 *8113:out 8.14968e-05
3 *194:11 0.00804276
4 *194:9 0.00719934
5 *7393:A0 *7393:A1 0.000112976
6 *7393:A0 *215:26 0
7 *7393:A0 *228:55 0.000355009
8 *194:11 *7393:S0 0.00122489
9 *194:11 *195:9 0.00375736
10 *7393:A2 *7393:A0 0.00135889
11 *7393:A2 *194:11 0.000452321
12 *181:9 *194:11 0.00656877
*RES
1 *8113:out *194:9 5.625 
2 *194:9 *194:11 179.196 
3 *194:11 *7393:A0 38.2844 
*END

*D_NET *195 0.0235191
*CONN
*I *7393:A1 I *D sky130_fd_sc_hd__mux4_2
*I *8114:out O *D ro_macro_hard
*CAP
1 *7393:A1 0.000575557
2 *8114:out 5.99029e-05
3 *195:9 0.00465316
4 *195:7 0.00413751
5 *7393:A1 *7393:S0 0.000797217
6 *7393:A1 *210:16 2.11372e-05
7 *7393:A1 *215:26 0
8 *7393:A1 *228:55 0.000180777
9 *195:9 *7393:S0 0.00117242
10 *195:9 *228:46 0.000385177
11 *7393:A0 *7393:A1 0.000112976
12 *7393:A2 *7393:A1 0.00078549
13 *7393:A2 *195:9 0.000229836
14 *113:12 *195:9 0
15 *181:9 *195:9 0.00656877
16 *182:17 *195:9 8.17905e-05
17 *194:11 *195:9 0.00375736
*RES
1 *8114:out *195:7 5.5 
2 *195:7 *195:9 125.598 
3 *195:9 *7393:A1 31.9355 
*END

*D_NET *196 0.0136315
*CONN
*I *7538:A I *D sky130_fd_sc_hd__clkbuf_16
*I *7537:A I *D sky130_fd_sc_hd__clkbuf_16
*I *7540:A I *D sky130_fd_sc_hd__clkbuf_16
*I *7539:A I *D sky130_fd_sc_hd__clkbuf_16
*I *7536:X O *D sky130_fd_sc_hd__clkbuf_16
*CAP
1 *7538:A 0
2 *7537:A 0.0001274
3 *7540:A 7.06478e-05
4 *7539:A 0
5 *7536:X 0
6 *196:97 0.000969659
7 *196:73 0.000976696
8 *196:71 0.00227026
9 *196:55 0.000518072
10 *196:39 0.000114115
11 *196:37 0.00102183
12 *196:33 0.00168473
13 *196:11 0.00181637
14 *196:6 0.000140624
15 *7537:A *197:12 5.70551e-05
16 *7540:A *208:105 0.000105163
17 *196:11 *7511:RESET_B 9.11365e-06
18 *196:11 *7530:CLK 8.98547e-05
19 *196:33 *7473:A1 9.92409e-05
20 *196:33 *7521:CLK 5.33786e-05
21 *196:33 *7521:RESET_B 8.22793e-06
22 *196:37 *7472:A1 0.000208769
23 *196:39 *7528:RESET_B 6.18297e-05
24 *196:39 *782:25 5.99538e-05
25 *196:55 *7373:A 1.49698e-05
26 *196:55 *7373:C 0
27 *196:55 *7448:B1 2.74584e-05
28 *196:55 *7522:CLK 6.05161e-06
29 *196:55 *7528:RESET_B 5.42457e-05
30 *196:55 *208:105 9.47613e-05
31 *196:55 *782:25 1.19402e-05
32 *196:71 *7439:A1 0
33 *196:71 *7511:RESET_B 0.000173786
34 *196:71 *218:28 1.79825e-05
35 *196:71 *219:100 4.88637e-05
36 *196:71 *219:117 5.33334e-05
37 *196:73 *197:12 9.35376e-05
38 *196:73 *219:100 0.000161868
39 *196:97 *219:117 0
40 *7375:B *196:71 9.79406e-05
41 *7447:B *196:33 2.59355e-05
42 *7448:A2 *196:55 0
43 *7467:B *196:39 5.80706e-06
44 *7472:C1 *196:33 0
45 *7474:A1 *196:33 7.47252e-05
46 *7474:A2 *196:33 7.95314e-05
47 *7474:A2 *196:37 1.72894e-05
48 *7474:B1 *196:11 0
49 *7474:B1 *196:33 2.89016e-05
50 *7474:B1 *196:71 0
51 *7476:A *196:97 4.6025e-06
52 *7478:D *196:73 1.83053e-05
53 *7479:A3 *196:73 9.77264e-06
54 *7479:B1 *196:73 0.000114194
55 *7480:A1 *196:73 1.39841e-05
56 *7522:D *196:55 0
57 *7530:D *196:11 0
58 *7531:D *196:73 0.000136719
59 *7546:A *196:55 0.000111815
60 *103:27 *196:97 0.000738644
61 *103:33 *196:33 4.37917e-05
62 *106:18 *196:71 8.23597e-06
63 *108:10 *196:33 0.000374397
64 *111:12 *196:97 5.53592e-05
65 *111:37 *196:97 0.000237018
66 *154:30 *196:71 3.39182e-05
67 *155:24 *196:37 0.000178785
68 *158:12 *196:97 0
*RES
1 *7536:X *196:6 13.8 
2 *196:6 *196:11 2.55357 
3 *196:11 *196:33 45.375 
4 *196:33 *196:37 12.8393 
5 *196:37 *196:39 2.55357 
6 *196:39 *7539:A 13.8 
7 *196:37 *196:55 13.375 
8 *196:55 *7540:A 11.0679 
9 *196:11 *196:71 13.3036 
10 *196:71 *196:73 14.0893 
11 *196:73 *7537:A 11.8 
12 *196:71 *196:97 35.7143 
13 *196:97 *7538:A 13.8 
*END

*D_NET *197 0.0104137
*CONN
*I *7530:CLK I *D sky130_fd_sc_hd__dfrtp_2
*I *7511:CLK I *D sky130_fd_sc_hd__dfrtp_2
*I *7533:CLK I *D sky130_fd_sc_hd__dfrtp_2
*I *7517:CLK I *D sky130_fd_sc_hd__dfrtp_2
*I *7532:CLK I *D sky130_fd_sc_hd__dfrtp_2
*I *7537:X O *D sky130_fd_sc_hd__clkbuf_16
*CAP
1 *7530:CLK 0.000677458
2 *7511:CLK 0
3 *7533:CLK 0
4 *7517:CLK 0.000716039
5 *7532:CLK 0.000115148
6 *7537:X 0
7 *197:47 0.000899985
8 *197:27 0.000990246
9 *197:12 0.00119919
10 *197:4 0.00103236
11 *7517:CLK *7517:RESET_B 0.000190096
12 *7517:CLK *7533:RESET_B 0.000736673
13 *7517:CLK *201:8 0.000293124
14 *7530:CLK *7376:B1 0
15 *7530:CLK *7511:RESET_B 0.000294303
16 *7530:CLK *208:27 5.49489e-05
17 *7530:CLK *208:54 0.000349692
18 *7530:CLK *235:18 0.000217782
19 *7530:CLK *784:6 6.05161e-06
20 *7530:CLK *784:8 0.00027322
21 *7532:CLK *7374:C 0
22 *7532:CLK *7531:RESET_B 9.25014e-06
23 *7532:CLK *7532:RESET_B 0.00011966
24 *197:12 *7374:C 0.000361914
25 *197:27 *7531:RESET_B 4.73656e-05
26 *197:27 *7533:RESET_B 0.000191737
27 *197:27 *219:54 2.51837e-05
28 *197:47 *206:37 3.84254e-05
29 *197:47 *206:45 0.000179664
30 *197:47 *208:27 0.000180072
31 *197:47 *235:18 3.69047e-06
32 *197:47 *785:10 9.23802e-05
33 *7376:A4 *197:47 2.04825e-05
34 *7478:A *197:47 2.30116e-06
35 *7480:A1 *197:12 5.33005e-05
36 *7480:A1 *197:47 0.00012265
37 *7511:D *7530:CLK 2.84109e-05
38 *7517:D *7517:CLK 5.67857e-05
39 *7530:D *7530:CLK 7.77652e-05
40 *7533:D *197:12 2.47833e-05
41 *7533:D *197:27 0.000365314
42 *7537:A *197:12 5.70551e-05
43 *7547:A *197:27 0
44 *3:30 *7517:CLK 0.000125851
45 *162:25 *7532:CLK 0
46 *162:25 *197:27 0
47 *196:11 *7530:CLK 8.98547e-05
48 *196:73 *197:12 9.35376e-05
*RES
1 *7537:X *197:4 9.3 
2 *197:4 *197:12 17.0893 
3 *197:12 *7532:CLK 15.7464 
4 *197:12 *197:27 12.75 
5 *197:27 *7517:CLK 28.3179 
6 *197:27 *7533:CLK 9.3 
7 *197:4 *197:47 14.8393 
8 *197:47 *7511:CLK 9.3 
9 *197:47 *7530:CLK 37.0143 
*END

*D_NET *198 0.0123238
*CONN
*I *7520:CLK I *D sky130_fd_sc_hd__dfrtp_2
*I *7519:CLK I *D sky130_fd_sc_hd__dfrtp_2
*I *7518:CLK I *D sky130_fd_sc_hd__dfrtp_2
*I *7531:CLK I *D sky130_fd_sc_hd__dfrtp_2
*I *7534:CLK I *D sky130_fd_sc_hd__dfrtp_2
*I *7538:X O *D sky130_fd_sc_hd__clkbuf_16
*CAP
1 *7520:CLK 0.00024365
2 *7519:CLK 0
3 *7518:CLK 0
4 *7531:CLK 0
5 *7534:CLK 0
6 *7538:X 0.00109276
7 *198:52 0.000640719
8 *198:45 0.000454751
9 *198:26 0.00250474
10 *198:16 0.00353981
11 *7520:CLK *7519:RESET_B 0.000160582
12 *7520:CLK *218:56 0.000111727
13 *7520:CLK *219:117 0.000691527
14 *7520:CLK *788:10 8.63782e-05
15 *198:16 *222:12 5.16027e-05
16 *198:26 *7369:B 0.000518277
17 *198:26 *7531:RESET_B 0.000354111
18 *198:26 *7534:D 2.77154e-05
19 *198:26 *7555:A 5.52238e-05
20 *198:26 *202:12 4.64895e-05
21 *198:26 *213:8 0.000140088
22 *198:52 *7518:RESET_B 0.000313357
23 *198:52 *7519:RESET_B 0.000102776
24 *198:52 *219:117 0.000346525
25 *7476:B *198:16 0.000274288
26 *7484:A2 *198:16 1.39841e-05
27 *7484:B1 *198:16 0
28 *7518:D *198:52 0.000190684
29 *7520:D *7520:CLK 0.000175502
30 *7547:A *198:16 2.26424e-05
31 *3:30 *198:26 1.07733e-05
32 *112:12 *198:16 5.58128e-05
33 *158:12 *198:16 1.65169e-05
34 *162:25 *198:16 8.08164e-05
*RES
1 *7538:X *198:16 32.2286 
2 *198:16 *198:26 49.8393 
3 *198:26 *7534:CLK 13.8 
4 *198:16 *7531:CLK 9.3 
5 *7538:X *198:45 10.2464 
6 *198:45 *7518:CLK 9.3 
7 *198:45 *198:52 11.625 
8 *198:52 *7519:CLK 9.3 
9 *198:52 *7520:CLK 20.925 
*END

*D_NET *199 0.00963349
*CONN
*I *7529:CLK I *D sky130_fd_sc_hd__dfrtp_2
*I *7521:CLK I *D sky130_fd_sc_hd__dfrtp_2
*I *7528:CLK I *D sky130_fd_sc_hd__dfrtp_2
*I *7527:CLK I *D sky130_fd_sc_hd__dfrtp_2
*I *7526:CLK I *D sky130_fd_sc_hd__dfrtp_2
*I *7539:X O *D sky130_fd_sc_hd__clkbuf_16
*CAP
1 *7529:CLK 4.50313e-05
2 *7521:CLK 0.000377761
3 *7528:CLK 0
4 *7527:CLK 0
5 *7526:CLK 0.000485631
6 *7539:X 0.000584147
7 *199:51 0.00122173
8 *199:22 0.00123157
9 *199:14 0.00097829
10 *199:8 0.00161544
11 *7521:CLK *7530:RESET_B 0.000118383
12 *7521:CLK *790:16 9.60771e-05
13 *7526:CLK *798:DIODE 0.000272327
14 *7526:CLK *7526:RESET_B 3.08664e-05
15 *199:14 *7528:RESET_B 0.000165665
16 *199:22 *7527:RESET_B 9.38323e-05
17 *199:22 *7528:RESET_B 7.42496e-05
18 *199:22 *782:6 9.60578e-06
19 *199:22 *782:12 3.19816e-05
20 *199:51 *7528:RESET_B 0.000375387
21 *199:51 *7559:A 0.000184745
22 *7465:C *7526:CLK 0.000177941
23 *7468:B *199:51 5.84171e-05
24 *7472:C1 *7521:CLK 0.000177492
25 *7474:A2 *7521:CLK 0.000194116
26 *7521:D *7521:CLK 0.000128509
27 *7527:D *7526:CLK 0.000162626
28 *7528:D *199:14 0
29 *7529:D *199:51 9.7659e-05
30 *103:33 *7521:CLK 0
31 *103:51 *199:8 0.000134184
32 *108:10 *199:51 4.5416e-05
33 *152:18 *199:8 0.000345251
34 *152:18 *199:51 5.59013e-05
35 *155:24 *199:51 9.87935e-06
36 *196:33 *7521:CLK 5.33786e-05
*RES
1 *7539:X *199:8 21.3179 
2 *199:8 *199:14 9.51786 
3 *199:14 *199:22 10.6429 
4 *199:22 *7526:CLK 28.8893 
5 *199:22 *7527:CLK 9.3 
6 *199:14 *7528:CLK 9.3 
7 *199:8 *199:51 17 
8 *199:51 *7521:CLK 28.2821 
9 *199:51 *7529:CLK 10.0321 
*END

*D_NET *200 0.00514667
*CONN
*I *7524:CLK I *D sky130_fd_sc_hd__dfrtp_2
*I *7525:CLK I *D sky130_fd_sc_hd__dfrtp_2
*I *7523:CLK I *D sky130_fd_sc_hd__dfrtp_2
*I *7541:A I *D sky130_fd_sc_hd__clkbuf_4
*I *7522:CLK I *D sky130_fd_sc_hd__dfrtp_2
*I *7540:X O *D sky130_fd_sc_hd__clkbuf_16
*CAP
1 *7524:CLK 6.61259e-05
2 *7525:CLK 0.000347868
3 *7523:CLK 0
4 *7541:A 0.000168544
5 *7522:CLK 0.000280489
6 *7540:X 0.000936131
7 *200:59 0.000655838
8 *200:48 0.000728941
9 *7522:CLK *208:105 7.28183e-05
10 *7524:CLK *7455:B 3.17684e-05
11 *7524:CLK *793:6 4.64978e-05
12 *7525:CLK *7459:A 0.000172085
13 *7525:CLK *793:25 8.33056e-05
14 *7541:A *7373:D_N 1.99099e-05
15 *7541:A *208:105 5.52238e-05
16 *7541:A *791:12 0
17 *200:48 *7452:A1 0.000274294
18 *200:48 *208:105 0.000109584
19 *200:48 *792:10 5.33978e-05
20 *200:59 *7523:RESET_B 0.000216029
21 *200:59 *792:10 9.31415e-05
22 *200:59 *793:25 4.02151e-05
23 *7453:B1 *200:48 0.000320024
24 *7522:D *7522:CLK 0
25 *7523:D *200:48 5.33882e-05
26 *7523:D *200:59 7.6507e-05
27 *7525:D *7525:CLK 5.49544e-05
28 *7546:A *7522:CLK 6.42338e-05
29 *7546:A *7541:A 0
30 *144:10 *7524:CLK 0.000119299
31 *196:55 *7522:CLK 6.05161e-06
*RES
1 *7540:X *7522:CLK 31.8321 
2 *7540:X *7541:A 30.0821 
3 *7540:X *200:48 28.8893 
4 *200:48 *7523:CLK 9.3 
5 *200:48 *200:59 11.1786 
6 *200:59 *7525:CLK 20.6571 
7 *200:59 *7524:CLK 15.9786 
*END

*D_NET *201 0.00197418
*CONN
*I *7535:A I *D sky130_fd_sc_hd__buf_2
*I *7556:A I *D sky130_fd_sc_hd__dlygate4sd3_1
*I *7517:Q O *D sky130_fd_sc_hd__dfrtp_2
*CAP
1 *7535:A 0.000186443
2 *7556:A 0.000115199
3 *7517:Q 0.000355613
4 *201:8 0.000657254
5 *7556:A *202:35 0
6 uio_out[0] *7535:A 0.000142327
7 uio_out[0] *7556:A 0.000123242
8 *7517:CLK *201:8 0.000293124
9 *7517:D *7556:A 0.000100979
*RES
1 *7517:Q *201:8 18.8536 
2 *201:8 *7556:A 16.9607 
3 *201:8 *7535:A 17.8714 
*END

*D_NET *202 0.0252929
*CONN
*I *7526:RESET_B I *D sky130_fd_sc_hd__dfrtp_2
*I *798:DIODE I *D sky130_fd_sc_hd__diode_2
*I *7553:A I *D sky130_fd_sc_hd__clkdlybuf4s25_1
*I *7561:X O *D sky130_fd_sc_hd__clkdlybuf4s25_1
*CAP
1 *7526:RESET_B 0.000226536
2 *798:DIODE 0.000643435
3 *7553:A 6.41486e-05
4 *7561:X 0.000176086
5 *202:35 0.0072411
6 *202:12 0.00706444
7 *798:DIODE *795:52 2.65551e-05
8 *798:DIODE *796:10 7.83587e-05
9 *798:DIODE *796:40 0.000128428
10 *7526:RESET_B *795:14 3.60109e-06
11 *7553:A *7398:A 9.83442e-05
12 *202:12 *7369:B 1.24368e-05
13 *202:12 *213:8 1.13883e-05
14 *202:12 *221:14 0.000183721
15 *202:35 *7371:D 1.83776e-05
16 *202:35 *7398:A 0.000173559
17 *202:35 *7475:A 1.00609e-05
18 *202:35 *7517:RESET_B 0.000792233
19 *202:35 *214:26 0.000121926
20 *202:35 *215:10 0
21 *202:35 *219:21 0.000316557
22 *202:35 *220:16 0.000394902
23 *202:35 *235:18 0.00181264
24 *202:35 *795:52 0.000135256
25 *202:35 *796:40 0.000274398
26 uio_out[0] *202:35 0.00049672
27 *7376:A4 *202:35 0.00099087
28 *7390:A3 *202:35 0.000928235
29 *7472:C1 *202:35 0.000234893
30 *7517:D *202:35 0
31 *7526:CLK *798:DIODE 0.000272327
32 *7526:CLK *7526:RESET_B 3.08664e-05
33 *7526:D *798:DIODE 0
34 *7526:D *7526:RESET_B 2.38907e-05
35 *7527:D *798:DIODE 0
36 *7556:A *202:35 0
37 *3:30 *202:12 0
38 *3:30 *202:35 0.000787484
39 *97:34 *202:35 0.000516466
40 *104:10 *202:35 0
41 *104:78 *202:35 0
42 *106:18 *202:35 0.000201961
43 *154:18 *202:35 0.00075419
44 *198:26 *202:12 4.64895e-05
*RES
1 *7561:X *202:12 22.3179 
2 *202:12 *7553:A 10.6571 
3 *202:12 *202:35 48.839 
4 *202:35 *798:DIODE 22.4339 
5 *798:DIODE *7526:RESET_B 13.0589 
*END

*D_NET *203 0.006396
*CONN
*I *7506:RESET_B I *D sky130_fd_sc_hd__dfrtp_2
*I *7509:RESET_B I *D sky130_fd_sc_hd__dfrtp_2
*I *7510:RESET_B I *D sky130_fd_sc_hd__dfrtp_2
*I *7507:RESET_B I *D sky130_fd_sc_hd__dfrtp_2
*I *7513:RESET_B I *D sky130_fd_sc_hd__dfrtp_2
*I *7508:RESET_B I *D sky130_fd_sc_hd__dfrtp_2
*I *7542:X O *D sky130_fd_sc_hd__clkdlybuf4s25_1
*CAP
1 *7506:RESET_B 0.000195177
2 *7509:RESET_B 0.000292871
3 *7510:RESET_B 0.000710795
4 *7507:RESET_B 0.000504674
5 *7513:RESET_B 0.000833131
6 *7508:RESET_B 0.000128584
7 *7542:X 0.000128584
8 *203:21 0.000529316
9 *7506:RESET_B *7427:A1 2.89016e-05
10 *7506:RESET_B *7489:A 0
11 *7506:RESET_B *232:25 0.000357054
12 *7506:RESET_B *232:27 4.85567e-05
13 *7506:RESET_B *238:14 4.17828e-05
14 *7506:RESET_B *250:23 6.42145e-05
15 *7507:RESET_B *220:12 0.000165254
16 *7508:RESET_B *243:10 4.17828e-05
17 *7509:RESET_B *251:6 0.000138106
18 *7510:RESET_B *7427:A0 0
19 *7510:RESET_B *7504:RESET_B 4.46186e-06
20 *7510:RESET_B *7513:CLK 0
21 *7510:RESET_B *228:16 8.13915e-05
22 *7510:RESET_B *236:18 0.000282794
23 *7510:RESET_B *250:10 3.42984e-05
24 *7513:RESET_B *220:12 0.000318967
25 *7513:RESET_B *228:16 0.000527555
26 *7513:RESET_B *229:8 0
27 *7507:CLK *7509:RESET_B 0.000199173
28 *7507:D *7509:RESET_B 0.000125877
29 *7513:D *7510:RESET_B 0
30 *7561:A *7507:RESET_B 0
31 *7562:A *7507:RESET_B 0.00015234
32 *7567:A *7510:RESET_B 0
33 *3:30 *7508:RESET_B 5.75656e-05
34 *97:42 *7510:RESET_B 0
35 *97:42 *7513:RESET_B 0.00040279
*RES
1 *7542:X *7508:RESET_B 21.3446 
2 *7508:RESET_B *203:21 4.5 
3 *203:21 *7513:RESET_B 14.1696 
4 *203:21 *7507:RESET_B 9.48214 
5 *7513:RESET_B *7510:RESET_B 17.9018 
6 *7507:RESET_B *7509:RESET_B 6.57143 
7 *7510:RESET_B *7506:RESET_B 14.4018 
*END

*D_NET *204 0.0172619
*CONN
*I *7397:A1 I *D sky130_fd_sc_hd__a22o_2
*I *7409:B I *D sky130_fd_sc_hd__and3_2
*I *7406:B I *D sky130_fd_sc_hd__and3_2
*I *7403:B I *D sky130_fd_sc_hd__and3_2
*I *7400:B I *D sky130_fd_sc_hd__and3_2
*I *7399:B I *D sky130_fd_sc_hd__and3_2
*I *7404:B I *D sky130_fd_sc_hd__and3_2
*I *7402:B I *D sky130_fd_sc_hd__and3_2
*I *7401:B I *D sky130_fd_sc_hd__and3_2
*I *7405:B I *D sky130_fd_sc_hd__and3_2
*I *7543:X O *D sky130_fd_sc_hd__clkdlybuf4s25_1
*CAP
1 *7397:A1 0.000135863
2 *7409:B 6.59538e-05
3 *7406:B 0.000700323
4 *7403:B 0.000142284
5 *7400:B 0.000106725
6 *7399:B 0
7 *7404:B 0.000126742
8 *7402:B 0
9 *7401:B 9.23381e-05
10 *7405:B 7.48623e-05
11 *7543:X 0.000468979
12 *204:86 0.000216747
13 *204:82 0.000500876
14 *204:65 0.00109551
15 *204:54 0.00149464
16 *204:31 0.00174491
17 *204:18 0.00134652
18 *204:12 0.00127421
19 *204:10 0.000579422
20 *7397:A1 *7397:B2 0.000144773
21 *7400:B *214:109 0.000458429
22 *7401:B *7401:C 3.97657e-05
23 *7401:B *7874:A 5.30637e-06
24 *7404:B *7904:A 3.6337e-05
25 *7404:B *216:47 2.55698e-05
26 *7405:B *7394:S0 5.03772e-05
27 *7406:B *7425:A 1.58163e-05
28 *7406:B *7971:A 2.4087e-05
29 *7406:B *7972:A 1.98839e-05
30 *7406:B *7998:A 6.64265e-06
31 *7406:B *8000:A 1.37743e-05
32 *204:10 *7397:B2 5.64556e-05
33 *204:10 *7629:A 0.000155959
34 *204:12 *7397:B2 2.37761e-05
35 *204:12 *210:33 0.000172519
36 *204:12 *221:55 0
37 *204:18 *7394:S0 6.72353e-05
38 *204:18 *7993:A 0.000241205
39 *204:18 *7994:A 4.65355e-05
40 *204:18 *7998:A 0.000129868
41 *204:18 *210:33 4.00025e-05
42 *204:18 *210:41 0.000133015
43 *204:18 *221:55 0
44 *204:31 *7855:A 0.000148903
45 *204:31 *7856:A 0
46 *204:31 *7859:A 3.92854e-05
47 *204:31 *7862:A 0.000153054
48 *204:31 *7865:A 4.35048e-05
49 *204:31 *7874:B 0.000101545
50 *204:31 *7992:A 6.5185e-05
51 *204:31 *7993:A 3.92757e-05
52 *204:31 *210:41 0
53 *204:54 *7401:C 3.14641e-05
54 *204:54 *7853:A 0.000106759
55 *204:54 *7864:A 3.52408e-05
56 *204:54 *7874:A 2.95641e-05
57 *204:54 *210:41 8.61181e-05
58 *204:65 *7885:A 0.00010483
59 *204:65 *7896:A 4.74297e-06
60 *204:65 *7902:A 4.35266e-05
61 *204:65 *7903:A 4.01109e-05
62 *204:65 *7904:A 3.49005e-05
63 *204:65 *7906:A 1.55953e-05
64 *204:86 *214:109 0.000389861
65 *7394:A1 *204:18 0.000255926
66 *7396:B *7406:B 0.000574755
67 *7397:B1 *7397:A1 2.89016e-05
68 *7402:A *204:54 1.40415e-05
69 *7403:A *7403:B 2.15245e-05
70 *7403:A *204:82 2.22999e-05
71 *7403:C *7403:B 1.03968e-05
72 *7404:C *7404:B 1.28171e-05
73 *7405:C *204:18 1.25672e-06
74 *7425:B *7406:B 0.000222666
75 *7426:B *7409:B 9.90431e-05
76 *101:59 *204:31 0
77 *101:69 *204:12 0.000150847
78 *101:80 *204:10 3.57844e-05
79 *101:80 *204:12 5.33978e-05
80 *102:36 *204:54 5.05484e-05
81 *102:40 *204:54 0
82 *102:44 *7406:B 0.00126387
83 *120:77 *204:86 0.000173797
84 *120:88 *7400:B 0.000468679
85 *120:88 *204:86 0.000213635
*RES
1 *7543:X *204:10 18.6571 
2 *204:10 *204:12 5.28571 
3 *204:12 *204:18 14.4821 
4 *204:18 *7405:B 10.2464 
5 *204:18 *204:31 24.9107 
6 *204:31 *7401:B 11.0857 
7 *204:31 *204:54 21.5714 
8 *204:54 *7402:B 9.3 
9 *204:54 *204:65 9.71429 
10 *204:65 *7404:B 20.175 
11 *204:65 *204:82 3.01786 
12 *204:82 *204:86 9.48214 
13 *204:86 *7399:B 13.8 
14 *204:86 *7400:B 19.6929 
15 *204:82 *7403:B 11.0679 
16 *204:12 *7406:B 31.1929 
17 *204:10 *7409:B 14.7464 
18 *7543:X *7397:A1 21.1893 
*END

*D_NET *205 0.014675
*CONN
*I *7414:C I *D sky130_fd_sc_hd__and3_2
*I *7410:B I *D sky130_fd_sc_hd__and3_2
*I *7408:B I *D sky130_fd_sc_hd__and3_2
*I *7407:B I *D sky130_fd_sc_hd__and3_2
*I *7411:C I *D sky130_fd_sc_hd__and3_2
*I *7412:C I *D sky130_fd_sc_hd__and3_2
*I *7413:C I *D sky130_fd_sc_hd__and3_2
*I *7544:X O *D sky130_fd_sc_hd__clkdlybuf4s25_1
*CAP
1 *7414:C 0
2 *7410:B 0
3 *7408:B 0.00130173
4 *7407:B 4.91556e-05
5 *7411:C 0
6 *7412:C 4.36033e-05
7 *7413:C 0.000433237
8 *7544:X 0
9 *205:74 0.00133781
10 *205:61 0.00146274
11 *205:55 0.00196425
12 *205:44 0.00140771
13 *205:25 0.0013824
14 *205:4 0.000951079
15 *7408:B *8068:A 2.05652e-05
16 *7408:B *8069:A 3.48196e-05
17 *7408:B *8070:A 6.10177e-06
18 *7408:B *8071:A 2.42557e-05
19 *7408:B *8072:A 3.42511e-05
20 *7408:B *8088:A 1.37743e-05
21 *7408:B *8090:A 4.88402e-05
22 *7408:B *8091:A 4.70451e-05
23 *7408:B *8092:A 3.72958e-05
24 *7408:B *8094:A 6.07939e-05
25 *7408:B *8095:A 3.27943e-05
26 *7408:B *8096:A 3.80922e-05
27 *7408:B *8098:A 5.71472e-05
28 *7408:B *754:8 5.78736e-06
29 *7412:C *7365:A 5.33005e-05
30 *7413:C *7744:A 0
31 *7413:C *7769:A 7.42294e-05
32 *7413:C *7778:B 5.44403e-05
33 *7413:C *228:59 0.000101545
34 *205:44 *7365:A 0.00061563
35 *205:44 *7714:A 3.99614e-06
36 *205:44 *7733:A 1.12566e-05
37 *205:44 *7737:A 4.39511e-05
38 *205:55 *7691:A 0.000121573
39 *205:55 *7696:A 3.90513e-05
40 *205:55 *7697:A 0.000104974
41 *205:55 *7700:A 0
42 *205:55 *7703:A 5.3003e-05
43 *205:55 *7713:A 6.26559e-05
44 *205:61 *7682:B 9.25014e-06
45 *205:61 *7800:A 7.92879e-05
46 *205:61 *7802:A 0.000124342
47 *205:61 *7810:A 0
48 *205:61 *8042:A 0
49 *205:61 *8056:A 5.35423e-05
50 *205:61 *8059:A 0
51 *205:61 *8065:A 0
52 *205:61 *8066:A 1.58029e-05
53 *205:74 *7385:S0 7.54868e-05
54 *7367:C *205:44 0.000288624
55 *7367:C *205:55 0.000385956
56 *7407:A *7407:B 1.58163e-05
57 *7407:A *205:61 2.79421e-05
58 *7407:C *205:74 7.54868e-05
59 *7408:A *7408:B 0.000126104
60 *7410:A *7408:B 3.5479e-06
61 *7410:C *7408:B 1.28239e-05
62 *7411:A *205:44 0.000142856
63 *7411:A *205:55 0
64 *7411:B *205:44 1.56e-05
65 *7413:A *7413:C 0
66 *100:114 *7408:B 2.65014e-05
67 *100:114 *205:25 7.6644e-05
68 *101:101 *205:25 1.00073e-05
69 *101:101 *205:44 8.6229e-06
70 *102:74 *205:55 0
71 *102:74 *205:61 0
72 *113:25 *7413:C 9.55094e-05
73 *124:30 *7413:C 3.34295e-05
74 *124:30 *205:25 0.000662725
75 *124:36 *205:55 0
76 *124:36 *205:61 0
77 *127:16 *7413:C 7.6644e-05
78 *169:20 *205:44 9.76123e-05
*RES
1 *7544:X *205:4 9.3 
2 *205:4 *7413:C 26.2821 
3 *205:4 *205:25 16.7321 
4 *205:25 *7412:C 9.83571 
5 *205:25 *205:44 24.2321 
6 *205:44 *7411:C 9.3 
7 *205:44 *205:55 18.2143 
8 *205:55 *205:61 26.9821 
9 *205:61 *7407:B 9.83571 
10 *205:61 *205:74 10.0357 
11 *205:74 *7408:B 27.6571 
12 *205:74 *7410:B 9.3 
13 *205:55 *7414:C 13.8 
*END

*D_NET *206 0.0163055
*CONN
*I *7446:A I *D sky130_fd_sc_hd__nand2_2
*I *7440:C I *D sky130_fd_sc_hd__and3_2
*I *7438:A2 I *D sky130_fd_sc_hd__o21a_2
*I *7473:A2 I *D sky130_fd_sc_hd__a31o_2
*I *7439:A2 I *D sky130_fd_sc_hd__a21oi_2
*I *7437:A2 I *D sky130_fd_sc_hd__a21oi_2
*I *7478:B I *D sky130_fd_sc_hd__and4_2
*I *7481:B I *D sky130_fd_sc_hd__and4_2
*I *7378:B I *D sky130_fd_sc_hd__or2_2
*I *7377:A I *D sky130_fd_sc_hd__inv_2
*I *7545:X O *D sky130_fd_sc_hd__clkdlybuf4s25_1
*CAP
1 *7446:A 0.000828059
2 *7440:C 0
3 *7438:A2 0
4 *7473:A2 0.00023905
5 *7439:A2 0.000120338
6 *7437:A2 0
7 *7478:B 0
8 *7481:B 0.000130984
9 *7378:B 3.25411e-05
10 *7377:A 0.0010537
11 *7545:X 0
12 *206:134 0.0013365
13 *206:91 0.000443267
14 *206:89 0.000141312
15 *206:87 0.000789423
16 *206:45 0.000434465
17 *206:37 0.000327379
18 *206:20 0.0016741
19 *206:8 0.0010464
20 *206:4 0.000705996
21 *7377:A *7531:RESET_B 0.000138826
22 *7377:A *7532:RESET_B 2.28544e-05
23 *7378:B *7378:A 5.7836e-06
24 *7446:A *7521:RESET_B 0
25 *7446:A *790:16 0
26 *7473:A2 *7439:B1 5.48248e-05
27 *7473:A2 *7473:A1 0
28 *7481:B *7475:A 0.000204774
29 *7481:B *235:18 0.000246259
30 *7481:B *785:10 6.25005e-05
31 *206:8 *7437:A1 5.7661e-06
32 *206:8 *208:54 8.55609e-05
33 *206:20 *7477:B1 0.00035746
34 *206:20 *7479:A1 6.99147e-05
35 *206:20 *219:100 1.98839e-05
36 *206:45 *7378:A 3.94634e-05
37 *206:45 *235:18 9.60337e-06
38 *206:87 *208:61 3.37161e-05
39 *206:87 *208:69 1.24368e-05
40 *206:89 *7439:A1 2.26824e-05
41 *206:89 *781:25 7.6644e-05
42 *206:89 *781:27 5.66157e-05
43 *206:91 *7439:A1 0.000167586
44 *206:91 *7439:B1 2.04644e-05
45 *206:134 *7441:A 1.24368e-05
46 *206:134 *208:69 2.24195e-05
47 *206:134 *781:25 9.40167e-05
48 *7375:B *7439:A2 1.24368e-05
49 *7375:B *206:91 0
50 *7375:C *7439:A2 3.99614e-06
51 *7376:A4 *7378:B 1.90936e-05
52 *7376:A4 *206:45 0.000132258
53 *7390:A3 *7481:B 2.5488e-05
54 *7438:B1 *206:8 0.000401764
55 *7438:B1 *206:87 0.000224577
56 *7441:B *206:89 0.00014699
57 *7441:B *206:91 0.000124529
58 *7441:B *206:134 7.6644e-05
59 *7441:C *7446:A 3.48705e-05
60 *7441:C *206:134 0.000298649
61 *7443:B1 *7446:A 0.000148196
62 *7446:B *7446:A 0.000452287
63 *7474:B1 *7439:A2 0
64 *7476:B *7481:B 4.02959e-05
65 *7478:A *206:37 6.34053e-05
66 *7479:A2 *206:20 4.24541e-05
67 *7479:B1 *206:20 3.18091e-05
68 *7479:B1 *206:37 0
69 *7481:C *7481:B 2.30285e-05
70 *7519:D *206:134 0.000144773
71 *7520:D *7446:A 2.78729e-05
72 *7533:D *7377:A 0
73 *7547:A *7377:A 0
74 *3:30 *7377:A 0.000875115
75 *3:30 *206:20 0.000106546
76 *3:30 *206:45 0
77 *103:23 *7377:A 0
78 *104:42 *7377:A 0.000825193
79 *104:42 *206:20 6.67536e-05
80 *104:61 *206:20 0.000166414
81 *108:10 *7439:A2 1.39841e-05
82 *108:10 *7473:A2 0.000142856
83 *112:12 *206:20 0
84 *134:15 *7446:A 9.77862e-05
85 *134:25 *7446:A 0
86 *154:18 *7473:A2 2.16391e-05
87 *154:30 *7439:A2 0.00014285
88 *154:30 *206:91 6.87839e-06
89 *197:47 *206:37 3.84254e-05
90 *197:47 *206:45 0.000179664
*RES
1 *7545:X *206:4 9.3 
2 *206:4 *206:8 6.91071 
3 *206:8 *206:20 16.7013 
4 *206:20 *7377:A 25.4483 
5 *206:20 *206:37 4.5975 
6 *206:37 *206:45 5.72321 
7 *206:45 *7378:B 14.3804 
8 *206:45 *7481:B 22.447 
9 *206:37 *7478:B 13.8 
10 *206:8 *7437:A2 9.3 
11 *206:4 *206:87 7.5 
12 *206:87 *206:89 1.94643 
13 *206:89 *206:91 2.70536 
14 *206:91 *7439:A2 16.2732 
15 *206:91 *7473:A2 17.7018 
16 *206:89 *7438:A2 13.8 
17 *206:87 *206:134 13.5 
18 *206:134 *7440:C 9.3 
19 *206:134 *7446:A 32.9786 
*END

*D_NET *207 0.0043783
*CONN
*I *7449:B I *D sky130_fd_sc_hd__and3_2
*I *7464:C I *D sky130_fd_sc_hd__and4_2
*I *7458:A I *D sky130_fd_sc_hd__and2_2
*I *7471:A I *D sky130_fd_sc_hd__nand3_2
*I *7448:A1 I *D sky130_fd_sc_hd__a21oi_2
*I *7546:X O *D sky130_fd_sc_hd__clkdlybuf4s25_1
*CAP
1 *7449:B 0.000287656
2 *7464:C 0
3 *7458:A 0.000143353
4 *7471:A 0
5 *7448:A1 0.000343458
6 *7546:X 0.000322636
7 *207:38 0.000396414
8 *207:23 0.000498935
9 *207:6 0.000624311
10 *7448:A1 *7448:B1 0.000263269
11 *7449:B *7373:D_N 9.46929e-05
12 *7449:B *792:20 2.89114e-05
13 *207:23 *7373:A 1.14671e-05
14 *207:23 *7373:C 0.000146002
15 *207:23 *7373:D_N 0
16 *207:23 *7448:B1 2.34204e-05
17 *207:23 *782:25 2.34637e-05
18 *207:38 *7464:A 0.0001399
19 *7450:B *7448:A1 2.70354e-05
20 *7450:C *7448:A1 0.00020391
21 *7450:C *207:6 1.92905e-05
22 *7458:B *7458:A 0
23 *7465:C *7458:A 0.000170484
24 *7467:B *207:23 3.47641e-06
25 *7470:D *207:23 0
26 *7471:B *207:38 0.00032728
27 *137:50 *7449:B 0.000152112
28 *150:12 *207:38 8.9904e-05
29 *155:24 *207:38 3.6916e-05
*RES
1 *7546:X *207:6 9.83571 
2 *207:6 *7448:A1 15.2107 
3 *207:6 *207:23 13.375 
4 *207:23 *7471:A 9.3 
5 *207:23 *207:38 6.57143 
6 *207:38 *7458:A 21.0857 
7 *207:38 *7464:C 9.3 
8 *7546:X *7449:B 22.4214 
*END

*D_NET *208 0.0176928
*CONN
*I *7441:A I *D sky130_fd_sc_hd__nor3_2
*I *7450:A I *D sky130_fd_sc_hd__nor3_2
*I *7452:B1 I *D sky130_fd_sc_hd__a21oi_2
*I *7456:A I *D sky130_fd_sc_hd__nor3_2
*I *7459:A I *D sky130_fd_sc_hd__nor2_2
*I *7442:B1 I *D sky130_fd_sc_hd__a21oi_2
*I *7473:B1 I *D sky130_fd_sc_hd__a31o_2
*I *7437:B1 I *D sky130_fd_sc_hd__a21oi_2
*I *7378:A I *D sky130_fd_sc_hd__or2_2
*I *7482:A I *D sky130_fd_sc_hd__nor3_2
*I *7547:X O *D sky130_fd_sc_hd__clkdlybuf4s25_1
*CAP
1 *7441:A 4.96763e-05
2 *7450:A 0
3 *7452:B1 0
4 *7456:A 0
5 *7459:A 0.000386995
6 *7442:B1 0
7 *7473:B1 0.000202357
8 *7437:B1 0
9 *7378:A 0.000213963
10 *7482:A 0.000160231
11 *7547:X 0.000189935
12 *208:117 0.000835524
13 *208:105 0.00146802
14 *208:95 0.00112466
15 *208:88 0.000448989
16 *208:69 0.000859243
17 *208:61 0.000508643
18 *208:54 0.000845298
19 *208:27 0.00129239
20 *208:10 0.000729195
21 *7378:A *7374:B 1.59373e-05
22 *7378:A *7475:A 7.11278e-06
23 *7378:A *235:18 1.90936e-05
24 *7441:A *781:25 2.89016e-05
25 *7459:A *7371:B 0
26 *7459:A *796:40 0
27 *7473:B1 *7439:B1 0
28 *7473:B1 *7473:A1 1.59312e-05
29 *7473:B1 *788:14 0
30 *208:54 *7376:B1 3.25078e-05
31 *208:54 *7437:A1 2.95726e-05
32 *208:54 *7477:A1 0.000142327
33 *208:61 *7437:A1 0.000132099
34 *208:61 *781:25 5.38273e-05
35 *208:69 *788:14 0
36 *208:88 *7372:D_N 0.000541709
37 *208:88 *781:53 0.000186669
38 *208:88 *781:62 0.000170385
39 *208:88 *789:16 0.00014285
40 *208:88 *789:20 2.77289e-05
41 *208:88 *790:16 6.58597e-05
42 *208:88 *790:18 0.00028575
43 *208:105 *7443:A1 6.05161e-06
44 *208:105 *7452:A1 0.000146533
45 *208:105 *7529:RESET_B 0.000173804
46 *208:117 *792:14 0
47 *208:117 *792:20 0.000321843
48 *208:117 *793:25 8.51331e-05
49 *208:117 *793:33 9.83442e-05
50 *7378:B *7378:A 5.7836e-06
51 *7438:B1 *208:54 5.52238e-05
52 *7438:B1 *208:61 0.000557783
53 *7441:B *7473:B1 0
54 *7441:B *208:69 0
55 *7441:C *208:69 0.000318101
56 *7442:A2 *208:88 9.71197e-05
57 *7443:B1 *208:88 0.000528337
58 *7452:A2 *208:117 0
59 *7453:B1 *208:105 2.89016e-05
60 *7456:B *208:117 0.000141729
61 *7457:A *208:117 0
62 *7459:B *7459:A 5.37741e-06
63 *7460:A2 *7459:A 0
64 *7460:B1 *7459:A 0.000124869
65 *7478:D *208:54 0
66 *7481:C *208:27 5.7661e-06
67 *7481:D *208:27 1.07719e-05
68 *7482:B *7482:A 7.47974e-05
69 *7482:B *208:10 0
70 *7482:B *208:27 0.000241352
71 *7482:C *7482:A 5.33005e-05
72 *7482:C *208:10 2.94103e-05
73 *7511:D *7378:A 9.83704e-05
74 *7522:CLK *208:105 7.28183e-05
75 *7525:CLK *7459:A 0.000172085
76 *7530:CLK *208:27 5.49489e-05
77 *7530:CLK *208:54 0.000349692
78 *7532:D *7482:A 5.30637e-06
79 *7540:A *208:105 0.000105163
80 *7541:A *208:105 5.52238e-05
81 *7545:A *208:54 9.90367e-05
82 *7545:A *208:61 5.88445e-05
83 *3:30 *7378:A 2.27759e-05
84 *103:33 *208:105 9.24395e-05
85 *104:38 *208:10 7.55769e-05
86 *111:12 *208:54 0.000406861
87 *137:6 *208:88 5.33334e-05
88 *137:25 *208:88 3.82839e-05
89 *137:25 *208:95 7.84156e-05
90 *140:32 *208:117 6.51946e-05
91 *154:38 *208:54 0.000192968
92 *162:8 *7482:A 5.03772e-05
93 *162:8 *208:27 0.000502214
94 *162:25 *208:10 0.000128725
95 *196:55 *208:105 9.47613e-05
96 *197:47 *208:27 0.000180072
97 *200:48 *208:105 0.000109584
98 *206:8 *208:54 8.55609e-05
99 *206:45 *7378:A 3.94634e-05
100 *206:87 *208:61 3.37161e-05
101 *206:87 *208:69 1.24368e-05
102 *206:134 *7441:A 1.24368e-05
103 *206:134 *208:69 2.24195e-05
*RES
1 *7547:X *208:10 22.3714 
2 *208:10 *7482:A 12.7286 
3 *208:10 *208:27 10.1429 
4 *208:27 *7378:A 21.8179 
5 *208:27 *208:54 23.6786 
6 *208:54 *7437:B1 9.3 
7 *208:54 *208:61 6.28571 
8 *208:61 *208:69 10.3929 
9 *208:69 *7473:B1 16.3536 
10 *208:69 *208:88 17.9286 
11 *208:88 *7442:B1 9.3 
12 *208:88 *208:95 2.17857 
13 *208:95 *208:105 28.2321 
14 *208:105 *208:117 18.2857 
15 *208:117 *7459:A 26.7286 
16 *208:117 *7456:A 9.3 
17 *208:105 *7452:B1 9.3 
18 *208:95 *7450:A 9.3 
19 *208:61 *7441:A 10.675 
*END

*D_NET *209 0.040206
*CONN
*I *7363:A I *D sky130_fd_sc_hd__and3_2
*I *7420:A I *D sky130_fd_sc_hd__and3_2
*I *7417:A I *D sky130_fd_sc_hd__and3_2
*I *7421:A I *D sky130_fd_sc_hd__and3_2
*I *7424:A I *D sky130_fd_sc_hd__and3_2
*I *7416:A I *D sky130_fd_sc_hd__and3_2
*I *7415:A I *D sky130_fd_sc_hd__and3_2
*I *7419:A I *D sky130_fd_sc_hd__and3_2
*I *7423:A I *D sky130_fd_sc_hd__and3_2
*I *7361:A I *D sky130_fd_sc_hd__and3_2
*I *7548:X O *D sky130_fd_sc_hd__clkdlybuf4s25_1
*CAP
1 *7363:A 0
2 *7420:A 0
3 *7417:A 0
4 *7421:A 0.000399225
5 *7424:A 0
6 *7416:A 0
7 *7415:A 0
8 *7419:A 1.11927e-05
9 *7423:A 0.000226664
10 *7361:A 0.000579034
11 *7548:X 0.000414597
12 *209:98 0.00169311
13 *209:77 0.00197587
14 *209:69 0.00102347
15 *209:62 0.000649266
16 *209:51 0.000921534
17 *209:31 0.000671086
18 *209:29 0.00104698
19 *209:27 0.00648152
20 *209:25 0.00648152
21 *209:14 0.00275762
22 *209:8 0.00259318
23 *7421:A *7391:S1 0.000144231
24 *7421:A *7417:C 1.51217e-05
25 *7421:A *211:8 2.24763e-05
26 *7421:A *211:27 0.000694959
27 *7423:A *7423:B 1.1979e-05
28 *7423:A *212:22 3.61629e-06
29 *209:14 *7357:A 0.000491661
30 *209:98 *7380:B 0.000231722
31 *209:98 *7386:A_N 0.00044852
32 *209:98 *7391:S1 0.000342549
33 *209:98 *211:8 0.000122047
34 *7415:C *209:62 0.000871124
35 *7415:C *209:69 9.90367e-05
36 *7419:C *209:31 0.000624791
37 *7419:C *209:51 0.000951131
38 *7419:C *209:62 0.00177266
39 *7419:C *209:69 0.000308536
40 *7419:C *209:77 9.22103e-06
41 *7420:C *209:77 9.42062e-05
42 *7501:D *209:14 0.000276211
43 *7548:A *209:8 0.000320024
44 *7571:A *209:98 0.000144773
45 *8110:en *209:77 0.000432349
46 *8110:en *209:98 0.000125057
47 *98:10 *209:8 9.01258e-06
48 *98:14 *209:8 8.04806e-06
49 *98:14 *209:14 0.000259631
50 *98:18 *7361:A 0.000209611
51 *98:18 *209:14 0.00134165
52 *100:26 *209:77 1.02439e-05
53 *118:14 *209:98 0.00174779
54 *118:22 *209:98 2.89114e-05
55 *167:14 *209:27 0
56 *168:8 *209:8 2.65105e-05
57 *178:8 *7423:A 3.18676e-05
58 *178:8 *209:31 4.88637e-05
59 *178:14 *209:27 0
*RES
1 *7548:X *209:8 15.1929 
2 *209:8 *209:14 45.8571 
3 *209:14 *7361:A 17.2464 
4 *209:14 *209:25 4.5 
5 *209:25 *209:27 130.357 
6 *209:27 *209:29 4.5 
7 *209:29 *209:31 6.69643 
8 *209:31 *7423:A 12.3179 
9 *209:31 *7419:A 9.72857 
10 *209:29 *209:51 9.58929 
11 *209:51 *7415:A 9.3 
12 *209:51 *209:62 17.6071 
13 *209:62 *7416:A 9.3 
14 *209:62 *209:69 7.51786 
15 *209:69 *209:77 13.4286 
16 *209:77 *7424:A 9.3 
17 *209:77 *209:98 44.8571 
18 *209:98 *7421:A 17.8 
19 *209:98 *7417:A 9.3 
20 *209:69 *7420:A 9.3 
21 *209:8 *7363:A 9.3 
*END

*D_NET *210 0.0284094
*CONN
*I *7365:A I *D sky130_fd_sc_hd__and3_2
*I *7367:A I *D sky130_fd_sc_hd__and3_2
*I *7397:B2 I *D sky130_fd_sc_hd__a22o_2
*I *7425:A I *D sky130_fd_sc_hd__and3_2
*I *7422:A I *D sky130_fd_sc_hd__and3_2
*I *7418:A I *D sky130_fd_sc_hd__and3_2
*I *7426:A I *D sky130_fd_sc_hd__and3_2
*I *7549:X O *D sky130_fd_sc_hd__clkdlybuf4s25_1
*CAP
1 *7365:A 0.000689213
2 *7367:A 0.000309231
3 *7397:B2 0.000333183
4 *7425:A 3.89625e-05
5 *7422:A 0
6 *7418:A 0.000355105
7 *7426:A 4.90029e-05
8 *7549:X 0
9 *210:45 0.00143502
10 *210:41 0.00333066
11 *210:33 0.00247367
12 *210:31 0.000665967
13 *210:16 0.00215426
14 *210:8 0.00257129
15 *210:4 0.000994833
16 *7365:A *7733:A 2.79827e-05
17 *7365:A *7734:A 9.52792e-05
18 *7365:A *7735:A 0.000174823
19 *7365:A *7737:A 3.67825e-05
20 *7365:A *7742:A 3.00023e-05
21 *7365:A *7743:A 9.57215e-05
22 *7365:A *7744:A 3.33238e-05
23 *7397:B2 *7629:A 0.000181796
24 *7397:B2 *228:59 7.09608e-05
25 *7418:A *7418:C 0.00010096
26 *7418:A *211:42 0.00045396
27 *210:16 *7393:S0 2.79339e-05
28 *210:16 *7646:A 0.000154762
29 *210:16 *7772:A 0.000129868
30 *210:16 *8098:B 0.000121948
31 *210:16 *221:55 0.000288741
32 *210:33 *7999:A 0.000243627
33 *210:33 *228:59 0
34 *210:41 *7847:A 0
35 *210:41 *7859:A 3.69697e-05
36 *210:41 *7862:A 5.35423e-05
37 *210:41 *7864:A 0.00010326
38 *210:41 *7867:A 6.97972e-05
39 *210:41 *7874:B 5.26091e-05
40 *210:41 *7993:A 3.25078e-05
41 *210:41 *7998:A 0.000126439
42 *210:41 *7999:A 0.00010326
43 *210:41 *214:59 0
44 *210:41 *214:80 3.09351e-05
45 *210:41 *228:59 0
46 *210:45 *211:42 0.00421423
47 *799:DIODE *7367:A 2.89114e-05
48 *7393:A1 *210:16 2.11372e-05
49 *7394:A0 *210:41 0.000163437
50 *7394:A1 *210:41 0.000254212
51 *7394:A3 *210:41 3.86982e-05
52 *7397:A1 *7397:B2 0.000144773
53 *7405:C *210:41 1.08359e-05
54 *7406:B *7425:A 1.58163e-05
55 *7409:A *210:31 9.71197e-05
56 *7412:A *7365:A 2.08464e-05
57 *7412:C *7365:A 5.33005e-05
58 *7413:A *7367:A 0
59 *7413:A *210:16 0
60 *7422:C *210:45 5.52302e-05
61 *7426:B *210:31 0.00017138
62 *8106:en *7367:A 3.48705e-05
63 *97:12 *210:8 7.77751e-05
64 *98:63 *7367:A 0
65 *98:78 *7365:A 1.68715e-05
66 *98:91 *7365:A 0.000319793
67 *99:14 *210:45 0.00172204
68 *101:44 *210:41 0
69 *101:59 *210:41 0
70 *101:80 *7397:B2 0
71 *101:101 *7365:A 0.000352663
72 *102:12 *210:41 0
73 *102:36 *210:41 0
74 *102:40 *210:41 0
75 *113:25 *7397:B2 1.02504e-05
76 *118:66 *7426:A 5.52302e-05
77 *118:66 *210:31 0.000170379
78 *118:79 *210:31 0.000158783
79 *118:94 *210:31 6.05161e-06
80 *118:94 *210:33 4.42991e-05
81 *124:14 *7365:A 0.000126629
82 *124:14 *210:8 0.000111442
83 *166:12 *7426:A 0.00014285
84 *166:12 *210:31 9.90431e-05
85 *169:20 *7365:A 2.16629e-05
86 *169:22 *7365:A 0.000139921
87 *182:17 *210:16 0.000103266
88 *204:10 *7397:B2 5.64556e-05
89 *204:12 *7397:B2 2.37761e-05
90 *204:12 *210:33 0.000172519
91 *204:18 *210:33 4.00025e-05
92 *204:18 *210:41 0.000133015
93 *204:31 *210:41 0
94 *204:54 *210:41 8.61181e-05
95 *205:44 *7365:A 0.00061563
*RES
1 *7549:X *210:4 9.3 
2 *210:4 *210:8 8.73214 
3 *210:8 *210:16 43.8393 
4 *210:16 *7426:A 10.6571 
5 *210:16 *210:31 9.69643 
6 *210:31 *210:33 5.28571 
7 *210:33 *210:41 48.6964 
8 *210:41 *210:45 39.9821 
9 *210:45 *7418:A 17.2286 
10 *210:45 *7422:A 9.3 
11 *210:33 *7425:A 14.3357 
12 *210:31 *7397:B2 21.0143 
13 *210:8 *7367:A 18.925 
14 *210:4 *7365:A 29.0321 
*END

*D_NET *211 0.0335744
*CONN
*I *7392:B2 I *D sky130_fd_sc_hd__a22o_2
*I *7383:A1 I *D sky130_fd_sc_hd__a22o_2
*I *7400:C I *D sky130_fd_sc_hd__and3_2
*I *7399:C I *D sky130_fd_sc_hd__and3_2
*I *7401:C I *D sky130_fd_sc_hd__and3_2
*I *7402:C I *D sky130_fd_sc_hd__and3_2
*I *7418:C I *D sky130_fd_sc_hd__and3_2
*I *7417:C I *D sky130_fd_sc_hd__and3_2
*I *7571:X O *D sky130_fd_sc_hd__buf_2
*CAP
1 *7392:B2 0.000147954
2 *7383:A1 0
3 *7400:C 8.76433e-05
4 *7399:C 0.000179168
5 *7401:C 0.00078676
6 *7402:C 0
7 *7418:C 0.000111981
8 *7417:C 1.97597e-05
9 *7571:X 0.000259298
10 *211:106 0.000879079
11 *211:89 0.00110889
12 *211:76 0.00126231
13 *211:57 0.00181582
14 *211:46 0.00104816
15 *211:42 0.00232651
16 *211:40 0.00155264
17 *211:29 0.00105192
18 *211:27 0.00304673
19 *211:8 0.00242408
20 *7399:C *7618:A 1.24368e-05
21 *7400:C *7842:A 5.52238e-05
22 *7401:C *7853:A 2.40564e-05
23 *7401:C *7874:A 0.000144773
24 *7401:C *7894:A 5.35778e-05
25 *7401:C *7895:A 3.06878e-06
26 *211:8 *7380:B 0.000185643
27 *211:8 *229:45 0.00014285
28 *211:27 *7391:S1 0.000154045
29 *211:46 *7896:A 0
30 *211:57 *7890:A 3.2006e-05
31 *211:57 *7893:A 4.48113e-05
32 *211:57 *7894:A 2.49484e-05
33 *211:57 *7895:A 0.00012401
34 *211:57 *7906:B 0
35 *211:76 *7618:A 3.69047e-06
36 *211:76 *7875:A 1.37743e-05
37 *211:76 *7876:A 8.42931e-05
38 *211:76 *7877:A 5.17013e-05
39 *211:76 *7878:A 0.00016507
40 *211:76 *7891:A 1.34554e-05
41 *211:76 *7892:A 0.000202994
42 *211:76 *7893:A 1.27499e-05
43 *211:89 *7920:A 0
44 *211:89 *7923:A 6.97972e-05
45 *211:106 *7833:A 0
46 *211:106 *7842:A 0.00012401
47 *797:DIODE *7392:B2 5.52238e-05
48 *7383:A2 *7392:B2 0.000115143
49 *7383:A2 *211:106 0.000323341
50 *7388:B1 *211:106 3.57844e-05
51 *7389:B *211:106 0.000173083
52 *7392:A1 *7392:B2 4.58976e-05
53 *7396:A *7392:B2 6.40434e-05
54 *7401:B *7401:C 3.97657e-05
55 *7417:B *211:8 1.33343e-05
56 *7417:B *211:27 0.000289246
57 *7418:A *7418:C 0.00010096
58 *7418:A *211:42 0.00045396
59 *7421:A *7417:C 1.51217e-05
60 *7421:A *211:8 2.24763e-05
61 *7421:A *211:27 0.000694959
62 *7421:C *211:27 5.52302e-05
63 *99:14 *211:42 0.000342046
64 *102:12 *211:46 0
65 *102:36 *211:46 0
66 *102:40 *211:46 2.8266e-06
67 *102:40 *211:57 0.000112758
68 *102:59 *211:106 0.000318316
69 *120:37 *211:27 0.00195928
70 *120:37 *211:29 1.33343e-05
71 *120:39 *211:29 0.000787997
72 *120:39 *211:42 0.00092556
73 *120:60 *211:42 0.00135718
74 *120:88 *7399:C 5.7616e-05
75 *120:88 *211:89 0.000315639
76 *120:88 *211:106 0.00066482
77 *125:16 *7399:C 0
78 *125:16 *211:89 0
79 *125:16 *211:106 0
80 *204:54 *7401:C 3.14641e-05
81 *209:98 *211:8 0.000122047
82 *210:45 *211:42 0.00421423
*RES
1 *7571:X *211:8 15.4964 
2 *211:8 *7417:C 9.72857 
3 *211:8 *211:27 41.7054 
4 *211:27 *211:29 18.8125 
5 *211:29 *7418:C 11.0857 
6 *211:29 *211:40 0.732143 
7 *211:40 *211:42 53.5179 
8 *211:42 *211:46 18.5893 
9 *211:46 *7402:C 13.8 
10 *211:46 *211:57 10.6964 
11 *211:57 *7401:C 19.8179 
12 *211:57 *211:76 17.9107 
13 *211:76 *7399:C 16.4964 
14 *211:76 *211:89 7.41071 
15 *211:89 *7400:C 15.1571 
16 *211:89 *211:106 26.2321 
17 *211:106 *7383:A1 9.3 
18 *211:106 *7392:B2 12.8536 
*END

*D_NET *212 0.0450161
*CONN
*I *7415:B I *D sky130_fd_sc_hd__and3_2
*I *7419:B I *D sky130_fd_sc_hd__and3_2
*I *7361:C I *D sky130_fd_sc_hd__and3_2
*I *7423:B I *D sky130_fd_sc_hd__and3_2
*I *8115:X O *D sky130_fd_sc_hd__clkbuf_4
*CAP
1 *7415:B 0
2 *7419:B 0
3 *7361:C 0
4 *7423:B 7.86314e-05
5 *8115:X 0.000140378
6 *212:51 0.00650627
7 *212:22 0.00671212
8 *212:20 0.00124366
9 *212:18 0.00126139
10 *212:12 0.00455247
11 *212:10 0.00454791
12 *7419:C *212:20 0.000467133
13 *7423:A *7423:B 1.1979e-05
14 *7423:A *212:22 3.61629e-06
15 *7423:C *212:51 3.69697e-05
16 *8109:en *212:20 8.76257e-05
17 *8109:en *212:22 9.90431e-05
18 *8109:en *212:51 0.00010679
19 *8113:en *212:51 0.000254765
20 *100:14 *212:12 0.00100958
21 *101:20 *212:12 0
22 *114:28 *212:12 0.00540988
23 *120:156 *212:12 0.000875072
24 *125:12 *212:12 0.0055401
25 *178:8 *212:20 0.000136019
26 *178:8 *212:22 1.74352e-05
27 *180:7 *212:51 0
28 *180:9 *212:12 0.000674676
29 *188:9 *212:12 0.00524261
*RES
1 *8115:X *212:10 20.55 
2 *212:10 *212:12 161.125 
3 *212:12 *212:18 11.25 
4 *212:18 *212:20 15.7321 
5 *212:20 *212:22 1.76786 
6 *212:22 *7423:B 10.2464 
7 *212:22 *212:51 49.033 
8 *212:51 *7361:C 9.3 
9 *212:20 *7419:B 9.3 
10 *212:18 *7415:B 9.3 
*END

*D_NET *213 0.0045127
*CONN
*I *7368:B I *D sky130_fd_sc_hd__and2b_2
*I *7534:D I *D sky130_fd_sc_hd__dfrtp_2
*I *7369:B I *D sky130_fd_sc_hd__nand2b_2
*I *7562:X O *D sky130_fd_sc_hd__clkdlybuf4s25_1
*CAP
1 *7368:B 0.000690435
2 *7534:D 0.000758639
3 *7369:B 0.000332129
4 *7562:X 0.000384228
5 *213:8 0.000784561
6 *7368:B *7368:A_N 0.000318107
7 *7368:B *233:6 9.90367e-05
8 *7369:B *221:14 0.000278725
9 *213:8 *221:14 6.08483e-05
10 *213:8 *237:12 9.60875e-05
11 *3:30 *7369:B 0
12 *198:26 *7369:B 0.000518277
13 *198:26 *7534:D 2.77154e-05
14 *198:26 *213:8 0.000140088
15 *202:12 *7369:B 1.24368e-05
16 *202:12 *213:8 1.13883e-05
*RES
1 *7562:X *213:8 18.8536 
2 *213:8 *7369:B 23.7107 
3 *213:8 *7534:D 15.1393 
4 *7534:D *7368:B 30.7786 
*END

*D_NET *214 0.0567887
*CONN
*I *7382:S1 I *D sky130_fd_sc_hd__mux4_2
*I *7385:S1 I *D sky130_fd_sc_hd__mux4_2
*I *7387:S1 I *D sky130_fd_sc_hd__mux4_2
*I *7381:S1 I *D sky130_fd_sc_hd__mux4_2
*I *7360:B I *D sky130_fd_sc_hd__nor2_2
*I *7362:A_N I *D sky130_fd_sc_hd__and2b_2
*I *7366:B I *D sky130_fd_sc_hd__and2_2
*I *7364:B I *D sky130_fd_sc_hd__and2b_2
*I *7391:S1 I *D sky130_fd_sc_hd__mux4_2
*I *7390:S1 I *D sky130_fd_sc_hd__mux4_2
*I *7550:X O *D sky130_fd_sc_hd__clkdlybuf4s25_1
*CAP
1 *7382:S1 0.000822536
2 *7385:S1 7.19737e-05
3 *7387:S1 0.000175896
4 *7381:S1 0.000102759
5 *7360:B 0
6 *7362:A_N 0
7 *7366:B 0
8 *7364:B 0
9 *7391:S1 0.00471346
10 *7390:S1 0.000382461
11 *7550:X 0.000538963
12 *214:139 0.00131611
13 *214:120 0.000771552
14 *214:109 0.0010177
15 *214:98 0.000905243
16 *214:89 0.000493262
17 *214:80 0.000868905
18 *214:59 0.00342795
19 *214:30 0.00760141
20 *214:28 0.00630874
21 *214:26 0.00646524
22 *7382:S1 *7382:A1 0.000143375
23 *7382:S1 *7382:A3 4.48647e-05
24 *7382:S1 *7385:A3 0.000154762
25 *7382:S1 *7804:A 8.06427e-05
26 *7382:S1 *8049:A 0.000175519
27 *7382:S1 *216:24 1.18064e-05
28 *7387:S1 *7387:A2 0.000136958
29 *7387:S1 *7387:A3 5.52238e-05
30 *214:26 *220:16 0.000881782
31 *214:80 *7364:A_N 0.000161901
32 *214:80 *216:55 3.39124e-05
33 *214:89 *7364:A_N 1.25441e-05
34 *214:89 *216:55 0.000935551
35 *214:98 *7360:A 5.49489e-05
36 *214:98 *216:47 8.59075e-05
37 *214:98 *216:49 0.000171913
38 *214:98 *216:55 0.000184246
39 *214:109 *7381:A1 0.00010326
40 *214:109 *216:47 7.30302e-05
41 *214:120 *7381:S0 0.000568254
42 *214:120 *7979:A 0.000177941
43 *214:120 *216:24 4.80729e-05
44 *214:139 *7979:A 0.000135502
45 *214:139 *216:24 0.000806278
46 *7390:A1 *7390:S1 1.02504e-05
47 *7390:A2 *7390:S1 0
48 *7390:A3 *7390:S1 1.02504e-05
49 *7391:A1 *7391:S1 6.33055e-05
50 *7391:A2 *7391:S1 0
51 *7391:A3 *7391:S1 1.02504e-05
52 *7397:B1 *214:139 0.00010326
53 *7400:B *214:109 0.000458429
54 *7411:B *7382:S1 0.00115564
55 *7417:B *7391:S1 0.000134008
56 *7421:A *7391:S1 0.000144231
57 *8111:en *7391:S1 0.000105155
58 *97:34 *214:26 0.000321991
59 *97:42 *7390:S1 0.000447579
60 *97:42 *214:26 3.08664e-05
61 *98:105 *7382:S1 0.000588349
62 *99:8 *214:109 0.00014285
63 *99:21 *214:109 0.000756709
64 *99:32 *214:109 0.000389861
65 *99:45 *7382:S1 0.00062369
66 *99:45 *214:109 0.00118709
67 *99:45 *214:120 0.000211441
68 *99:45 *214:139 0.00038774
69 *100:14 *7391:S1 0.000813381
70 *100:14 *214:59 0.00486637
71 *100:14 *214:89 0.000118413
72 *101:8 *214:80 6.20656e-05
73 *101:44 *214:59 4.50033e-05
74 *102:12 *214:80 4.64488e-06
75 *102:36 *214:80 0
76 *116:12 *7382:S1 2.79421e-05
77 *118:14 *7391:S1 0.000476082
78 *120:37 *7391:S1 0.000192863
79 *120:66 *214:109 0.000280098
80 *120:77 *214:109 6.04891e-05
81 *120:88 *214:109 0.000284874
82 *120:88 *214:120 1.18064e-05
83 *202:35 *214:26 0.000121926
84 *204:86 *214:109 0.000389861
85 *209:98 *7391:S1 0.000342549
86 *210:41 *214:59 0
87 *210:41 *214:80 3.09351e-05
88 *211:27 *7391:S1 0.000154045
*RES
1 *7550:X *7390:S1 33.475 
2 *7550:X *214:26 22.1393 
3 *214:26 *214:28 125.652 
4 *214:28 *214:30 3.41 
5 *214:30 *7391:S1 35.7466 
6 *214:30 *214:59 21.6535 
7 *214:59 *7364:B 9.3 
8 *214:59 *214:80 17.0179 
9 *214:80 *7366:B 9.3 
10 *214:80 *214:89 9.17857 
11 *214:89 *7362:A_N 9.3 
12 *214:89 *214:98 4.66071 
13 *214:98 *7360:B 9.3 
14 *214:98 *214:109 35.9464 
15 *214:109 *7381:S1 15.1571 
16 *214:109 *214:120 8.01786 
17 *214:120 *7387:S1 16.8 
18 *214:120 *214:139 12.6786 
19 *214:139 *7385:S1 14.7464 
20 *214:139 *7382:S1 41.4429 
*END

*D_NET *215 0.0188965
*CONN
*I *7570:A I *D sky130_fd_sc_hd__buf_4
*I *7569:A I *D sky130_fd_sc_hd__clkbuf_4
*I *7382:S0 I *D sky130_fd_sc_hd__mux4_2
*I *7551:X O *D sky130_fd_sc_hd__clkdlybuf4s25_1
*CAP
1 *7570:A 0
2 *7569:A 0.000262044
3 *7382:S0 0.000101281
4 *7551:X 0.000201295
5 *215:26 0.00817044
6 *215:10 0.00800841
7 *7569:A *7382:A1 0.000140886
8 *7569:A *7745:A 0.000186765
9 *215:26 *7393:S0 3.91483e-05
10 *215:26 *228:38 0.00148787
11 uio_out[0] *215:26 4.73891e-05
12 *7390:A3 *215:26 9.97767e-06
13 *7393:A0 *215:26 0
14 *7393:A1 *215:26 0
15 *7393:A2 *215:26 0
16 *7398:B *215:10 3.18676e-05
17 *100:114 *7382:S0 0.000187616
18 *104:23 *215:10 2.14658e-05
19 *202:35 *215:10 0
*RES
1 *7551:X *215:10 16.6929 
2 *215:10 *215:26 40.1522 
3 *215:26 *7382:S0 6.90179 
4 *215:26 *7569:A 18.8536 
5 *215:10 *7570:A 13.8 
*END

*D_NET *216 0.0167428
*CONN
*I *7360:A I *D sky130_fd_sc_hd__nor2_2
*I *7362:B I *D sky130_fd_sc_hd__and2b_2
*I *7366:A I *D sky130_fd_sc_hd__and2_2
*I *7364:A_N I *D sky130_fd_sc_hd__and2b_2
*I *7387:S0 I *D sky130_fd_sc_hd__mux4_2
*I *7381:S0 I *D sky130_fd_sc_hd__mux4_2
*I *7385:S0 I *D sky130_fd_sc_hd__mux4_2
*I *7569:X O *D sky130_fd_sc_hd__clkbuf_4
*CAP
1 *7360:A 8.37849e-05
2 *7362:B 0
3 *7366:A 0
4 *7364:A_N 0.000282528
5 *7387:S0 0
6 *7381:S0 0.00115751
7 *7385:S0 0.00112642
8 *7569:X 0.000799862
9 *216:55 0.0008013
10 *216:49 0.00058605
11 *216:47 0.00118346
12 *216:24 0.000451672
13 *7385:S0 *7382:A0 3.63281e-05
14 *7385:S0 *7382:A3 0
15 *7385:S0 *7785:A 8.33056e-05
16 *216:24 *7385:A3 3.51442e-05
17 *216:47 *7381:A3 0.000159687
18 *216:47 *7832:A 0.00012401
19 *216:47 *7841:A 1.69252e-05
20 *216:47 *7875:A 3.39905e-05
21 *216:47 *7880:A 0.00012401
22 *216:47 *7905:A 0.000151678
23 *7382:S1 *216:24 1.18064e-05
24 *7383:B2 *216:24 5.59013e-05
25 *7388:B1 *216:24 0.000255886
26 *7404:B *216:47 2.55698e-05
27 *7407:C *7385:S0 9.7367e-05
28 *7411:B *7385:S0 0.00129019
29 *98:105 *216:24 0.000358861
30 *99:21 *216:47 0.000708636
31 *99:32 *216:47 0.000381318
32 *99:45 *7385:S0 0.000584153
33 *99:45 *216:47 0.00119861
34 *100:8 *216:49 5.65955e-05
35 *100:8 *216:55 9.83442e-05
36 *100:14 *7360:A 0
37 *101:8 *7364:A_N 0.000131439
38 *101:20 *7364:A_N 0.00010096
39 *102:59 *216:24 5.56962e-05
40 *118:141 *7385:S0 0.00016774
41 *120:88 *7381:S0 0.000565832
42 *120:88 *216:24 0.000148182
43 *205:74 *7385:S0 7.54868e-05
44 *214:80 *7364:A_N 0.000161901
45 *214:80 *216:55 3.39124e-05
46 *214:89 *7364:A_N 1.25441e-05
47 *214:89 *216:55 0.000935551
48 *214:98 *7360:A 5.49489e-05
49 *214:98 *216:47 8.59075e-05
50 *214:98 *216:49 0.000171913
51 *214:98 *216:55 0.000184246
52 *214:109 *216:47 7.30302e-05
53 *214:120 *7381:S0 0.000568254
54 *214:120 *216:24 4.80729e-05
55 *214:139 *216:24 0.000806278
*RES
1 *7569:X *7385:S0 42.1036 
2 *7385:S0 *216:24 17.7321 
3 *216:24 *7381:S0 11.6071 
4 *216:24 *7387:S0 4.5 
5 *7381:S0 *216:47 40.1429 
6 *216:47 *216:49 1.76786 
7 *216:49 *216:55 11.7679 
8 *216:55 *7364:A_N 16.0143 
9 *216:55 *7366:A 9.3 
10 *216:49 *7362:B 9.3 
11 *216:47 *7360:A 19.5679 
*END

*D_NET *217 0.0253122
*CONN
*I *7391:S0 I *D sky130_fd_sc_hd__mux4_2
*I *7390:S0 I *D sky130_fd_sc_hd__mux4_2
*I *7570:X O *D sky130_fd_sc_hd__buf_4
*CAP
1 *7391:S0 0.00144204
2 *7390:S0 0.00143773
3 *7570:X 0.000285023
4 *217:28 0.00528243
5 *217:26 0.00499309
6 *217:28 *229:12 7.3302e-06
7 *217:28 *229:14 0.0100714
8 *217:28 *780:16 0
9 *7390:A0 *7390:S0 0
10 *7390:A2 *7390:S0 0
11 *7391:A0 *7391:S0 4.29086e-05
12 *7391:A2 *7391:S0 0
13 *98:10 *217:26 0.00022266
14 *100:14 *7391:S0 0.000593684
15 *120:156 *7391:S0 0.000589027
16 *124:8 *7390:S0 0.000103897
17 *179:18 *7391:S0 0.000121261
18 *188:9 *7391:S0 0.000119776
*RES
1 *7570:X *7390:S0 23.4875 
2 *7390:S0 *217:26 18.4375 
3 *217:26 *217:28 123.375 
4 *217:28 *7391:S0 46.6429 
*END

*D_NET *218 0.0139092
*CONN
*I *7524:RESET_B I *D sky130_fd_sc_hd__dfrtp_2
*I *7525:RESET_B I *D sky130_fd_sc_hd__dfrtp_2
*I *7523:RESET_B I *D sky130_fd_sc_hd__dfrtp_2
*I *7522:RESET_B I *D sky130_fd_sc_hd__dfrtp_2
*I *7530:RESET_B I *D sky130_fd_sc_hd__dfrtp_2
*I *7520:RESET_B I *D sky130_fd_sc_hd__dfrtp_2
*I *7521:RESET_B I *D sky130_fd_sc_hd__dfrtp_2
*I *7519:RESET_B I *D sky130_fd_sc_hd__dfrtp_2
*I *7518:RESET_B I *D sky130_fd_sc_hd__dfrtp_2
*I *7511:RESET_B I *D sky130_fd_sc_hd__dfrtp_2
*I *7552:X O *D sky130_fd_sc_hd__clkdlybuf4s25_1
*CAP
1 *7524:RESET_B 0
2 *7525:RESET_B 0.000276603
3 *7523:RESET_B 0.0013288
4 *7522:RESET_B 2.62209e-05
5 *7530:RESET_B 0.000166069
6 *7520:RESET_B 0.00075614
7 *7521:RESET_B 0.00067499
8 *7519:RESET_B 0.000747847
9 *7518:RESET_B 8.91106e-05
10 *7511:RESET_B 0.000491025
11 *7552:X 0
12 *218:131 0.000508611
13 *218:103 0.00172577
14 *218:56 0.00100622
15 *218:28 0.000705443
16 *218:4 0.000703436
17 *7511:RESET_B *7376:B1 0
18 *7511:RESET_B *219:117 3.47641e-06
19 *7511:RESET_B *235:6 5.52302e-05
20 *7511:RESET_B *235:18 9.23695e-05
21 *7520:RESET_B *219:117 5.86543e-05
22 *7520:RESET_B *789:10 4.85631e-05
23 *7521:RESET_B *789:10 0
24 *7521:RESET_B *789:16 0
25 *7521:RESET_B *790:16 0.000278493
26 *7522:RESET_B *791:10 1.59338e-05
27 *7523:RESET_B *791:10 1.81945e-05
28 *7523:RESET_B *792:10 2.27357e-05
29 *7530:RESET_B *784:6 1.52723e-05
30 *218:28 *7438:A1 0
31 *218:28 *219:117 0
32 *218:28 *781:25 4.98872e-05
33 *218:56 *788:10 0.000138106
34 *218:103 *789:10 5.04589e-05
35 *218:103 *791:10 1.66373e-05
36 *218:131 *792:10 0.000137472
37 *7376:A4 *7511:RESET_B 0
38 *7438:B1 *218:28 0.000150611
39 *7446:A *7521:RESET_B 0
40 *7447:C *7530:RESET_B 3.87443e-05
41 *7472:C1 *7521:RESET_B 0.000134329
42 *7474:A2 *7530:RESET_B 0.000220872
43 *7518:D *7518:RESET_B 0.000212427
44 *7518:D *218:28 0.000264663
45 *7520:CLK *7519:RESET_B 0.000160582
46 *7520:CLK *218:56 0.000111727
47 *7520:D *7520:RESET_B 5.52302e-05
48 *7520:D *218:56 0.00040381
49 *7521:CLK *7530:RESET_B 0.000118383
50 *7522:D *218:103 0.000313017
51 *7523:D *7523:RESET_B 2.15245e-05
52 *7530:CLK *7511:RESET_B 0.000294303
53 *103:33 *7521:RESET_B 0
54 *106:18 *7511:RESET_B 2.09897e-05
55 *111:12 *7511:RESET_B 0
56 *134:25 *7521:RESET_B 6.94775e-05
57 *154:30 *7511:RESET_B 0.000140933
58 *154:30 *218:28 0.000128496
59 *196:11 *7511:RESET_B 9.11365e-06
60 *196:33 *7521:RESET_B 8.22793e-06
61 *196:71 *7511:RESET_B 0.000173786
62 *196:71 *218:28 1.79825e-05
63 *198:52 *7518:RESET_B 0.000313357
64 *198:52 *7519:RESET_B 0.000102776
65 *200:59 *7523:RESET_B 0.000216029
*RES
1 *7552:X *218:4 9.3 
2 *218:4 *7511:RESET_B 19.8125 
3 *218:4 *218:28 14.8571 
4 *218:28 *7518:RESET_B 3.66964 
5 *218:28 *7519:RESET_B 6.36607 
6 *7519:RESET_B *218:56 6.36607 
7 *218:56 *7521:RESET_B 18.7679 
8 *218:56 *7520:RESET_B 3.08036 
9 *7521:RESET_B *7530:RESET_B 13.2321 
10 *7520:RESET_B *218:103 12.1964 
11 *218:103 *7522:RESET_B 0.696429 
12 *218:103 *7523:RESET_B 14.3571 
13 *7523:RESET_B *218:131 8.66964 
14 *218:131 *7525:RESET_B 9.48214 
15 *218:131 *7524:RESET_B 4.5 
*END

*D_NET *219 0.0227394
*CONN
*I *7527:RESET_B I *D sky130_fd_sc_hd__dfrtp_2
*I *7528:RESET_B I *D sky130_fd_sc_hd__dfrtp_2
*I *7529:RESET_B I *D sky130_fd_sc_hd__dfrtp_2
*I *7552:A I *D sky130_fd_sc_hd__clkdlybuf4s25_1
*I *7531:RESET_B I *D sky130_fd_sc_hd__dfrtp_2
*I *7532:RESET_B I *D sky130_fd_sc_hd__dfrtp_2
*I *7533:RESET_B I *D sky130_fd_sc_hd__dfrtp_2
*I *7517:RESET_B I *D sky130_fd_sc_hd__dfrtp_2
*I *7534:RESET_B I *D sky130_fd_sc_hd__dfrtp_2
*I *7398:A I *D sky130_fd_sc_hd__and2_2
*I *7553:X O *D sky130_fd_sc_hd__clkdlybuf4s25_1
*CAP
1 *7527:RESET_B 0.000307165
2 *7528:RESET_B 0.000978132
3 *7529:RESET_B 0.00103555
4 *7552:A 0
5 *7531:RESET_B 0.0012626
6 *7532:RESET_B 0.000157085
7 *7533:RESET_B 0.000755807
8 *7517:RESET_B 0.00127254
9 *7534:RESET_B 0.000257539
10 *7398:A 0.000303237
11 *7553:X 0
12 *219:117 0.00237972
13 *219:100 0.00280961
14 *219:54 0.000653233
15 *219:21 0.000935634
16 *219:4 0.000436573
17 *7398:A *234:8 0.000143375
18 *7527:RESET_B *782:6 0.00013324
19 *7528:RESET_B *7559:A 5.14962e-05
20 *7528:RESET_B *782:12 0.000138106
21 *7531:RESET_B *7555:A 8.06331e-05
22 *7534:RESET_B *7369:A_N 0
23 *7534:RESET_B *221:14 0.000173797
24 *219:100 *7477:B1 0.000727318
25 *219:100 *7479:A1 9.66977e-05
26 *219:100 *7558:A 0.000140933
27 *219:117 *789:10 2.84677e-05
28 *7377:A *7531:RESET_B 0.000138826
29 *7377:A *7532:RESET_B 2.28544e-05
30 *7398:B *7398:A 5.49489e-05
31 *7467:B *7528:RESET_B 0
32 *7511:RESET_B *219:117 3.47641e-06
33 *7517:CLK *7517:RESET_B 0.000190096
34 *7517:CLK *7533:RESET_B 0.000736673
35 *7518:D *219:117 0
36 *7520:CLK *219:117 0.000691527
37 *7520:D *219:117 3.97657e-05
38 *7520:RESET_B *219:117 5.86543e-05
39 *7522:D *7529:RESET_B 0
40 *7528:D *7528:RESET_B 9.27404e-05
41 *7531:D *7531:RESET_B 0.000118383
42 *7531:D *219:100 7.87837e-05
43 *7532:CLK *7531:RESET_B 9.25014e-06
44 *7532:CLK *7532:RESET_B 0.00011966
45 *7533:D *7531:RESET_B 1.46624e-05
46 *7547:A *7531:RESET_B 0
47 *7553:A *7398:A 9.83442e-05
48 *3:30 *7398:A 8.34603e-06
49 *3:30 *7533:RESET_B 0.000144275
50 *103:33 *7529:RESET_B 0.0001531
51 *104:38 *7532:RESET_B 0.000396117
52 *108:10 *7528:RESET_B 0.000136182
53 *110:14 *7532:RESET_B 0.000125628
54 *111:12 *219:117 0
55 *112:12 *219:100 3.00941e-05
56 *154:30 *219:100 0.000312209
57 *154:30 *219:117 8.76257e-05
58 *154:38 *219:100 8.84607e-05
59 *196:39 *7528:RESET_B 6.18297e-05
60 *196:55 *7528:RESET_B 5.42457e-05
61 *196:71 *219:100 4.88637e-05
62 *196:71 *219:117 5.33334e-05
63 *196:73 *219:100 0.000161868
64 *196:97 *219:117 0
65 *197:27 *7531:RESET_B 4.73656e-05
66 *197:27 *7533:RESET_B 0.000191737
67 *197:27 *219:54 2.51837e-05
68 *198:26 *7531:RESET_B 0.000354111
69 *198:52 *219:117 0.000346525
70 *199:14 *7528:RESET_B 0.000165665
71 *199:22 *7527:RESET_B 9.38323e-05
72 *199:22 *7528:RESET_B 7.42496e-05
73 *199:51 *7528:RESET_B 0.000375387
74 *202:35 *7398:A 0.000173559
75 *202:35 *7517:RESET_B 0.000792233
76 *202:35 *219:21 0.000316557
77 *206:20 *219:100 1.98839e-05
78 *208:105 *7529:RESET_B 0.000173804
79 *218:28 *219:117 0
*RES
1 *7553:X *219:4 9.3 
2 *219:4 *7398:A 24.4964 
3 *219:4 *219:21 3 
4 *219:21 *7534:RESET_B 13.9821 
5 *219:21 *7517:RESET_B 11.1518 
6 *7517:RESET_B *7533:RESET_B 15.6071 
7 *7533:RESET_B *219:54 4.97321 
8 *219:54 *7532:RESET_B 9.90179 
9 *219:54 *7531:RESET_B 14.5982 
10 *7531:RESET_B *219:100 35.5982 
11 *219:100 *7552:A 9.3 
12 *219:100 *219:117 43.4643 
13 *219:117 *7529:RESET_B 12.2143 
14 *7529:RESET_B *7528:RESET_B 24.3929 
15 *7528:RESET_B *7527:RESET_B 5.33929 
*END

*D_NET *220 0.00937562
*CONN
*I *7379:A I *D sky130_fd_sc_hd__nor2_2
*I *7358:A I *D sky130_fd_sc_hd__and2_2
*I *7563:X O *D sky130_fd_sc_hd__clkdlybuf4s25_1
*CAP
1 *7379:A 0
2 *7358:A 9.23014e-05
3 *7563:X 0.000292165
4 *220:16 0.00213054
5 *220:12 0.0023304
6 *7358:A *7340:A 0
7 *220:12 *221:14 5.52238e-05
8 *220:12 *229:8 0
9 *220:12 *236:10 0
10 *220:16 *228:16 0.00149341
11 uio_out[0] *220:16 0.000376948
12 *7435:A *7358:A 2.83284e-06
13 *7507:RESET_B *220:12 0.000165254
14 *7508:CLK *220:12 0
15 *7508:D *220:12 0
16 *7513:RESET_B *220:12 0.000318967
17 *95:8 *220:16 1.21436e-05
18 *97:34 *7358:A 7.6644e-05
19 *97:34 *220:16 0.000511968
20 *97:42 *220:16 0.000112706
21 *113:10 *7358:A 0.000127439
22 *202:35 *220:16 0.000394902
23 *214:26 *220:16 0.000881782
*RES
1 *7563:X *220:12 25.0321 
2 *220:12 *220:16 42.3393 
3 *220:16 *7358:A 20.55 
4 *220:16 *7379:A 9.3 
*END

*D_NET *221 0.03399
*CONN
*I *7394:S0 I *D sky130_fd_sc_hd__mux4_2
*I *7551:A I *D sky130_fd_sc_hd__clkdlybuf4s25_1
*I *7393:S0 I *D sky130_fd_sc_hd__mux4_2
*I *7564:X O *D sky130_fd_sc_hd__clkdlybuf4s25_1
*CAP
1 *7394:S0 8.50087e-05
2 *7551:A 6.91436e-05
3 *7393:S0 0.00637324
4 *7564:X 0.00126454
5 *221:55 0.00196391
6 *221:53 0.0018789
7 *221:14 0.00770692
8 *7393:S0 *228:38 0.00374643
9 *7393:S0 *228:46 0.000674035
10 *7394:S0 *8002:A 0.00018372
11 *221:14 *7344:A 2.89016e-05
12 *221:14 *237:12 0.000371144
13 *221:55 *7646:A 7.92879e-05
14 *221:55 *7772:A 4.35048e-05
15 *221:55 *7774:A 0.000154762
16 *221:55 *7775:A 0.000102081
17 *221:55 *7776:A 0.000150618
18 *221:55 *7778:B 0.000114821
19 *221:55 *7992:A 0.000195555
20 *221:55 *7994:A 5.03626e-05
21 *221:55 *7995:A 0.000126439
22 *221:55 *8098:A 0.000117342
23 *221:55 *8098:B 0.000322446
24 *221:55 *228:46 5.59013e-05
25 uio_out[0] *7393:S0 7.81607e-05
26 *7369:B *221:14 0.000278725
27 *7393:A1 *7393:S0 0.000797217
28 *7393:A2 *7393:S0 0.000452154
29 *7398:B *7551:A 8.97354e-05
30 *7405:A *221:55 4.46618e-05
31 *7405:B *7394:S0 5.03772e-05
32 *7405:C *7394:S0 3.83238e-05
33 *7408:C *221:55 0.000770209
34 *7413:A *221:55 8.82021e-05
35 *7508:D *221:14 0.000184745
36 *7534:RESET_B *221:14 0.000173797
37 *3:30 *7393:S0 7.01733e-05
38 *101:59 *221:55 2.49484e-05
39 *101:65 *221:55 0.000222704
40 *101:69 *221:55 0
41 *101:80 *221:55 0
42 *101:101 *221:55 0
43 *104:10 *7393:S0 0
44 *104:10 *221:14 0
45 *118:59 *221:55 0
46 *181:9 *7393:S0 0.000916808
47 *182:17 *7393:S0 0.000729896
48 *194:11 *7393:S0 0.00122489
49 *195:9 *7393:S0 0.00117242
50 *202:12 *221:14 0.000183721
51 *204:12 *221:55 0
52 *204:18 *7394:S0 6.72353e-05
53 *204:18 *221:55 0
54 *210:16 *7393:S0 2.79339e-05
55 *210:16 *221:55 0.000288741
56 *213:8 *221:14 6.08483e-05
57 *215:26 *7393:S0 3.91483e-05
58 *220:12 *221:14 5.52238e-05
*RES
1 *7564:X *221:14 36.7286 
2 *221:14 *7393:S0 44.7036 
3 *221:14 *7551:A 15.175 
4 *7393:S0 *221:53 4.5 
5 *221:53 *221:55 46.5714 
6 *221:55 *7394:S0 7.02679 
*END

*D_NET *222 0.000712226
*CONN
*I *7483:A1 I *D sky130_fd_sc_hd__o21ai_2
*I *7484:A1 I *D sky130_fd_sc_hd__a21oi_2
*I *7555:X O *D sky130_fd_sc_hd__dlygate4sd3_1
*CAP
1 *7483:A1 1.84863e-05
2 *7484:A1 4.80777e-05
3 *7555:X 6.48743e-05
4 *222:12 0.000131438
5 *7484:A2 *7483:A1 3.77662e-05
6 *7484:A2 *7484:A1 0.000100625
7 *7484:A2 *222:12 3.99614e-06
8 *7547:A *222:12 0.00010326
9 *103:10 *7484:A1 0.00014285
10 *103:23 *222:12 9.25014e-06
11 *162:25 *222:12 0
12 *198:16 *222:12 5.16027e-05
*RES
1 *7555:X *222:12 20.0679 
2 *222:12 *7484:A1 11.0679 
3 *222:12 *7483:A1 9.83571 
*END

*D_NET *223 0.000571812
*CONN
*I *7436:A1 I *D sky130_fd_sc_hd__o21a_2
*I *7556:X O *D sky130_fd_sc_hd__dlygate4sd3_1
*CAP
1 *7436:A1 9.10769e-05
2 *7556:X 9.10769e-05
3 *7517:D *7436:A1 5.62995e-05
4 *104:23 *7436:A1 0.000188586
5 *104:38 *7436:A1 0.000144773
*RES
1 *7556:X *7436:A1 21.6 
*END

*D_NET *224 0.000989963
*CONN
*I *7460:A1 I *D sky130_fd_sc_hd__o21a_2
*I *7557:X O *D sky130_fd_sc_hd__dlygate4sd3_1
*CAP
1 *7460:A1 0.000249458
2 *7557:X 0.000249458
3 *7460:A1 *794:12 0.000320024
4 *7460:A1 *794:18 0.000171023
*RES
1 *7557:X *7460:A1 24.9036 
*END

*D_NET *225 0.000617321
*CONN
*I *7479:A1 I *D sky130_fd_sc_hd__a31o_2
*I *7558:X O *D sky130_fd_sc_hd__dlygate4sd3_1
*CAP
1 *7479:A1 0.000203455
2 *7558:X 0.000203455
3 *7479:A1 *7477:B1 0
4 *7479:A2 *7479:A1 4.37992e-05
5 *206:20 *7479:A1 6.99147e-05
6 *219:100 *7479:A1 9.66977e-05
*RES
1 *7558:X *7479:A1 31.1 
*END

*D_NET *226 0.001267
*CONN
*I *7472:A1 I *D sky130_fd_sc_hd__o211a_2
*I *7559:X O *D sky130_fd_sc_hd__dlygate4sd3_1
*CAP
1 *7472:A1 0.00016297
2 *7559:X 0.00016297
3 *7468:B *7472:A1 0.000180777
4 *7529:D *7472:A1 5.52302e-05
5 *155:24 *7472:A1 0.00049629
6 *196:37 *7472:A1 0.000208769
*RES
1 *7559:X *7472:A1 25.2875 
*END

*D_NET *227 0.00082025
*CONN
*I *7443:A1 I *D sky130_fd_sc_hd__o21a_2
*I *7560:X O *D sky130_fd_sc_hd__dlygate4sd3_1
*CAP
1 *7443:A1 0.000388742
2 *7560:X 0.000388742
3 *134:25 *7443:A1 3.67142e-05
4 *208:105 *7443:A1 6.05161e-06
*RES
1 *7560:X *7443:A1 24.8857 
*END

*D_NET *228 0.0354059
*CONN
*I *7550:A I *D sky130_fd_sc_hd__clkdlybuf4s25_1
*I *7394:S1 I *D sky130_fd_sc_hd__mux4_2
*I *7393:S1 I *D sky130_fd_sc_hd__mux4_2
*I *7565:X O *D sky130_fd_sc_hd__clkdlybuf4s25_1
*CAP
1 *7550:A 0
2 *7394:S1 0
3 *7393:S1 0
4 *7565:X 0.00102984
5 *228:59 0.00223966
6 *228:55 0.00248286
7 *228:46 0.00113108
8 *228:38 0.00544659
9 *228:16 0.00558856
10 *228:16 *7504:RESET_B 0.00010326
11 *228:16 *229:8 0
12 *228:16 *236:10 0
13 *228:16 *237:12 9.3562e-05
14 *228:59 *7629:A 0.000122875
15 *228:59 *7756:A 0.000223592
16 *228:59 *7759:A 0
17 *228:59 *7765:A 0
18 *228:59 *7971:A 6.97972e-05
19 *228:59 *7972:A 0
20 *228:59 *7999:A 3.06406e-05
21 *228:59 *8000:A 2.47293e-05
22 *228:59 *8080:A 0
23 *228:59 *8081:A 5.48581e-05
24 *228:59 *8093:A 6.97972e-05
25 *228:59 *8094:A 0
26 *228:59 *424:12 0
27 uio_out[0] *228:16 0.000303214
28 uio_out[0] *228:38 9.06546e-05
29 *7390:A3 *228:38 1.59378e-05
30 *7393:A0 *228:55 0.000355009
31 *7393:A1 *228:55 0.000180777
32 *7393:A2 *228:46 0
33 *7393:S0 *228:38 0.00374643
34 *7393:S0 *228:46 0.000674035
35 *7394:A3 *228:59 0.000317594
36 *7395:A2 *228:59 0
37 *7397:B2 *228:59 7.09608e-05
38 *7413:A *228:46 4.16021e-05
39 *7413:C *228:59 0.000101545
40 *7425:C *228:59 2.11419e-05
41 *7426:B *228:59 0
42 *7510:RESET_B *228:16 8.13915e-05
43 *7513:RESET_B *228:16 0.000527555
44 *7566:A *228:16 0.00011018
45 *97:12 *228:38 0.000762151
46 *97:42 *228:16 0.000794238
47 *102:40 *228:59 0
48 *113:12 *228:46 1.21258e-05
49 *113:25 *228:59 0
50 *118:94 *228:59 0.000342718
51 *124:14 *228:38 0.00104603
52 *127:16 *228:55 5.52238e-05
53 *127:16 *228:59 0.000239039
54 *165:14 *228:59 0.000125724
55 *169:22 *228:38 0.000358079
56 *182:17 *228:46 0.00289846
57 *195:9 *228:46 0.000385177
58 *210:33 *228:59 0
59 *210:41 *228:59 0
60 *215:26 *228:38 0.00148787
61 *220:16 *228:16 0.00149341
62 *221:55 *228:46 5.59013e-05
*RES
1 *7565:X *228:16 48.4786 
2 *228:16 *228:38 44.8315 
3 *228:38 *228:46 37.25 
4 *228:46 *7393:S1 9.3 
5 *228:46 *228:55 9.96429 
6 *228:55 *228:59 49.8571 
7 *228:59 *7394:S1 9.3 
8 *228:16 *7550:A 9.3 
*END

*D_NET *229 0.0219411
*CONN
*I *7359:A I *D sky130_fd_sc_hd__and2_2
*I *7384:A_N I *D sky130_fd_sc_hd__and2b_2
*I *7386:B I *D sky130_fd_sc_hd__and2b_2
*I *7380:A I *D sky130_fd_sc_hd__nor2_2
*I *7566:X O *D sky130_fd_sc_hd__clkdlybuf4s25_1
*CAP
1 *7359:A 0
2 *7384:A_N 9.20729e-05
3 *7386:B 3.76629e-05
4 *7380:A 6.72428e-05
5 *7566:X 0.00021943
6 *229:45 0.000526573
7 *229:22 0.000603012
8 *229:14 0.0041248
9 *229:12 0.00412193
10 *229:8 0.000355491
11 *7380:A *230:14 0
12 *7384:A_N *7386:A_N 4.18895e-05
13 *7384:A_N *230:14 2.8266e-06
14 *7386:B *7386:A_N 0.00010096
15 *229:8 *236:10 4.15914e-05
16 *229:45 *7380:B 0.000191252
17 *229:45 *7386:A_N 7.17235e-05
18 *229:45 *230:18 1.04232e-05
19 *7513:RESET_B *229:8 0
20 *97:42 *229:8 4.35141e-05
21 *98:34 *229:12 1.43349e-05
22 *98:34 *229:14 0
23 *114:26 *7380:A 2.61337e-05
24 *114:26 *229:22 4.78056e-05
25 *118:51 *7380:A 0
26 *118:51 *229:22 0
27 *120:16 *229:22 0.000490416
28 *125:12 *229:22 0.000488493
29 *211:8 *229:45 0.00014285
30 *217:28 *229:12 7.3302e-06
31 *217:28 *229:14 0.0100714
32 *220:12 *229:8 0
33 *228:16 *229:8 0
*RES
1 *7566:X *229:8 17.8714 
2 *229:8 *229:12 1.77679 
3 *229:12 *229:14 125.902 
4 *229:14 *229:22 14.9821 
5 *229:22 *7380:A 14.8357 
6 *229:22 *229:45 11.5 
7 *229:45 *7386:B 10.2464 
8 *229:45 *7384:A_N 19.8714 
9 *229:8 *7359:A 13.8 
*END

*D_NET *230 0.0171516
*CONN
*I *7359:B I *D sky130_fd_sc_hd__and2_2
*I *7384:B I *D sky130_fd_sc_hd__and2b_2
*I *7380:B I *D sky130_fd_sc_hd__nor2_2
*I *7386:A_N I *D sky130_fd_sc_hd__and2b_2
*I *7567:X O *D sky130_fd_sc_hd__clkdlybuf4s25_1
*CAP
1 *7359:B 0.000170554
2 *7384:B 0
3 *7380:B 0.000100042
4 *7386:A_N 0.000103736
5 *7567:X 0
6 *230:18 0.000223764
7 *230:16 1.99857e-05
8 *230:14 0.00229161
9 *230:12 0.00231782
10 *230:10 0.00331247
11 *230:8 0.00332353
12 *230:4 0.000207828
13 *230:10 *7513:CLK 0.000555314
14 *230:10 *780:16 0
15 *7380:A *230:14 0
16 *7384:A_N *7386:A_N 4.18895e-05
17 *7384:A_N *230:14 2.8266e-06
18 *7386:B *7386:A_N 0.00010096
19 *7548:A *7359:B 0.00032505
20 *7548:A *230:8 0.000102207
21 *7571:A *7380:B 5.00663e-05
22 *98:10 *7359:B 0.000621798
23 *98:10 *230:8 0.000102207
24 *118:51 *230:14 0.00203866
25 *120:8 *230:14 0
26 *120:156 *230:14 0
27 *209:98 *7380:B 0.000231722
28 *209:98 *7386:A_N 0.00044852
29 *211:8 *7380:B 0.000185643
30 *229:45 *7380:B 0.000191252
31 *229:45 *7386:A_N 7.17235e-05
32 *229:45 *230:18 1.04232e-05
*RES
1 *7567:X *230:4 9.3 
2 *230:4 *230:8 6.26786 
3 *230:8 *230:10 68.7054 
4 *230:10 *230:12 0.535714 
5 *230:12 *230:14 59.6518 
6 *230:14 *230:16 4.5 
7 *230:16 *230:18 0.428571 
8 *230:18 *7386:A_N 13.5321 
9 *230:18 *7380:B 13.9607 
10 *230:16 *7384:B 9.3 
11 *230:4 *7359:B 16.8357 
*END

*D_NET *231 0.00986871
*CONN
*I *7428:S I *D sky130_fd_sc_hd__mux2_1
*I *7429:S I *D sky130_fd_sc_hd__mux2_1
*I *7430:S I *D sky130_fd_sc_hd__mux2_1
*I *7431:S I *D sky130_fd_sc_hd__mux2_1
*I *7432:S I *D sky130_fd_sc_hd__mux2_1
*I *7433:S I *D sky130_fd_sc_hd__mux2_1
*I *7434:S I *D sky130_fd_sc_hd__mux2_1
*I *7427:S I *D sky130_fd_sc_hd__mux2_1
*I *7568:X O *D sky130_fd_sc_hd__clkdlybuf4s25_1
*CAP
1 *7428:S 2.23854e-05
2 *7429:S 0
3 *7430:S 0
4 *7431:S 0.000200457
5 *7432:S 3.97741e-05
6 *7433:S 0
7 *7434:S 0.000251976
8 *7427:S 0.000127063
9 *7568:X 0.000258143
10 *231:75 0.000303795
11 *231:49 0.000359369
12 *231:47 0.00118611
13 *231:37 0.00147135
14 *231:35 0.000706478
15 *231:31 0.000460122
16 *231:10 0.000572663
17 *7427:S *7427:A0 2.95726e-05
18 *7427:S *7489:A 6.91215e-06
19 *7427:S *244:12 9.90367e-05
20 *7431:S *7431:A0 7.03141e-05
21 *7431:S *7431:A1 5.65955e-05
22 *7431:S *240:10 2.12087e-05
23 *7432:S *7432:A0 9.83388e-05
24 *7434:S *7434:A0 1.59373e-05
25 *7434:S *7502:RESET_B 0.000117236
26 *231:10 *7427:A0 0
27 *231:10 *7489:A 0
28 *231:31 *7489:A 0
29 *231:31 *237:12 4.70078e-05
30 *231:31 *244:12 3.34672e-05
31 *231:31 *244:14 7.19508e-05
32 *231:35 *7428:A1 5.71472e-05
33 *231:35 *244:14 0.000231844
34 *231:37 *7430:A1 0.00010096
35 *231:37 *7491:A 0.000169441
36 *231:37 *238:14 4.18895e-05
37 *231:37 *238:16 0.000698063
38 *231:37 *244:14 0.000142856
39 *231:47 *7430:A1 0.00010096
40 *231:47 *7431:A0 7.01339e-05
41 *231:47 *7432:A0 9.69399e-05
42 *231:47 *7499:A 0.000175502
43 *231:47 *245:25 1.69961e-05
44 *231:47 *247:8 0.000135878
45 *231:49 *7431:A0 0.000124083
46 *231:75 *7432:A0 0.000137561
47 uo_out[1] *231:37 0.000107413
48 uo_out[7] *7434:S 0
49 *7504:CLK *7427:S 2.89114e-05
50 *7504:CLK *231:10 0.000163979
51 *7504:D *231:10 1.28585e-05
52 *7504:D *231:31 0.0001562
53 *7506:CLK *231:37 0.000309266
54 *7567:A *231:10 0.000162565
*RES
1 *7568:X *231:10 19.2732 
2 *231:10 *7427:S 16.3982 
3 *231:10 *231:31 8.88393 
4 *231:31 *231:35 5.07143 
5 *231:35 *231:37 12.8571 
6 *231:37 *231:47 20.375 
7 *231:47 *231:49 2.25 
8 *231:49 *7434:S 18.675 
9 *231:49 *7433:S 13.8 
10 *231:47 *231:75 5.85714 
11 *231:75 *7432:S 10.2464 
12 *231:75 *7431:S 22.1036 
13 *231:37 *7430:S 9.3 
14 *231:35 *7429:S 9.3 
15 *231:31 *7428:S 9.72857 
*END

*D_NET *232 0.0136864
*CONN
*I *7515:RESET_B I *D sky130_fd_sc_hd__dfrtp_2
*I *7501:RESET_B I *D sky130_fd_sc_hd__dfrtp_2
*I *7502:RESET_B I *D sky130_fd_sc_hd__dfrtp_2
*I *7512:RESET_B I *D sky130_fd_sc_hd__dfrtp_2
*I *7503:RESET_B I *D sky130_fd_sc_hd__dfrtp_2
*I *7514:RESET_B I *D sky130_fd_sc_hd__dfrtp_2
*I *7500:RESET_B I *D sky130_fd_sc_hd__dfrtp_2
*I *7505:RESET_B I *D sky130_fd_sc_hd__dfrtp_2
*I *7516:RESET_B I *D sky130_fd_sc_hd__dfrtp_2
*I *7504:RESET_B I *D sky130_fd_sc_hd__dfrtp_2
*I *7554:X O *D sky130_fd_sc_hd__clkdlybuf4s25_1
*CAP
1 *7515:RESET_B 0.000145694
2 *7501:RESET_B 0.00038475
3 *7502:RESET_B 0.000347616
4 *7512:RESET_B 0.000181202
5 *7503:RESET_B 0.000622918
6 *7514:RESET_B 0.00050633
7 *7500:RESET_B 0.000552585
8 *7505:RESET_B 0.00076182
9 *7516:RESET_B 0.000730736
10 *7504:RESET_B 0.000814137
11 *7554:X 0.000131596
12 *232:114 0.00090137
13 *232:27 0.00108205
14 *232:25 0.00145797
15 *7500:RESET_B *7343:A 0
16 *7500:RESET_B *7485:A 0
17 *7500:RESET_B *245:8 7.70134e-05
18 *7500:RESET_B *250:23 0
19 *7501:RESET_B *7434:A1 3.58979e-05
20 *7501:RESET_B *7497:A 0.000246598
21 *7502:RESET_B *7433:A0 6.05161e-06
22 *7502:RESET_B *7433:A1 0.000272597
23 *7502:RESET_B *7434:A0 0.000267738
24 *7502:RESET_B *241:6 0.000101445
25 *7503:RESET_B *239:6 0.000125703
26 *7503:RESET_B *239:14 0.000167744
27 *7503:RESET_B *240:8 0.000138106
28 *7504:RESET_B *236:18 9.80173e-05
29 *7505:RESET_B *7485:A 0
30 *7505:RESET_B *238:14 0.000141451
31 *7505:RESET_B *245:25 0
32 *7512:RESET_B *7495:A 0.000438904
33 *7512:RESET_B *245:8 9.63849e-05
34 *7512:RESET_B *249:30 4.17828e-05
35 *7514:RESET_B *7434:A0 0.000267621
36 *7514:RESET_B *246:6 0.000113574
37 *7514:RESET_B *248:12 4.17828e-05
38 *7515:RESET_B *7499:A 1.41706e-05
39 *7515:RESET_B *239:14 4.96254e-05
40 *7515:RESET_B *240:8 9.23759e-05
41 *7516:RESET_B *238:14 5.39166e-06
42 *7516:RESET_B *246:6 6.30202e-05
43 *232:25 *7427:A0 0.00052707
44 *232:25 *7427:A1 1.02936e-05
45 *232:25 *244:12 1.81525e-05
46 *232:27 *238:14 5.44644e-05
47 *232:114 *7434:A0 0.000479955
48 uo_out[2] *7505:RESET_B 0
49 uo_out[3] *7515:RESET_B 0
50 uo_out[7] *7502:RESET_B 0
51 *7434:S *7502:RESET_B 0.000117236
52 *7505:D *7503:RESET_B 0.000317082
53 *7506:D *7505:RESET_B 2.73453e-05
54 *7506:RESET_B *232:25 0.000357054
55 *7506:RESET_B *232:27 4.85567e-05
56 *7510:CLK *7500:RESET_B 0
57 *7510:RESET_B *7504:RESET_B 4.46186e-06
58 *7512:D *7514:RESET_B 1.40415e-05
59 *7514:CLK *232:114 2.84109e-05
60 *7516:D *7514:RESET_B 5.52302e-05
61 *228:16 *7504:RESET_B 0.00010326
*RES
1 *7554:X *7504:RESET_B 20.5857 
2 *7504:RESET_B *232:25 10.0625 
3 *232:25 *232:27 5.05357 
4 *232:27 *7516:RESET_B 5.13393 
5 *232:27 *7505:RESET_B 14.2857 
6 *232:25 *7500:RESET_B 15.3839 
7 *7516:RESET_B *7514:RESET_B 15.9464 
8 *7505:RESET_B *7503:RESET_B 9.32143 
9 *7500:RESET_B *7512:RESET_B 5.33929 
10 *7514:RESET_B *232:114 4.58036 
11 *232:114 *7502:RESET_B 17.7054 
12 *232:114 *7501:RESET_B 16.2232 
13 *7503:RESET_B *7515:RESET_B 11.8304 
*END

*D_NET *233 0.000994464
*CONN
*I *7368:A_N I *D sky130_fd_sc_hd__and2b_2
*I *7369:A_N I *D sky130_fd_sc_hd__nand2b_2
*I *7534:Q O *D sky130_fd_sc_hd__dfrtp_2
*CAP
1 *7368:A_N 0.000102275
2 *7369:A_N 0.000148787
3 *7534:Q 3.75977e-05
4 *233:6 0.00028866
5 *7368:B *7368:A_N 0.000318107
6 *7368:B *233:6 9.90367e-05
7 *7534:RESET_B *7369:A_N 0
*RES
1 *7534:Q *233:6 10.2464 
2 *233:6 *7369:A_N 20.8536 
3 *233:6 *7368:A_N 12.3 
*END

*D_NET *234 0.00258273
*CONN
*I *7542:A I *D sky130_fd_sc_hd__clkdlybuf4s25_1
*I *7554:A I *D sky130_fd_sc_hd__clkdlybuf4s25_1
*I *7398:X O *D sky130_fd_sc_hd__and2_2
*CAP
1 *7542:A 2.23854e-05
2 *7554:A 0.000528732
3 *7398:X 0.000369851
4 *234:8 0.000920969
5 *7554:A *7493:A 0.000130419
6 *7554:A *236:18 0.000425901
7 *7398:A *234:8 0.000143375
8 *7398:B *234:8 2.36643e-05
9 *7508:CLK *7554:A 1.74352e-05
*RES
1 *7398:X *234:8 15.6036 
2 *234:8 *7554:A 20.1214 
3 *234:8 *7542:A 9.72857 
*END

*D_NET *235 0.00647794
*CONN
*I *7376:B1 I *D sky130_fd_sc_hd__o41a_2
*I *7340:A I *D sky130_fd_sc_hd__inv_2
*I *7358:B I *D sky130_fd_sc_hd__and2_2
*I *7511:Q O *D sky130_fd_sc_hd__dfrtp_2
*CAP
1 *7376:B1 0.0001654
2 *7340:A 4.84946e-05
3 *7358:B 0.0001594
4 *7511:Q 3.01226e-05
5 *235:18 0.00132261
6 *235:6 0.00131024
7 *7376:B1 *7477:A1 0
8 *235:18 *7475:A 4.31981e-05
9 *7358:A *7340:A 0
10 *7376:A4 *7376:B1 0.000114845
11 *7378:A *235:18 1.90936e-05
12 *7390:A3 *235:18 0.000597794
13 *7435:A *7340:A 4.6025e-06
14 *7481:B *235:18 0.000246259
15 *7511:D *235:18 5.49544e-05
16 *7511:RESET_B *7376:B1 0
17 *7511:RESET_B *235:6 5.52302e-05
18 *7511:RESET_B *235:18 9.23695e-05
19 *7530:CLK *7376:B1 0
20 *7530:CLK *235:18 0.000217782
21 *97:34 *7358:B 5.62995e-05
22 *111:12 *7376:B1 8.07951e-05
23 *113:10 *7340:A 0
24 *113:10 *7358:B 0
25 *197:47 *235:18 3.69047e-06
26 *202:35 *235:18 0.00181264
27 *206:45 *235:18 9.60337e-06
28 *208:54 *7376:B1 3.25078e-05
*RES
1 *7511:Q *235:6 9.83571 
2 *235:6 *235:18 22.0443 
3 *235:18 *7358:B 16.6482 
4 *235:18 *7340:A 14.6839 
5 *235:6 *7376:B1 21.7643 
*END

*D_NET *236 0.00320365
*CONN
*I *7493:A I *D sky130_fd_sc_hd__inv_2
*I *7342:A I *D sky130_fd_sc_hd__inv_2
*I *7427:A0 I *D sky130_fd_sc_hd__mux2_1
*I *7513:Q O *D sky130_fd_sc_hd__dfrtp_2
*CAP
1 *7493:A 2.38199e-05
2 *7342:A 0
3 *7427:A0 0.000285042
4 *7513:Q 0.000101654
5 *236:18 0.000565102
6 *236:10 0.000405535
7 *7427:A0 *7427:A1 3.1367e-05
8 *7427:A0 *244:12 6.94238e-05
9 *7427:S *7427:A0 2.95726e-05
10 *7504:CLK *7427:A0 5.52302e-05
11 *7504:RESET_B *236:18 9.80173e-05
12 *7508:CLK *7493:A 7.77751e-05
13 *7508:CLK *236:18 5.33334e-05
14 *7510:RESET_B *7427:A0 0
15 *7510:RESET_B *236:18 0.000282794
16 *7554:A *7493:A 0.000130419
17 *7554:A *236:18 0.000425901
18 *7566:A *236:10 0
19 *220:12 *236:10 0
20 *228:16 *236:10 0
21 *229:8 *236:10 4.15914e-05
22 *231:10 *7427:A0 0
23 *232:25 *7427:A0 0.00052707
*RES
1 *7513:Q *236:10 20.2464 
2 *236:10 *236:18 8.08929 
3 *236:18 *7427:A0 25.3 
4 *236:18 *7342:A 9.3 
5 *236:10 *7493:A 10.6571 
*END

*D_NET *237 0.0053716
*CONN
*I *7347:A I *D sky130_fd_sc_hd__inv_2
*I *7429:A1 I *D sky130_fd_sc_hd__mux2_1
*I *7491:A I *D sky130_fd_sc_hd__inv_2
*I *7507:Q O *D sky130_fd_sc_hd__dfrtp_2
*CAP
1 *7347:A 7.61497e-05
2 *7429:A1 0
3 *7491:A 0.000184695
4 *7507:Q 0
5 *237:12 0.00108213
6 *237:4 0.000973585
7 *7491:A *244:14 5.52302e-05
8 *237:12 *7344:A 5.52238e-05
9 *237:12 *7428:A0 0.00022477
10 *237:12 *243:25 0.0009976
11 *237:12 *244:14 0.000689402
12 *7504:D *237:12 1.96616e-05
13 *7507:D *7347:A 0.00010096
14 *7561:A *237:12 0.000100831
15 *3:30 *237:12 3.41162e-05
16 *213:8 *237:12 9.60875e-05
17 *221:14 *237:12 0.000371144
18 *228:16 *237:12 9.3562e-05
19 *231:31 *237:12 4.70078e-05
20 *231:37 *7491:A 0.000169441
*RES
1 *7507:Q *237:4 9.3 
2 *237:4 *237:12 33.875 
3 *237:12 *7491:A 13.1393 
4 *237:12 *7429:A1 9.3 
5 *237:4 *7347:A 10.9786 
*END

*D_NET *238 0.00369807
*CONN
*I *7349:A I *D sky130_fd_sc_hd__inv_2
*I *7490:A I *D sky130_fd_sc_hd__inv_2
*I *7430:A1 I *D sky130_fd_sc_hd__mux2_1
*I *7506:Q O *D sky130_fd_sc_hd__dfrtp_2
*CAP
1 *7349:A 0
2 *7490:A 0
3 *7430:A1 2.15075e-05
4 *7506:Q 0.00060952
5 *238:16 0.000128603
6 *238:14 0.000716616
7 *7430:A1 *245:25 0.000188586
8 *238:14 *245:25 2.1527e-05
9 *238:16 *245:25 0.000624791
10 uo_out[1] *238:16 0.000126381
11 *7505:RESET_B *238:14 0.000141451
12 *7506:D *238:14 7.55747e-05
13 *7506:RESET_B *238:14 4.17828e-05
14 *7516:RESET_B *238:14 5.39166e-06
15 *231:37 *7430:A1 0.00010096
16 *231:37 *238:14 4.18895e-05
17 *231:37 *238:16 0.000698063
18 *231:47 *7430:A1 0.00010096
19 *232:27 *238:14 5.44644e-05
*RES
1 *7506:Q *238:14 27.0679 
2 *238:14 *238:16 6.69643 
3 *238:16 *7430:A1 11.0679 
4 *238:16 *7490:A 9.3 
5 *238:14 *7349:A 9.3 
*END

*D_NET *239 0.00405812
*CONN
*I *7351:A I *D sky130_fd_sc_hd__inv_2
*I *7488:A I *D sky130_fd_sc_hd__inv_2
*I *7431:A1 I *D sky130_fd_sc_hd__mux2_1
*I *7505:Q O *D sky130_fd_sc_hd__dfrtp_2
*CAP
1 *7351:A 2.23854e-05
2 *7488:A 0
3 *7431:A1 4.75757e-05
4 *7505:Q 0.000506813
5 *239:14 0.000744712
6 *239:6 0.00122633
7 *7431:A1 *240:10 0.000186765
8 *239:14 *240:8 0.000179337
9 *239:14 *240:10 1.10868e-05
10 *7431:S *7431:A1 5.65955e-05
11 *7503:CLK *239:14 0.000492887
12 *7503:D *239:14 6.66408e-05
13 *7503:RESET_B *239:6 0.000125703
14 *7503:RESET_B *239:14 0.000167744
15 *7505:D *239:6 0.000173921
16 *7515:RESET_B *239:14 4.96254e-05
*RES
1 *7505:Q *239:6 19.2821 
2 *239:6 *239:14 15.7857 
3 *239:14 *7431:A1 11.0679 
4 *239:14 *7488:A 9.3 
5 *239:6 *7351:A 9.72857 
*END

*D_NET *240 0.0045256
*CONN
*I *7353:A I *D sky130_fd_sc_hd__inv_2
*I *7432:A1 I *D sky130_fd_sc_hd__mux2_1
*I *7487:A I *D sky130_fd_sc_hd__inv_2
*I *7503:Q O *D sky130_fd_sc_hd__dfrtp_2
*CAP
1 *7353:A 2.22847e-05
2 *7432:A1 8.64432e-05
3 *7487:A 0.000439037
4 *7503:Q 0.000792207
5 *240:10 0.000791524
6 *240:8 0.00108054
7 *240:10 *7431:A0 9.66977e-05
8 uo_out[4] *7487:A 1.40306e-05
9 uo_out[4] *240:10 2.51343e-06
10 *7431:A1 *240:10 0.000186765
11 *7431:S *240:10 2.12087e-05
12 *7502:CLK *7487:A 3.18676e-05
13 *7503:CLK *240:8 1.16111e-05
14 *7503:CLK *240:10 7.8195e-05
15 *7503:D *240:8 0.000449773
16 *7503:RESET_B *240:8 0.000138106
17 *7515:RESET_B *240:8 9.23759e-05
18 *239:14 *240:8 0.000179337
19 *239:14 *240:10 1.10868e-05
*RES
1 *7503:Q *240:8 20.9429 
2 *240:8 *240:10 5.46429 
3 *240:10 *7487:A 16.9607 
4 *240:10 *7432:A1 19.6393 
5 *240:8 *7353:A 9.72857 
*END

*D_NET *241 0.00259983
*CONN
*I *7433:A1 I *D sky130_fd_sc_hd__mux2_1
*I *7486:A I *D sky130_fd_sc_hd__inv_2
*I *7355:A I *D sky130_fd_sc_hd__inv_2
*I *7502:Q O *D sky130_fd_sc_hd__dfrtp_2
*CAP
1 *7433:A1 0.000109435
2 *7486:A 0.000105498
3 *7355:A 0.00029135
4 *7502:Q 0.000577277
5 *241:6 0.000864689
6 *7433:A1 *7433:A0 1.46231e-05
7 uo_out[6] *7433:A1 3.1367e-05
8 *7502:D *7355:A 0.000231554
9 *7502:RESET_B *7433:A1 0.000272597
10 *7502:RESET_B *241:6 0.000101445
*RES
1 *7502:Q *241:6 15.175 
2 *241:6 *7355:A 13.4429 
3 *241:6 *7486:A 19.9429 
4 *7502:Q *7433:A1 21.6 
*END

*D_NET *242 0.00180612
*CONN
*I *7434:A1 I *D sky130_fd_sc_hd__mux2_1
*I *7357:A I *D sky130_fd_sc_hd__inv_2
*I *7501:Q O *D sky130_fd_sc_hd__dfrtp_2
*CAP
1 *7434:A1 0.000321992
2 *7357:A 0.00019065
3 *7501:Q 0.000512641
4 *7434:A1 *7434:A0 2.07878e-05
5 uo_out[7] *7434:A1 1.41706e-05
6 *7501:RESET_B *7434:A1 3.58979e-05
7 *98:14 *7357:A 0.000100942
8 *98:18 *7357:A 0.000117379
9 *209:14 *7357:A 0.000491661
*RES
1 *7501:Q *7357:A 33.8857 
2 *7501:Q *7434:A1 32.3679 
*END

*D_NET *243 0.00647683
*CONN
*I *7489:A I *D sky130_fd_sc_hd__inv_2
*I *7428:A0 I *D sky130_fd_sc_hd__mux2_1
*I *7344:A I *D sky130_fd_sc_hd__inv_2
*I *7508:Q O *D sky130_fd_sc_hd__dfrtp_2
*CAP
1 *7489:A 0.00046209
2 *7428:A0 0.000158489
3 *7344:A 1.40568e-05
4 *7508:Q 0.000813637
5 *243:25 0.00130081
6 *243:10 0.00150793
7 *7489:A *7428:A1 2.34204e-05
8 *7489:A *7494:A 0
9 *7489:A *244:12 0.000150625
10 *7489:A *250:23 0
11 *7427:S *7489:A 6.91215e-06
12 *7504:CLK *7489:A 0.000266752
13 *7506:RESET_B *7489:A 0
14 *7508:RESET_B *243:10 4.17828e-05
15 *7548:A *7489:A 5.52302e-05
16 *7563:A *243:10 4.46186e-06
17 *7563:A *243:25 2.61337e-05
18 *7566:A *243:10 7.62717e-05
19 *7566:A *243:25 4.99283e-06
20 *7567:A *7489:A 0
21 *7568:A *7489:A 0.000233997
22 *98:10 *7489:A 2.27416e-05
23 *221:14 *7344:A 2.89016e-05
24 *231:10 *7489:A 0
25 *231:31 *7489:A 0
26 *237:12 *7344:A 5.52238e-05
27 *237:12 *7428:A0 0.00022477
28 *237:12 *243:25 0.0009976
*RES
1 *7508:Q *243:10 24.0857 
2 *243:10 *7344:A 14.3357 
3 *243:10 *243:25 14.8036 
4 *243:25 *7428:A0 11.4786 
5 *243:25 *7489:A 29.2821 
*END

*D_NET *244 0.00475641
*CONN
*I *7346:A I *D sky130_fd_sc_hd__inv_2
*I *7429:A0 I *D sky130_fd_sc_hd__mux2_1
*I *7485:A I *D sky130_fd_sc_hd__inv_2
*I *7504:Q O *D sky130_fd_sc_hd__dfrtp_2
*CAP
1 *7346:A 0
2 *7429:A0 0
3 *7485:A 0.000507119
4 *7504:Q 0.000796231
5 *244:14 0.000645344
6 *244:12 0.000934456
7 *7485:A *250:23 0
8 *244:14 *7428:A1 5.52238e-05
9 *7427:A0 *244:12 6.94238e-05
10 *7427:S *244:12 9.90367e-05
11 *7489:A *244:12 0.000150625
12 *7491:A *244:14 5.52302e-05
13 *7500:CLK *7485:A 2.27416e-05
14 *7500:RESET_B *7485:A 0
15 *7505:RESET_B *7485:A 0
16 *7510:CLK *7485:A 0.000230482
17 *7565:A *244:12 2.8266e-06
18 *231:31 *244:12 3.34672e-05
19 *231:31 *244:14 7.19508e-05
20 *231:35 *244:14 0.000231844
21 *231:37 *244:14 0.000142856
22 *232:25 *244:12 1.81525e-05
23 *237:12 *244:14 0.000689402
*RES
1 *7504:Q *244:12 28.9964 
2 *244:12 *244:14 7.10714 
3 *244:14 *7485:A 27.5143 
4 *244:14 *7429:A0 9.3 
5 *244:12 *7346:A 9.3 
*END

*D_NET *245 0.00497188
*CONN
*I *7430:A0 I *D sky130_fd_sc_hd__mux2_1
*I *7499:A I *D sky130_fd_sc_hd__inv_2
*I *7348:A I *D sky130_fd_sc_hd__inv_2
*I *7500:Q O *D sky130_fd_sc_hd__dfrtp_2
*CAP
1 *7430:A0 0
2 *7499:A 0.000336355
3 *7348:A 0.000153046
4 *7500:Q 0.000322425
5 *245:25 0.000997821
6 *245:8 0.00113694
7 *7348:A *7495:A 0
8 *245:8 *7495:A 3.4061e-05
9 *7430:A1 *245:25 0.000188586
10 *7500:CLK *245:25 0
11 *7500:D *7348:A 0.000146618
12 *7500:RESET_B *245:8 7.70134e-05
13 *7505:CLK *245:25 0.000276211
14 *7505:RESET_B *245:25 0
15 *7506:CLK *245:25 0.000149762
16 *7506:D *245:25 6.44623e-05
17 *7510:CLK *7348:A 0
18 *7510:CLK *245:25 0
19 *7512:RESET_B *245:8 9.63849e-05
20 *7515:RESET_B *7499:A 1.41706e-05
21 *7548:A *7348:A 9.90367e-05
22 *98:10 *7348:A 4.01768e-05
23 *231:47 *7499:A 0.000175502
24 *231:47 *245:25 1.69961e-05
25 *238:14 *245:25 2.1527e-05
26 *238:16 *245:25 0.000624791
*RES
1 *7500:Q *245:8 20.0857 
2 *245:8 *7348:A 17.3 
3 *245:8 *245:25 20.1429 
4 *245:25 *7499:A 24.4607 
5 *245:25 *7430:A0 9.3 
*END

*D_NET *246 0.0038433
*CONN
*I *7350:A I *D sky130_fd_sc_hd__inv_2
*I *7431:A0 I *D sky130_fd_sc_hd__mux2_1
*I *7498:A I *D sky130_fd_sc_hd__inv_2
*I *7516:Q O *D sky130_fd_sc_hd__dfrtp_2
*CAP
1 *7350:A 2.23854e-05
2 *7431:A0 0.000449161
3 *7498:A 2.56905e-05
4 *7516:Q 0.000487548
5 *246:8 0.000854059
6 *246:6 0.000889141
7 *7431:A0 *7433:A0 1.85816e-05
8 *246:8 *7352:A 9.60939e-05
9 *246:8 *7433:A0 1.47972e-05
10 uo_out[0] *246:6 0.00020047
11 uo_out[6] *7431:A0 0
12 *7431:S *7431:A0 7.03141e-05
13 *7514:RESET_B *246:6 0.000113574
14 *7516:CLK *246:6 0.00010096
15 *7516:D *246:6 0.000146591
16 *7516:RESET_B *246:6 6.30202e-05
17 *231:47 *7431:A0 7.01339e-05
18 *231:49 *7431:A0 0.000124083
19 *240:10 *7431:A0 9.66977e-05
*RES
1 *7516:Q *246:6 19.6929 
2 *246:6 *246:8 6.69643 
3 *246:8 *7498:A 9.72857 
4 *246:8 *7431:A0 25.6214 
5 *246:6 *7350:A 9.72857 
*END

*D_NET *247 0.00418305
*CONN
*I *7432:A0 I *D sky130_fd_sc_hd__mux2_1
*I *7352:A I *D sky130_fd_sc_hd__inv_2
*I *7497:A I *D sky130_fd_sc_hd__inv_2
*I *7515:Q O *D sky130_fd_sc_hd__dfrtp_2
*CAP
1 *7432:A0 0.0003002
2 *7352:A 3.06122e-05
3 *7497:A 0.000274546
4 *7515:Q 0.000681518
5 *247:12 0.000491379
6 *247:8 0.00116794
7 *7352:A *7433:A0 4.77351e-05
8 *7497:A *7433:A0 0.000117855
9 *7432:S *7432:A0 9.83388e-05
10 *7501:RESET_B *7497:A 0.000246598
11 *7514:CLK *7497:A 0.000127246
12 *7515:CLK *7432:A0 5.7119e-05
13 *7515:CLK *247:12 7.54868e-05
14 *231:47 *7432:A0 9.69399e-05
15 *231:47 *247:8 0.000135878
16 *231:75 *7432:A0 0.000137561
17 *246:8 *7352:A 9.60939e-05
*RES
1 *7515:Q *247:8 22.1393 
2 *247:8 *247:12 2.48214 
3 *247:12 *7497:A 20.5143 
4 *247:12 *7352:A 14.7464 
5 *247:8 *7432:A0 19.8893 
*END

*D_NET *248 0.00278561
*CONN
*I *7496:A I *D sky130_fd_sc_hd__inv_2
*I *7354:A I *D sky130_fd_sc_hd__inv_2
*I *7433:A0 I *D sky130_fd_sc_hd__mux2_1
*I *7514:Q O *D sky130_fd_sc_hd__dfrtp_2
*CAP
1 *7496:A 3.08129e-05
2 *7354:A 0
3 *7433:A0 0.000539938
4 *7514:Q 0.00028754
5 *248:14 0.000861376
6 *248:12 0.000639792
7 *248:12 *7434:A0 9.80364e-06
8 *7352:A *7433:A0 4.77351e-05
9 *7431:A0 *7433:A0 1.85816e-05
10 *7433:A1 *7433:A0 1.46231e-05
11 *7497:A *7433:A0 0.000117855
12 *7502:RESET_B *7433:A0 6.05161e-06
13 *7512:D *248:12 0
14 *7514:CLK *7433:A0 6.2379e-05
15 *7514:D *7433:A0 6.97972e-05
16 *7514:D *248:14 2.27416e-05
17 *7514:RESET_B *248:12 4.17828e-05
18 *246:8 *7433:A0 1.47972e-05
*RES
1 *7514:Q *248:12 22.425 
2 *248:12 *248:14 5.46429 
3 *248:14 *7433:A0 26.9071 
4 *248:14 *7354:A 9.3 
5 *248:12 *7496:A 9.83571 
*END

*D_NET *249 0.00617382
*CONN
*I *7434:A0 I *D sky130_fd_sc_hd__mux2_1
*I *7356:A I *D sky130_fd_sc_hd__inv_2
*I *7495:A I *D sky130_fd_sc_hd__inv_2
*I *7512:Q O *D sky130_fd_sc_hd__dfrtp_2
*CAP
1 *7434:A0 0.0011516
2 *7356:A 0
3 *7495:A 0.000439138
4 *7512:Q 0.00103135
5 *249:30 0.00174382
6 uio_out[0] *249:30 0.00010988
7 *7348:A *7495:A 0
8 *7434:A1 *7434:A0 2.07878e-05
9 *7434:S *7434:A0 1.59373e-05
10 *7502:RESET_B *7434:A0 0.000267738
11 *7510:CLK *7495:A 7.83587e-05
12 *7512:D *7434:A0 3.80953e-06
13 *7512:D *249:30 3.92757e-05
14 *7512:RESET_B *7495:A 0.000438904
15 *7512:RESET_B *249:30 4.17828e-05
16 *7514:RESET_B *7434:A0 0.000267621
17 *232:114 *7434:A0 0.000479955
18 *245:8 *7495:A 3.4061e-05
19 *248:12 *7434:A0 9.80364e-06
*RES
1 *7512:Q *7495:A 34.2964 
2 *7512:Q *249:30 26.1214 
3 *249:30 *7356:A 9.3 
4 *249:30 *7434:A0 24.9429 
*END

*D_NET *250 0.0029594
*CONN
*I *7494:A I *D sky130_fd_sc_hd__inv_2
*I *7427:A1 I *D sky130_fd_sc_hd__mux2_1
*I *7343:A I *D sky130_fd_sc_hd__inv_2
*I *7510:Q O *D sky130_fd_sc_hd__dfrtp_2
*CAP
1 *7494:A 0.000284167
2 *7427:A1 6.36893e-05
3 *7343:A 9.89664e-05
4 *7510:Q 0.000563996
5 *250:23 0.000536634
6 *250:10 0.00085174
7 *7494:A *7345:A 5.33334e-05
8 *7494:A *7428:A1 7.17836e-05
9 uo_out[0] *7494:A 9.59532e-06
10 *7427:A0 *7427:A1 3.1367e-05
11 *7485:A *250:23 0
12 *7489:A *7494:A 0
13 *7489:A *250:23 0
14 *7500:RESET_B *7343:A 0
15 *7500:RESET_B *250:23 0
16 *7506:RESET_B *7427:A1 2.89016e-05
17 *7506:RESET_B *250:23 6.42145e-05
18 *7509:CLK *7494:A 5.52238e-05
19 *7509:D *7494:A 1.74352e-05
20 *7510:D *7343:A 7.83587e-05
21 *7510:D *250:10 4.87854e-05
22 *7510:D *250:23 5.66157e-05
23 *7510:RESET_B *250:10 3.42984e-05
24 *7565:A *7494:A 0
25 *7568:A *7343:A 0
26 *7568:A *250:23 0
27 *232:25 *7427:A1 1.02936e-05
*RES
1 *7510:Q *250:10 20.2107 
2 *250:10 *7343:A 15.7464 
3 *250:10 *250:23 4 
4 *250:23 *7427:A1 15.1571 
5 *250:23 *7494:A 19.425 
*END

*D_NET *251 0.00285523
*CONN
*I *7428:A1 I *D sky130_fd_sc_hd__mux2_1
*I *7492:A I *D sky130_fd_sc_hd__inv_2
*I *7345:A I *D sky130_fd_sc_hd__inv_2
*I *7509:Q O *D sky130_fd_sc_hd__dfrtp_2
*CAP
1 *7428:A1 0.000105598
2 *7492:A 1.91209e-05
3 *7345:A 0.000272392
4 *7509:Q 0.000624002
5 *251:8 0.000327307
6 *251:6 0.000765394
7 *7489:A *7428:A1 2.34204e-05
8 *7494:A *7345:A 5.33334e-05
9 *7494:A *7428:A1 7.17836e-05
10 *7507:CLK *251:6 0.000257674
11 *7509:CLK *7345:A 1.56e-05
12 *7509:CLK *251:6 3.42509e-05
13 *7509:CLK *251:8 1.92789e-05
14 *7509:D *7345:A 1.55953e-05
15 *7509:RESET_B *251:6 0.000138106
16 *231:35 *7428:A1 5.71472e-05
17 *244:14 *7428:A1 5.52238e-05
*RES
1 *7509:Q *251:6 18.05 
2 *251:6 *251:8 0.535714 
3 *251:8 *7345:A 13.0321 
4 *251:8 *7492:A 10.0321 
5 *251:6 *7428:A1 20.7821 
*END

*D_NET *252 0.00402121
*CONN
*I *7618:A I *D sky130_fd_sc_hd__nand2_1
*I *7399:X O *D sky130_fd_sc_hd__and3_2
*CAP
1 *7618:A 0.00149119
2 *7399:X 0.00149119
3 *7618:A *7597:A 3.18676e-05
4 *7618:A *7608:A 1.3701e-05
5 *7618:A *7618:B 5.8938e-05
6 *7618:A *7926:A 3.00023e-05
7 *7618:A *7927:A 9.57215e-05
8 *7618:A *7928:A 3.36817e-05
9 *7618:A *7929:A 0.00012095
10 *7618:A *7930:A 0.000183895
11 *7618:A *7931:A 4.0342e-05
12 *7618:A *7957:A 6.68313e-05
13 *7618:A *7958:A 3.10085e-05
14 *7618:A *7959:A 3.33238e-05
15 *7618:A *7962:A 0.000282433
16 *7399:C *7618:A 1.24368e-05
17 *211:76 *7618:A 3.69047e-06
*RES
1 *7399:X *7618:A 43.3143 
*END

*D_NET *253 0.000525616
*CONN
*I *7597:A I *D sky130_fd_sc_hd__inv_1
*I *7618:Y O *D sky130_fd_sc_hd__nand2_1
*CAP
1 *7597:A 6.27904e-05
2 *7618:Y 6.27904e-05
3 *7597:A *7608:A 0.000126474
4 *7597:A *7618:B 0.000241693
5 *7618:A *7597:A 3.18676e-05
*RES
1 *7618:Y *7597:A 21.4884 
*END

*D_NET *254 0.000326512
*CONN
*I *7588:A I *D sky130_fd_sc_hd__inv_1
*I *7587:Y O *D sky130_fd_sc_hd__inv_1
*CAP
1 *7588:A 0.000154036
2 *7587:Y 0.000154036
3 *7588:A *7589:A 1.14548e-05
4 *7588:A *7590:A 6.98553e-06
*RES
1 *7587:Y *7588:A 29.8098 
*END

*D_NET *255 0.000346084
*CONN
*I *7589:A I *D sky130_fd_sc_hd__inv_1
*I *7588:Y O *D sky130_fd_sc_hd__inv_1
*CAP
1 *7589:A 0.000152654
2 *7588:Y 0.000152654
3 *7589:A *7590:A 2.93209e-05
4 *7588:A *7589:A 1.14548e-05
*RES
1 *7588:Y *7589:A 21.3813 
*END

*D_NET *256 0.000524247
*CONN
*I *7590:A I *D sky130_fd_sc_hd__inv_1
*I *7589:Y O *D sky130_fd_sc_hd__inv_1
*CAP
1 *7590:A 0.000229928
2 *7589:Y 0.000229928
3 *7590:A *7594:A 2.80853e-05
4 *7590:A *7599:A 0
5 *7588:A *7590:A 6.98553e-06
6 *7589:A *7590:A 2.93209e-05
*RES
1 *7589:Y *7590:A 30.9795 
*END

*D_NET *257 0.000693884
*CONN
*I *7591:A I *D sky130_fd_sc_hd__inv_1
*I *7590:Y O *D sky130_fd_sc_hd__inv_1
*CAP
1 *7591:A 0.000238442
2 *7590:Y 0.000238442
3 *7591:A *7592:A 2.85102e-05
4 *7591:A *7593:A 4.37167e-05
5 *7591:A *7594:A 0.000144773
*RES
1 *7590:Y *7591:A 22.3054 
*END

*D_NET *258 0.000393708
*CONN
*I *7592:A I *D sky130_fd_sc_hd__inv_1
*I *7591:Y O *D sky130_fd_sc_hd__inv_1
*CAP
1 *7592:A 8.96962e-05
2 *7591:Y 8.96962e-05
3 *7592:A *7593:A 0.000159514
4 *7592:A *7617:A 2.62908e-05
5 *7591:A *7592:A 2.85102e-05
*RES
1 *7591:Y *7592:A 21.2384 
*END

*D_NET *259 0.00103505
*CONN
*I *7593:A I *D sky130_fd_sc_hd__inv_1
*I *7617:A I *D sky130_fd_sc_hd__buf_1
*I *7592:Y O *D sky130_fd_sc_hd__inv_1
*CAP
1 *7593:A 0.000164864
2 *7617:A 0.000237899
3 *7592:Y 0
4 *259:4 0.000402763
5 *7593:A *7594:A 0
6 *7617:A *7942:A 0
7 *7591:A *7593:A 4.37167e-05
8 *7592:A *7593:A 0.000159514
9 *7592:A *7617:A 2.62908e-05
*RES
1 *7592:Y *259:4 9.3 
2 *259:4 *7617:A 13.2375 
3 *259:4 *7593:A 13.1348 
*END

*D_NET *260 0.000398647
*CONN
*I *7594:A I *D sky130_fd_sc_hd__inv_1
*I *7593:Y O *D sky130_fd_sc_hd__inv_1
*CAP
1 *7594:A 0.000112894
2 *7593:Y 0.000112894
3 *7590:A *7594:A 2.80853e-05
4 *7591:A *7594:A 0.000144773
5 *7593:A *7594:A 0
*RES
1 *7593:Y *7594:A 21.283 
*END

*D_NET *261 0.000106793
*CONN
*I *7595:A I *D sky130_fd_sc_hd__inv_1
*I *7594:Y O *D sky130_fd_sc_hd__inv_1
*CAP
1 *7595:A 5.33963e-05
2 *7594:Y 5.33963e-05
*RES
1 *7594:Y *7595:A 19.4973 
*END

*D_NET *262 0.00011689
*CONN
*I *7596:A I *D sky130_fd_sc_hd__inv_1
*I *7595:Y O *D sky130_fd_sc_hd__inv_1
*CAP
1 *7596:A 5.42009e-05
2 *7595:Y 5.42009e-05
3 *7596:A *7599:A 8.48822e-06
*RES
1 *7595:Y *7596:A 19.4973 
*END

*D_NET *263 0.000113128
*CONN
*I *7598:A I *D sky130_fd_sc_hd__inv_1
*I *7596:Y O *D sky130_fd_sc_hd__inv_1
*CAP
1 *7598:A 3.7518e-05
2 *7596:Y 3.7518e-05
3 *7598:A *7599:A 3.80922e-05
*RES
1 *7596:Y *7598:A 19.4973 
*END

*D_NET *264 0.000319131
*CONN
*I *7608:A I *D sky130_fd_sc_hd__inv_1
*I *7597:Y O *D sky130_fd_sc_hd__inv_1
*CAP
1 *7608:A 7.1641e-05
2 *7597:Y 7.1641e-05
3 *7608:A *7610:A 1.61534e-05
4 *7608:A *7618:B 1.95199e-05
5 *7597:A *7608:A 0.000126474
6 *7618:A *7608:A 1.3701e-05
*RES
1 *7597:Y *7608:A 20.8277 
*END

*D_NET *265 0.000631517
*CONN
*I *7599:A I *D sky130_fd_sc_hd__inv_1
*I *7598:Y O *D sky130_fd_sc_hd__inv_1
*CAP
1 *7599:A 0.000292468
2 *7598:Y 0.000292468
3 *7590:A *7599:A 0
4 *7596:A *7599:A 8.48822e-06
5 *7598:A *7599:A 3.80922e-05
*RES
1 *7598:Y *7599:A 31.8009 
*END

*D_NET *266 0.000107045
*CONN
*I *7600:A I *D sky130_fd_sc_hd__inv_1
*I *7599:Y O *D sky130_fd_sc_hd__inv_1
*CAP
1 *7600:A 5.35226e-05
2 *7599:Y 5.35226e-05
*RES
1 *7599:Y *7600:A 19.4973 
*END

*D_NET *267 0.00011979
*CONN
*I *7601:A I *D sky130_fd_sc_hd__inv_1
*I *7600:Y O *D sky130_fd_sc_hd__inv_1
*CAP
1 *7601:A 3.35472e-05
2 *7600:Y 3.35472e-05
3 *7601:A *7602:A 5.26961e-05
*RES
1 *7600:Y *7601:A 19.4973 
*END

*D_NET *268 0.000539766
*CONN
*I *7602:A I *D sky130_fd_sc_hd__inv_1
*I *7601:Y O *D sky130_fd_sc_hd__inv_1
*CAP
1 *7602:A 0.000236498
2 *7601:Y 0.000236498
3 *7602:A *7603:A 1.40749e-05
4 *7601:A *7602:A 5.26961e-05
*RES
1 *7601:Y *7602:A 31.042 
*END

*D_NET *269 0.000338004
*CONN
*I *7603:A I *D sky130_fd_sc_hd__inv_1
*I *7602:Y O *D sky130_fd_sc_hd__inv_1
*CAP
1 *7603:A 0.0001234
2 *7602:Y 0.0001234
3 *7603:A *7604:A 7.71303e-05
4 *7602:A *7603:A 1.40749e-05
*RES
1 *7602:Y *7603:A 21.1313 
*END

*D_NET *270 0.00048406
*CONN
*I *7604:A I *D sky130_fd_sc_hd__inv_1
*I *7603:Y O *D sky130_fd_sc_hd__inv_1
*CAP
1 *7604:A 0.000189422
2 *7603:Y 0.000189422
3 *7604:A *7605:A 2.80853e-05
4 *7603:A *7604:A 7.71303e-05
*RES
1 *7603:Y *7604:A 30.5688 
*END

*D_NET *271 0.000285492
*CONN
*I *7605:A I *D sky130_fd_sc_hd__inv_1
*I *7604:Y O *D sky130_fd_sc_hd__inv_1
*CAP
1 *7605:A 0.000123423
2 *7604:Y 0.000123423
3 *7605:A *7606:A 1.05613e-05
4 *7604:A *7605:A 2.80853e-05
*RES
1 *7604:Y *7605:A 20.8277 
*END

*D_NET *272 0.000321456
*CONN
*I *7606:A I *D sky130_fd_sc_hd__inv_1
*I *7605:Y O *D sky130_fd_sc_hd__inv_1
*CAP
1 *7606:A 0.00014841
2 *7605:Y 0.00014841
3 *7606:A *7607:A 1.40749e-05
4 *7606:A *7612:A 0
5 *7605:A *7606:A 1.05613e-05
*RES
1 *7605:Y *7606:A 29.8098 
*END

*D_NET *273 0.000299842
*CONN
*I *7607:A I *D sky130_fd_sc_hd__inv_1
*I *7606:Y O *D sky130_fd_sc_hd__inv_1
*CAP
1 *7607:A 0.000133502
2 *7606:Y 0.000133502
3 *7607:A *7609:A 1.87618e-05
4 *7606:A *7607:A 1.40749e-05
*RES
1 *7606:Y *7607:A 21.1313 
*END

*D_NET *274 0.000604254
*CONN
*I *7609:A I *D sky130_fd_sc_hd__inv_1
*I *7607:Y O *D sky130_fd_sc_hd__inv_1
*CAP
1 *7609:A 0.000279601
2 *7607:Y 0.000279601
3 *7609:A *7610:A 0
4 *7609:A *7618:B 2.62908e-05
5 *7607:A *7609:A 1.87618e-05
*RES
1 *7607:Y *7609:A 31.7563 
*END

*D_NET *275 0.000438078
*CONN
*I *7610:A I *D sky130_fd_sc_hd__inv_1
*I *7608:Y O *D sky130_fd_sc_hd__inv_1
*CAP
1 *7610:A 0.000175013
2 *7608:Y 0.000175013
3 *7610:A *7612:A 7.18982e-05
4 *7608:A *7610:A 1.61534e-05
5 *7609:A *7610:A 0
*RES
1 *7608:Y *7610:A 30.5688 
*END

*D_NET *276 0.00102279
*CONN
*I *7618:B I *D sky130_fd_sc_hd__nand2_1
*I *7609:Y O *D sky130_fd_sc_hd__inv_1
*CAP
1 *7618:B 0.000338176
2 *7609:Y 0.000338176
3 *7597:A *7618:B 0.000241693
4 *7608:A *7618:B 1.95199e-05
5 *7609:A *7618:B 2.62908e-05
6 *7618:A *7618:B 5.8938e-05
*RES
1 *7609:Y *7618:B 23.7696 
*END

*D_NET *277 0.000433959
*CONN
*I *7611:A I *D sky130_fd_sc_hd__inv_1
*I *7610:Y O *D sky130_fd_sc_hd__inv_1
*CAP
1 *7611:A 0.000131537
2 *7610:Y 0.000131537
3 *7611:A *7612:A 0.000127381
4 *7611:A *7613:A 4.35048e-05
*RES
1 *7610:Y *7611:A 30.2652 
*END

*D_NET *278 0.000781615
*CONN
*I *7612:A I *D sky130_fd_sc_hd__inv_1
*I *7611:Y O *D sky130_fd_sc_hd__inv_1
*CAP
1 *7612:A 0.000273548
2 *7611:Y 0.000273548
3 *7612:A *7613:A 3.52408e-05
4 *7606:A *7612:A 0
5 *7610:A *7612:A 7.18982e-05
6 *7611:A *7612:A 0.000127381
*RES
1 *7611:Y *7612:A 32.5241 
*END

*D_NET *279 0.0003966
*CONN
*I *7613:A I *D sky130_fd_sc_hd__inv_1
*I *7612:Y O *D sky130_fd_sc_hd__inv_1
*CAP
1 *7613:A 0.000139824
2 *7612:Y 0.000139824
3 *7613:A *7614:A 3.82062e-05
4 *7611:A *7613:A 4.35048e-05
5 *7612:A *7613:A 3.52408e-05
*RES
1 *7612:Y *7613:A 30.2652 
*END

*D_NET *280 0.000573236
*CONN
*I *7614:A I *D sky130_fd_sc_hd__inv_1
*I *7613:Y O *D sky130_fd_sc_hd__inv_1
*CAP
1 *7614:A 0.000157486
2 *7613:Y 0.000157486
3 *7614:A *7615:A 5.33783e-05
4 *7614:A *7616:A 0.000166679
5 *7613:A *7614:A 3.82062e-05
*RES
1 *7613:Y *7614:A 22.2964 
*END

*D_NET *281 0.000125096
*CONN
*I *7615:A I *D sky130_fd_sc_hd__inv_1
*I *7614:Y O *D sky130_fd_sc_hd__inv_1
*CAP
1 *7615:A 3.58591e-05
2 *7614:Y 3.58591e-05
3 *7614:A *7615:A 5.33783e-05
*RES
1 *7614:Y *7615:A 19.4973 
*END

*D_NET *282 0.000652137
*CONN
*I *7616:A I *D sky130_fd_sc_hd__inv_1
*I *7615:Y O *D sky130_fd_sc_hd__inv_1
*CAP
1 *7616:A 0.000242729
2 *7615:Y 0.000242729
3 *7614:A *7616:A 0.000166679
*RES
1 *7615:Y *7616:A 31.3902 
*END

*D_NET *283 0.000106793
*CONN
*I *7587:A I *D sky130_fd_sc_hd__inv_1
*I *7616:Y O *D sky130_fd_sc_hd__inv_1
*CAP
1 *7587:A 5.33963e-05
2 *7616:Y 5.33963e-05
*RES
1 *7616:Y *7587:A 19.4973 
*END

*D_NET *284 0.00313777
*CONN
*I *7381:A0 I *D sky130_fd_sc_hd__mux4_2
*I *7617:X O *D sky130_fd_sc_hd__buf_1
*CAP
1 *7381:A0 0.00111669
2 *7617:X 0.00111669
3 *7381:A0 *7827:A 0.000112866
4 *7381:A0 *7828:A 0.000104173
5 *7381:A0 *7829:A 7.71303e-05
6 *7381:A0 *7937:A 9.90367e-05
7 *7381:A0 *7944:A 0.000172583
8 *7381:A0 *7946:A 3.33174e-05
9 *7381:A0 *7969:A 0.000249067
10 *7381:A0 *622:10 5.62176e-05
*RES
1 *7617:X *7381:A0 46.5643 
*END

*D_NET *285 0.000346884
*CONN
*I *7650:A I *D sky130_fd_sc_hd__nand2_1
*I *7409:X O *D sky130_fd_sc_hd__and3_2
*CAP
1 *7650:A 6.77607e-05
2 *7409:X 6.77607e-05
3 *7650:A *7641:A 0
4 *7650:A *7650:B 6.95326e-05
5 *7426:B *7650:A 0.00014183
*RES
1 *7409:X *7650:A 20.8143 
*END

*D_NET *286 0.000928246
*CONN
*I *7629:A I *D sky130_fd_sc_hd__inv_1
*I *7650:Y O *D sky130_fd_sc_hd__nand2_1
*CAP
1 *7629:A 0.000204427
2 *7650:Y 0.000204427
3 *7629:A *7640:A 5.87622e-05
4 *7395:A2 *7629:A 0
5 *7397:B2 *7629:A 0.000181796
6 *204:10 *7629:A 0.000155959
7 *228:59 *7629:A 0.000122875
*RES
1 *7650:Y *7629:A 32.9795 
*END

*D_NET *287 0.000204553
*CONN
*I *7620:A I *D sky130_fd_sc_hd__inv_1
*I *7619:Y O *D sky130_fd_sc_hd__inv_1
*CAP
1 *7620:A 0.000102277
2 *7619:Y 0.000102277
*RES
1 *7619:Y *7620:A 20.3188 
*END

*D_NET *288 0.000139938
*CONN
*I *7621:A I *D sky130_fd_sc_hd__inv_1
*I *7620:Y O *D sky130_fd_sc_hd__inv_1
*CAP
1 *7621:A 6.9969e-05
2 *7620:Y 6.9969e-05
*RES
1 *7620:Y *7621:A 19.4973 
*END

*D_NET *289 0.000106793
*CONN
*I *7622:A I *D sky130_fd_sc_hd__inv_1
*I *7621:Y O *D sky130_fd_sc_hd__inv_1
*CAP
1 *7622:A 5.33963e-05
2 *7621:Y 5.33963e-05
*RES
1 *7621:Y *7622:A 19.4973 
*END

*D_NET *290 0.000338686
*CONN
*I *7623:A I *D sky130_fd_sc_hd__inv_1
*I *7622:Y O *D sky130_fd_sc_hd__inv_1
*CAP
1 *7623:A 0.000141146
2 *7622:Y 0.000141146
3 *7623:A *7624:A 3.92854e-05
4 *7623:A *8067:A 2.8266e-06
5 *7623:A *8068:A 1.14548e-05
6 *7623:A *8070:A 2.8266e-06
7 *100:89 *7623:A 0
*RES
1 *7622:Y *7623:A 30.1134 
*END

*D_NET *291 0.000474335
*CONN
*I *7624:A I *D sky130_fd_sc_hd__inv_1
*I *7623:Y O *D sky130_fd_sc_hd__inv_1
*CAP
1 *7624:A 0.000215594
2 *7623:Y 0.000215594
3 *7624:A *8068:A 3.86189e-06
4 *7623:A *7624:A 3.92854e-05
5 *100:89 *7624:A 0
*RES
1 *7623:Y *7624:A 30.9795 
*END

*D_NET *292 0.00111658
*CONN
*I *7625:A I *D sky130_fd_sc_hd__inv_1
*I *7649:A I *D sky130_fd_sc_hd__buf_1
*I *7624:Y O *D sky130_fd_sc_hd__inv_1
*CAP
1 *7625:A 0.000119112
2 *7649:A 0.00019242
3 *7624:Y 0.00010588
4 *292:6 0.000417413
5 *7625:A *7626:A 1.62049e-05
6 *7625:A *7627:A 2.3541e-05
7 *7625:A *7628:A 4.4223e-05
8 *7649:A *7627:A 1.62621e-05
9 *7649:A *7630:A 2.16315e-05
10 *292:6 *7628:A 3.48331e-05
11 *292:6 *7630:A 2.50696e-05
12 *7397:A2 *7649:A 9.99853e-05
*RES
1 *7624:Y *292:6 11.2732 
2 *292:6 *7649:A 21.8 
3 *292:6 *7625:A 11.6482 
*END

*D_NET *293 0.000680472
*CONN
*I *7626:A I *D sky130_fd_sc_hd__inv_1
*I *7625:Y O *D sky130_fd_sc_hd__inv_1
*CAP
1 *7626:A 0.000209482
2 *7625:Y 0.000209482
3 *7626:A *7627:A 4.66647e-05
4 *7626:A *8097:A 0.000153519
5 *7625:A *7626:A 1.62049e-05
6 *118:141 *7626:A 4.51198e-05
*RES
1 *7625:Y *7626:A 31.7563 
*END

*D_NET *294 0.000389429
*CONN
*I *7627:A I *D sky130_fd_sc_hd__inv_1
*I *7626:Y O *D sky130_fd_sc_hd__inv_1
*CAP
1 *7627:A 0.000138983
2 *7626:Y 0.000138983
3 *7627:A *7628:A 2.49963e-05
4 *7625:A *7627:A 2.3541e-05
5 *7626:A *7627:A 4.66647e-05
6 *7649:A *7627:A 1.62621e-05
*RES
1 *7626:Y *7627:A 30.1134 
*END

*D_NET *295 0.000384889
*CONN
*I *7628:A I *D sky130_fd_sc_hd__inv_1
*I *7627:Y O *D sky130_fd_sc_hd__inv_1
*CAP
1 *7628:A 0.000117265
2 *7627:Y 0.000117265
3 *7628:A *7630:A 4.63078e-05
4 *7625:A *7628:A 4.4223e-05
5 *7627:A *7628:A 2.49963e-05
6 *292:6 *7628:A 3.48331e-05
*RES
1 *7627:Y *7628:A 21.1313 
*END

*D_NET *296 0.000609952
*CONN
*I *7630:A I *D sky130_fd_sc_hd__inv_1
*I *7628:Y O *D sky130_fd_sc_hd__inv_1
*CAP
1 *7630:A 0.000223905
2 *7628:Y 0.000223905
3 *7630:A *7631:A 3.49005e-05
4 *7397:A2 *7630:A 3.42322e-05
5 *7628:A *7630:A 4.63078e-05
6 *7649:A *7630:A 2.16315e-05
7 *100:89 *7630:A 0
8 *292:6 *7630:A 2.50696e-05
*RES
1 *7628:Y *7630:A 31.4348 
*END

*D_NET *297 0.000316385
*CONN
*I *7640:A I *D sky130_fd_sc_hd__inv_1
*I *7629:Y O *D sky130_fd_sc_hd__inv_1
*CAP
1 *7640:A 0.000116012
2 *7629:Y 0.000116012
3 *7640:A *7642:A 2.55987e-05
4 *7629:A *7640:A 5.87622e-05
*RES
1 *7629:Y *7640:A 20.8277 
*END

*D_NET *298 0.00018256
*CONN
*I *7631:A I *D sky130_fd_sc_hd__inv_1
*I *7630:Y O *D sky130_fd_sc_hd__inv_1
*CAP
1 *7631:A 2.6431e-05
2 *7630:Y 2.6431e-05
3 *7397:A2 *7631:A 9.47974e-05
4 *7630:A *7631:A 3.49005e-05
*RES
1 *7630:Y *7631:A 19.4973 
*END

*D_NET *299 0.000786192
*CONN
*I *7632:A I *D sky130_fd_sc_hd__inv_1
*I *7631:Y O *D sky130_fd_sc_hd__inv_1
*CAP
1 *7632:A 0.000279563
2 *7631:Y 0.000279563
3 *7632:A *7633:A 0.000179652
4 *7632:A *7637:A 1.42165e-05
5 *7397:B1 *7632:A 3.31965e-05
*RES
1 *7631:Y *7632:A 32.2384 
*END

*D_NET *300 0.00104512
*CONN
*I *7633:A I *D sky130_fd_sc_hd__inv_1
*I *7632:Y O *D sky130_fd_sc_hd__inv_1
*CAP
1 *7633:A 0.000266936
2 *7632:Y 0.000266936
3 *7633:A *7634:A 0.000174935
4 *7633:A *7635:A 7.11278e-06
5 *7633:A *7636:A 0.000115317
6 *7633:A *7637:A 3.42301e-05
7 *7633:A *7639:A 0
8 *7632:A *7633:A 0.000179652
*RES
1 *7632:Y *7633:A 33.3723 
*END

*D_NET *301 0.000961037
*CONN
*I *7634:A I *D sky130_fd_sc_hd__inv_1
*I *7633:Y O *D sky130_fd_sc_hd__inv_1
*CAP
1 *7634:A 0.000344165
2 *7633:Y 0.000344165
3 *7634:A *7635:A 6.71173e-05
4 *7634:A *7636:A 3.06548e-05
5 *7633:A *7634:A 0.000174935
*RES
1 *7633:Y *7634:A 23.9705 
*END

*D_NET *302 0.000548229
*CONN
*I *7635:A I *D sky130_fd_sc_hd__inv_1
*I *7634:Y O *D sky130_fd_sc_hd__inv_1
*CAP
1 *7635:A 0.000128117
2 *7634:Y 0.000128117
3 *7635:A *7636:A 0.000141499
4 *7635:A *7637:A 7.62658e-05
5 *7633:A *7635:A 7.11278e-06
6 *7634:A *7635:A 6.71173e-05
*RES
1 *7634:Y *7635:A 21.7205 
*END

*D_NET *303 0.000413215
*CONN
*I *7636:A I *D sky130_fd_sc_hd__inv_1
*I *7635:Y O *D sky130_fd_sc_hd__inv_1
*CAP
1 *7636:A 6.28721e-05
2 *7635:Y 6.28721e-05
3 *7633:A *7636:A 0.000115317
4 *7634:A *7636:A 3.06548e-05
5 *7635:A *7636:A 0.000141499
*RES
1 *7635:Y *7636:A 20.8277 
*END

*D_NET *304 0.000440473
*CONN
*I *7637:A I *D sky130_fd_sc_hd__inv_1
*I *7636:Y O *D sky130_fd_sc_hd__inv_1
*CAP
1 *7637:A 0.000152153
2 *7636:Y 0.000152153
3 *7637:A *7638:A 1.14548e-05
4 *7637:A *7639:A 0
5 *7632:A *7637:A 1.42165e-05
6 *7633:A *7637:A 3.42301e-05
7 *7635:A *7637:A 7.62658e-05
8 *100:89 *7637:A 0
*RES
1 *7636:Y *7637:A 30.2205 
*END

*D_NET *305 0.000355675
*CONN
*I *7638:A I *D sky130_fd_sc_hd__inv_1
*I *7637:Y O *D sky130_fd_sc_hd__inv_1
*CAP
1 *7638:A 0.000159378
2 *7637:Y 0.000159378
3 *7638:A *7639:A 2.54648e-05
4 *7637:A *7638:A 1.14548e-05
*RES
1 *7637:Y *7638:A 21.1313 
*END

*D_NET *306 0.000797401
*CONN
*I *7639:A I *D sky130_fd_sc_hd__inv_1
*I *7638:Y O *D sky130_fd_sc_hd__inv_1
*CAP
1 *7639:A 0.000337329
2 *7638:Y 0.000337329
3 *7639:A *7641:A 5.15348e-05
4 *7633:A *7639:A 0
5 *7637:A *7639:A 0
6 *7638:A *7639:A 2.54648e-05
7 *100:89 *7639:A 4.57445e-05
*RES
1 *7638:Y *7639:A 32.7562 
*END

*D_NET *307 0.000515566
*CONN
*I *7641:A I *D sky130_fd_sc_hd__inv_1
*I *7639:Y O *D sky130_fd_sc_hd__inv_1
*CAP
1 *7641:A 0.000178456
2 *7639:Y 0.000178456
3 *7641:A *7650:B 4.71464e-05
4 *7426:B *7641:A 5.99725e-05
5 *7639:A *7641:A 5.15348e-05
6 *7650:A *7641:A 0
*RES
1 *7639:Y *7641:A 22.0598 
*END

*D_NET *308 0.000517114
*CONN
*I *7642:A I *D sky130_fd_sc_hd__inv_1
*I *7640:Y O *D sky130_fd_sc_hd__inv_1
*CAP
1 *7642:A 0.000126708
2 *7640:Y 0.000126708
3 *7642:A *7643:A 2.80853e-05
4 *7642:A *7645:A 2.80853e-05
5 *7408:C *7642:A 0.000123288
6 *7640:A *7642:A 2.55987e-05
7 *101:80 *7642:A 5.86416e-05
*RES
1 *7640:Y *7642:A 30.2652 
*END

*D_NET *309 0.000411433
*CONN
*I *7650:B I *D sky130_fd_sc_hd__nand2_1
*I *7641:Y O *D sky130_fd_sc_hd__inv_1
*CAP
1 *7650:B 0.000134964
2 *7641:Y 0.000134964
3 *7426:B *7650:B 2.48262e-05
4 *7641:A *7650:B 4.71464e-05
5 *7650:A *7650:B 6.95326e-05
*RES
1 *7641:Y *7650:B 21.4304 
*END

*D_NET *310 0.000424411
*CONN
*I *7643:A I *D sky130_fd_sc_hd__inv_1
*I *7642:Y O *D sky130_fd_sc_hd__inv_1
*CAP
1 *7643:A 7.99689e-05
2 *7642:Y 7.99689e-05
3 *7643:A *7644:A 0.000127494
4 *7643:A *7645:A 0.000108894
5 *7642:A *7643:A 2.80853e-05
*RES
1 *7642:Y *7643:A 20.8277 
*END

*D_NET *311 0.000567731
*CONN
*I *7644:A I *D sky130_fd_sc_hd__inv_1
*I *7643:Y O *D sky130_fd_sc_hd__inv_1
*CAP
1 *7644:A 0.000200626
2 *7643:Y 0.000200626
3 *7644:A *7645:A 3.89856e-05
4 *7643:A *7644:A 0.000127494
*RES
1 *7643:Y *7644:A 21.5866 
*END

*D_NET *312 0.000743235
*CONN
*I *7645:A I *D sky130_fd_sc_hd__inv_1
*I *7644:Y O *D sky130_fd_sc_hd__inv_1
*CAP
1 *7645:A 0.000275956
2 *7644:Y 0.000275956
3 *7645:A *7646:A 1.5357e-05
4 *7642:A *7645:A 2.80853e-05
5 *7643:A *7645:A 0.000108894
6 *7644:A *7645:A 3.89856e-05
*RES
1 *7644:Y *7645:A 23.8455 
*END

*D_NET *313 0.000669212
*CONN
*I *7646:A I *D sky130_fd_sc_hd__inv_1
*I *7645:Y O *D sky130_fd_sc_hd__inv_1
*CAP
1 *7646:A 0.000209902
2 *7645:Y 0.000209902
3 *7645:A *7646:A 1.5357e-05
4 *210:16 *7646:A 0.000154762
5 *221:55 *7646:A 7.92879e-05
*RES
1 *7645:Y *7646:A 31.8009 
*END

*D_NET *314 0.000716017
*CONN
*I *7647:A I *D sky130_fd_sc_hd__inv_1
*I *7646:Y O *D sky130_fd_sc_hd__inv_1
*CAP
1 *7647:A 0.000256038
2 *7646:Y 0.000256038
3 *101:80 *7647:A 5.26091e-05
4 *113:25 *7647:A 0.000151333
*RES
1 *7646:Y *7647:A 31.8009 
*END

*D_NET *315 0.000107334
*CONN
*I *7648:A I *D sky130_fd_sc_hd__inv_1
*I *7647:Y O *D sky130_fd_sc_hd__inv_1
*CAP
1 *7648:A 5.36668e-05
2 *7647:Y 5.36668e-05
*RES
1 *7647:Y *7648:A 19.4973 
*END

*D_NET *316 0.000109281
*CONN
*I *7619:A I *D sky130_fd_sc_hd__inv_1
*I *7648:Y O *D sky130_fd_sc_hd__inv_1
*CAP
1 *7619:A 5.46406e-05
2 *7648:Y 5.46406e-05
*RES
1 *7648:Y *7619:A 19.4973 
*END

*D_NET *317 0.000602127
*CONN
*I *7385:A2 I *D sky130_fd_sc_hd__mux4_2
*I *7649:X O *D sky130_fd_sc_hd__buf_1
*CAP
1 *7385:A2 0.000202852
2 *7649:X 0.000202852
3 *7397:A2 *7385:A2 8.17206e-05
4 *99:45 *7385:A2 7.83659e-05
5 *118:141 *7385:A2 3.6337e-05
*RES
1 *7649:X *7385:A2 30.8143 
*END

*D_NET *318 0.000433518
*CONN
*I *7682:A I *D sky130_fd_sc_hd__nand2_1
*I *7410:X O *D sky130_fd_sc_hd__and3_2
*CAP
1 *7682:A 9.34371e-05
2 *7410:X 9.34371e-05
3 *7682:A *7661:A 3.93247e-05
4 *7682:A *7682:B 2.55163e-05
5 *7410:A *7682:A 0.000181803
*RES
1 *7410:X *7682:A 21.225 
*END

*D_NET *319 0.000283406
*CONN
*I *7661:A I *D sky130_fd_sc_hd__inv_1
*I *7682:Y O *D sky130_fd_sc_hd__nand2_1
*CAP
1 *7661:A 5.80395e-05
2 *7682:Y 5.80395e-05
3 *7661:A *7682:B 0.000113515
4 *7410:A *7661:A 1.4487e-05
5 *7682:A *7661:A 3.93247e-05
*RES
1 *7682:Y *7661:A 20.2563 
*END

*D_NET *320 0.000410275
*CONN
*I *7652:A I *D sky130_fd_sc_hd__inv_1
*I *7651:Y O *D sky130_fd_sc_hd__inv_1
*CAP
1 *7652:A 0.000171327
2 *7651:Y 0.000171327
3 *7652:A *7653:A 3.00023e-05
4 *7652:A *7657:A 3.76192e-05
*RES
1 *7651:Y *7652:A 30.2652 
*END

*D_NET *321 0.000269023
*CONN
*I *7653:A I *D sky130_fd_sc_hd__inv_1
*I *7652:Y O *D sky130_fd_sc_hd__inv_1
*CAP
1 *7653:A 9.91373e-05
2 *7652:Y 9.91373e-05
3 *7653:A *7654:A 2.62908e-05
4 *7653:A *7655:A 1.44555e-05
5 *7652:A *7653:A 3.00023e-05
*RES
1 *7652:Y *7653:A 20.6982 
*END

*D_NET *322 0.00053325
*CONN
*I *7654:A I *D sky130_fd_sc_hd__inv_1
*I *7653:Y O *D sky130_fd_sc_hd__inv_1
*CAP
1 *7654:A 0.000210804
2 *7653:Y 0.000210804
3 *7654:A *7655:A 8.53514e-05
4 *7653:A *7654:A 2.62908e-05
5 *124:36 *7654:A 0
*RES
1 *7653:Y *7654:A 30.9348 
*END

*D_NET *323 0.000554809
*CONN
*I *7655:A I *D sky130_fd_sc_hd__inv_1
*I *7654:Y O *D sky130_fd_sc_hd__inv_1
*CAP
1 *7655:A 0.00019812
2 *7654:Y 0.00019812
3 *7655:A *7656:A 5.87622e-05
4 *7653:A *7655:A 1.44555e-05
5 *7654:A *7655:A 8.53514e-05
6 *124:36 *7655:A 0
*RES
1 *7654:Y *7655:A 31.1313 
*END

*D_NET *324 0.000297826
*CONN
*I *7656:A I *D sky130_fd_sc_hd__inv_1
*I *7655:Y O *D sky130_fd_sc_hd__inv_1
*CAP
1 *7656:A 0.000106386
2 *7655:Y 0.000106386
3 *7656:A *325:10 2.62908e-05
4 *7655:A *7656:A 5.87622e-05
*RES
1 *7655:Y *7656:A 20.8277 
*END

*D_NET *325 0.00238588
*CONN
*I *7681:A I *D sky130_fd_sc_hd__buf_1
*I *7657:A I *D sky130_fd_sc_hd__inv_1
*I *7656:Y O *D sky130_fd_sc_hd__inv_1
*CAP
1 *7681:A 0.000322641
2 *7657:A 0.000321388
3 *7656:Y 0.000210872
4 *325:10 0.000854901
5 *7657:A *7651:A 9.57215e-05
6 *7657:A *7679:A 2.80853e-05
7 *7657:A *7680:A 9.57215e-05
8 *7681:A *7385:A0 0
9 *7681:A *7385:A3 4.01768e-05
10 *325:10 *7385:A0 0
11 *7388:A2 *325:10 0
12 *7652:A *7657:A 3.76192e-05
13 *7656:A *325:10 2.62908e-05
14 *124:36 *7681:A 0.000201127
15 *124:36 *325:10 0.000151333
*RES
1 *7656:Y *325:10 17.3089 
2 *325:10 *7657:A 19.9741 
3 *325:10 *7681:A 20.175 
*END

*D_NET *326 0.000106793
*CONN
*I *7658:A I *D sky130_fd_sc_hd__inv_1
*I *7657:Y O *D sky130_fd_sc_hd__inv_1
*CAP
1 *7658:A 5.33963e-05
2 *7657:Y 5.33963e-05
*RES
1 *7657:Y *7658:A 19.4973 
*END

*D_NET *327 0.000106793
*CONN
*I *7659:A I *D sky130_fd_sc_hd__inv_1
*I *7658:Y O *D sky130_fd_sc_hd__inv_1
*CAP
1 *7659:A 5.33963e-05
2 *7658:Y 5.33963e-05
*RES
1 *7658:Y *7659:A 19.4973 
*END

*D_NET *328 0.000106793
*CONN
*I *7660:A I *D sky130_fd_sc_hd__inv_1
*I *7659:Y O *D sky130_fd_sc_hd__inv_1
*CAP
1 *7660:A 5.33963e-05
2 *7659:Y 5.33963e-05
*RES
1 *7659:Y *7660:A 19.4973 
*END

*D_NET *329 0.000489763
*CONN
*I *7662:A I *D sky130_fd_sc_hd__inv_1
*I *7660:Y O *D sky130_fd_sc_hd__inv_1
*CAP
1 *7662:A 0.000236539
2 *7660:Y 0.000236539
3 *7662:A *7663:A 1.66856e-05
*RES
1 *7660:Y *7662:A 31.5598 
*END

*D_NET *330 0.000125096
*CONN
*I *7672:A I *D sky130_fd_sc_hd__inv_1
*I *7661:Y O *D sky130_fd_sc_hd__inv_1
*CAP
1 *7672:A 3.58591e-05
2 *7661:Y 3.58591e-05
3 *7672:A *7682:B 5.33783e-05
*RES
1 *7661:Y *7672:A 19.4973 
*END

*D_NET *331 0.000337258
*CONN
*I *7663:A I *D sky130_fd_sc_hd__inv_1
*I *7662:Y O *D sky130_fd_sc_hd__inv_1
*CAP
1 *7663:A 0.000153399
2 *7662:Y 0.000153399
3 *7663:A *7668:A 0
4 *7663:A *7669:A 1.37743e-05
5 *7662:A *7663:A 1.66856e-05
*RES
1 *7662:Y *7663:A 29.8545 
*END

*D_NET *332 0.000432682
*CONN
*I *7664:A I *D sky130_fd_sc_hd__inv_1
*I *7663:Y O *D sky130_fd_sc_hd__inv_1
*CAP
1 *7664:A 0.000106438
2 *7663:Y 0.000106438
3 *7664:A *7665:A 5.44341e-05
4 *7664:A *7668:A 2.3541e-05
5 *7664:A *7669:A 0.00014183
*RES
1 *7663:Y *7664:A 21.283 
*END

*D_NET *333 0.000564201
*CONN
*I *7665:A I *D sky130_fd_sc_hd__inv_1
*I *7664:Y O *D sky130_fd_sc_hd__inv_1
*CAP
1 *7665:A 0.000249603
2 *7664:Y 0.000249603
3 *7665:A *7666:A 1.05613e-05
4 *7664:A *7665:A 5.44341e-05
*RES
1 *7664:Y *7665:A 31.9527 
*END

*D_NET *334 0.000650088
*CONN
*I *7666:A I *D sky130_fd_sc_hd__inv_1
*I *7665:Y O *D sky130_fd_sc_hd__inv_1
*CAP
1 *7666:A 0.000312876
2 *7665:Y 0.000312876
3 *7666:A *7667:A 1.37743e-05
4 *7665:A *7666:A 1.05613e-05
*RES
1 *7665:Y *7666:A 31.8009 
*END

*D_NET *335 0.000681263
*CONN
*I *7667:A I *D sky130_fd_sc_hd__inv_1
*I *7666:Y O *D sky130_fd_sc_hd__inv_1
*CAP
1 *7667:A 0.000323919
2 *7666:Y 0.000323919
3 *7667:A *7668:A 1.96517e-05
4 *7666:A *7667:A 1.37743e-05
*RES
1 *7666:Y *7667:A 32.6848 
*END

*D_NET *336 0.000341179
*CONN
*I *7668:A I *D sky130_fd_sc_hd__inv_1
*I *7667:Y O *D sky130_fd_sc_hd__inv_1
*CAP
1 *7668:A 0.000148993
2 *7667:Y 0.000148993
3 *7663:A *7668:A 0
4 *7664:A *7668:A 2.3541e-05
5 *7667:A *7668:A 1.96517e-05
*RES
1 *7667:Y *7668:A 29.8098 
*END

*D_NET *337 0.000860651
*CONN
*I *7669:A I *D sky130_fd_sc_hd__inv_1
*I *7668:Y O *D sky130_fd_sc_hd__inv_1
*CAP
1 *7669:A 0.00034011
2 *7668:Y 0.00034011
3 *7669:A *7670:A 2.48262e-05
4 *7669:A *7671:A 0
5 *7663:A *7669:A 1.37743e-05
6 *7664:A *7669:A 0.00014183
*RES
1 *7668:Y *7669:A 23.1759 
*END

*D_NET *338 0.000354541
*CONN
*I *7670:A I *D sky130_fd_sc_hd__inv_1
*I *7669:Y O *D sky130_fd_sc_hd__inv_1
*CAP
1 *7670:A 0.000150578
2 *7669:Y 0.000150578
3 *7670:A *7671:A 2.85586e-05
4 *7669:A *7670:A 2.48262e-05
*RES
1 *7669:Y *7670:A 21.6491 
*END

*D_NET *339 0.000447494
*CONN
*I *7671:A I *D sky130_fd_sc_hd__inv_1
*I *7670:Y O *D sky130_fd_sc_hd__inv_1
*CAP
1 *7671:A 0.000202456
2 *7670:Y 0.000202456
3 *7671:A *7673:A 1.4024e-05
4 *7669:A *7671:A 0
5 *7670:A *7671:A 2.85586e-05
*RES
1 *7670:Y *7671:A 21.9527 
*END

*D_NET *340 0.00094865
*CONN
*I *7673:A I *D sky130_fd_sc_hd__inv_1
*I *7671:Y O *D sky130_fd_sc_hd__inv_1
*CAP
1 *7673:A 0.000291817
2 *7671:Y 0.000291817
3 *7673:A *7682:B 1.87618e-05
4 *7673:A *8039:A 5.52558e-05
5 *7673:A *8040:A 0.000105785
6 *7673:A *721:14 0.000171189
7 *7671:A *7673:A 1.4024e-05
8 *124:36 *7673:A 0
*RES
1 *7671:Y *7673:A 33.8455 
*END

*D_NET *341 0.000129917
*CONN
*I *7674:A I *D sky130_fd_sc_hd__inv_1
*I *7672:Y O *D sky130_fd_sc_hd__inv_1
*CAP
1 *7674:A 3.60293e-05
2 *7672:Y 3.60293e-05
3 *7674:A *7385:A0 3.82062e-05
4 *7674:A *7682:B 1.96517e-05
*RES
1 *7672:Y *7674:A 19.4973 
*END

*D_NET *342 0.00150787
*CONN
*I *7682:B I *D sky130_fd_sc_hd__nand2_1
*I *7673:Y O *D sky130_fd_sc_hd__inv_1
*CAP
1 *7682:B 0.000615854
2 *7673:Y 0.000615854
3 *7682:B *8065:A 0
4 *7682:B *721:14 3.6092e-05
5 *7661:A *7682:B 0.000113515
6 *7672:A *7682:B 5.33783e-05
7 *7673:A *7682:B 1.87618e-05
8 *7674:A *7682:B 1.96517e-05
9 *7682:A *7682:B 2.55163e-05
10 *102:74 *7682:B 0
11 *205:61 *7682:B 9.25014e-06
*RES
1 *7673:Y *7682:B 36.6982 
*END

*D_NET *343 0.000390439
*CONN
*I *7675:A I *D sky130_fd_sc_hd__inv_1
*I *7674:Y O *D sky130_fd_sc_hd__inv_1
*CAP
1 *7675:A 0.000150257
2 *7674:Y 0.000150257
3 *7675:A *7385:A0 8.99249e-05
*RES
1 *7674:Y *7675:A 21.6938 
*END

*D_NET *344 0.000107045
*CONN
*I *7676:A I *D sky130_fd_sc_hd__inv_1
*I *7675:Y O *D sky130_fd_sc_hd__inv_1
*CAP
1 *7676:A 5.35226e-05
2 *7675:Y 5.35226e-05
*RES
1 *7675:Y *7676:A 19.4973 
*END

*D_NET *345 0.000652059
*CONN
*I *7677:A I *D sky130_fd_sc_hd__inv_1
*I *7676:Y O *D sky130_fd_sc_hd__inv_1
*CAP
1 *7677:A 0.000270749
2 *7676:Y 0.000270749
3 *7677:A *7678:A 9.57215e-05
4 *7677:A *7679:A 1.48401e-05
5 *124:36 *7677:A 0
*RES
1 *7676:Y *7677:A 32.158 
*END

*D_NET *346 0.000169491
*CONN
*I *7678:A I *D sky130_fd_sc_hd__inv_1
*I *7677:Y O *D sky130_fd_sc_hd__inv_1
*CAP
1 *7678:A 2.39231e-05
2 *7677:Y 2.39231e-05
3 *7678:A *7679:A 2.59235e-05
4 *7677:A *7678:A 9.57215e-05
*RES
1 *7677:Y *7678:A 19.4973 
*END

*D_NET *347 0.000529205
*CONN
*I *7679:A I *D sky130_fd_sc_hd__inv_1
*I *7678:Y O *D sky130_fd_sc_hd__inv_1
*CAP
1 *7679:A 0.000189856
2 *7678:Y 0.000189856
3 *7657:A *7679:A 2.80853e-05
4 *7677:A *7679:A 1.48401e-05
5 *7678:A *7679:A 2.59235e-05
6 *124:36 *7679:A 8.06427e-05
*RES
1 *7678:Y *7679:A 30.9795 
*END

*D_NET *348 0.00016283
*CONN
*I *7680:A I *D sky130_fd_sc_hd__inv_1
*I *7679:Y O *D sky130_fd_sc_hd__inv_1
*CAP
1 *7680:A 3.3554e-05
2 *7679:Y 3.3554e-05
3 *7657:A *7680:A 9.57215e-05
*RES
1 *7679:Y *7680:A 19.4973 
*END

*D_NET *349 0.00016283
*CONN
*I *7651:A I *D sky130_fd_sc_hd__inv_1
*I *7680:Y O *D sky130_fd_sc_hd__inv_1
*CAP
1 *7651:A 3.3554e-05
2 *7680:Y 3.3554e-05
3 *7657:A *7651:A 9.57215e-05
*RES
1 *7680:Y *7651:A 19.4973 
*END

*D_NET *350 0.00115498
*CONN
*I *7385:A3 I *D sky130_fd_sc_hd__mux4_2
*I *7681:X O *D sky130_fd_sc_hd__buf_1
*CAP
1 *7385:A3 0.000302215
2 *7681:X 0.000302215
3 *7385:A3 *7385:A1 0.000219711
4 *7382:S1 *7385:A3 0.000154762
5 *7681:A *7385:A3 4.01768e-05
6 *98:105 *7385:A3 0.000100757
7 *216:24 *7385:A3 3.51442e-05
*RES
1 *7681:X *7385:A3 32.9571 
*END

*D_NET *351 0.00069542
*CONN
*I *7714:A I *D sky130_fd_sc_hd__nand2_1
*I *7411:X O *D sky130_fd_sc_hd__and3_2
*CAP
1 *7714:A 0.000223136
2 *7411:X 0.000223136
3 *7714:A *7693:A 4.22908e-05
4 *7714:A *7703:A 2.80853e-05
5 *7714:A *7705:A 9.57215e-05
6 *7714:A *7714:B 7.90536e-05
7 *205:44 *7714:A 3.99614e-06
*RES
1 *7411:X *7714:A 23.2786 
*END

*D_NET *352 0.000205857
*CONN
*I *7693:A I *D sky130_fd_sc_hd__inv_1
*I *7714:Y O *D sky130_fd_sc_hd__nand2_1
*CAP
1 *7693:A 8.17832e-05
2 *7714:Y 8.17832e-05
3 *7714:A *7693:A 4.22908e-05
*RES
1 *7714:Y *7693:A 20.2563 
*END

*D_NET *353 0.000364823
*CONN
*I *7684:A I *D sky130_fd_sc_hd__inv_1
*I *7683:Y O *D sky130_fd_sc_hd__inv_1
*CAP
1 *7684:A 0.000163709
2 *7683:Y 0.000163709
3 *7684:A *7685:A 3.00023e-05
4 *7684:A *7712:A 7.40303e-06
*RES
1 *7683:Y *7684:A 30.158 
*END

*D_NET *354 0.000282239
*CONN
*I *7685:A I *D sky130_fd_sc_hd__inv_1
*I *7684:Y O *D sky130_fd_sc_hd__inv_1
*CAP
1 *7685:A 0.000112973
2 *7684:Y 0.000112973
3 *7685:A *7686:A 2.62908e-05
4 *7684:A *7685:A 3.00023e-05
*RES
1 *7684:Y *7685:A 20.8277 
*END

*D_NET *355 0.000472251
*CONN
*I *7686:A I *D sky130_fd_sc_hd__inv_1
*I *7685:Y O *D sky130_fd_sc_hd__inv_1
*CAP
1 *7686:A 0.00021036
2 *7685:Y 0.00021036
3 *7686:A *7687:A 2.524e-05
4 *7685:A *7686:A 2.62908e-05
*RES
1 *7685:Y *7686:A 30.6313 
*END

*D_NET *356 0.000350359
*CONN
*I *7687:A I *D sky130_fd_sc_hd__inv_1
*I *7686:Y O *D sky130_fd_sc_hd__inv_1
*CAP
1 *7687:A 0.000149414
2 *7686:Y 0.000149414
3 *7687:A *7688:A 2.62908e-05
4 *7686:A *7687:A 2.524e-05
*RES
1 *7686:Y *7687:A 21.667 
*END

*D_NET *357 0.000579968
*CONN
*I *7688:A I *D sky130_fd_sc_hd__inv_1
*I *7687:Y O *D sky130_fd_sc_hd__inv_1
*CAP
1 *7688:A 0.000263693
2 *7687:Y 0.000263693
3 *7688:A *358:6 2.62908e-05
4 *7687:A *7688:A 2.62908e-05
*RES
1 *7687:Y *7688:A 22.7741 
*END

*D_NET *358 0.00144602
*CONN
*I *7689:A I *D sky130_fd_sc_hd__inv_1
*I *7713:A I *D sky130_fd_sc_hd__buf_1
*I *7688:Y O *D sky130_fd_sc_hd__inv_1
*CAP
1 *7689:A 9.25365e-05
2 *7713:A 0.0002704
3 *7688:Y 0.000183151
4 *358:6 0.000546087
5 *7689:A *7690:A 5.4484e-05
6 *7713:A *7810:A 3.18676e-05
7 *7414:A *7713:A 0.00014183
8 *7414:B *7713:A 3.67142e-05
9 *7688:A *358:6 2.62908e-05
10 *124:36 *7713:A 0
11 *205:55 *7713:A 6.26559e-05
*RES
1 *7688:Y *358:6 12.0946 
2 *358:6 *7713:A 23.9607 
3 *358:6 *7689:A 11.1616 
*END

*D_NET *359 0.000330554
*CONN
*I *7690:A I *D sky130_fd_sc_hd__inv_1
*I *7689:Y O *D sky130_fd_sc_hd__inv_1
*CAP
1 *7690:A 0.000125601
2 *7689:Y 0.000125601
3 *7690:A *7691:A 2.48681e-05
4 *7689:A *7690:A 5.4484e-05
*RES
1 *7689:Y *7690:A 20.8277 
*END

*D_NET *360 0.000494885
*CONN
*I *7691:A I *D sky130_fd_sc_hd__inv_1
*I *7690:Y O *D sky130_fd_sc_hd__inv_1
*CAP
1 *7691:A 8.45949e-05
2 *7690:Y 8.45949e-05
3 *7691:A *7694:A 2.79827e-05
4 *7691:A *7697:A 2.79827e-05
5 *7367:C *7691:A 0.000123288
6 *7690:A *7691:A 2.48681e-05
7 *205:55 *7691:A 0.000121573
*RES
1 *7690:Y *7691:A 29.8545 
*END

*D_NET *361 0.000180677
*CONN
*I *7692:A I *D sky130_fd_sc_hd__inv_1
*I *7691:Y O *D sky130_fd_sc_hd__inv_1
*CAP
1 *7692:A 1.933e-05
2 *7691:Y 1.933e-05
3 *7692:A *7694:A 9.52792e-05
4 *7692:A *7696:A 1.19393e-05
5 *7692:A *7697:A 3.47984e-05
*RES
1 *7691:Y *7692:A 19.4973 
*END

*D_NET *362 0.000690881
*CONN
*I *7694:A I *D sky130_fd_sc_hd__inv_1
*I *7692:Y O *D sky130_fd_sc_hd__inv_1
*CAP
1 *7694:A 9.72438e-05
2 *7692:Y 9.72438e-05
3 *7694:A *7695:A 0.000257124
4 *7694:A *7696:A 1.48401e-05
5 *7694:A *7697:A 0.000101168
6 *7691:A *7694:A 2.79827e-05
7 *7692:A *7694:A 9.52792e-05
*RES
1 *7692:Y *7694:A 22.0598 
*END

*D_NET *363 0.000155961
*CONN
*I *7704:A I *D sky130_fd_sc_hd__inv_1
*I *7693:Y O *D sky130_fd_sc_hd__inv_1
*CAP
1 *7704:A 7.79807e-05
2 *7693:Y 7.79807e-05
*RES
1 *7693:Y *7704:A 19.908 
*END

*D_NET *364 0.000832424
*CONN
*I *7695:A I *D sky130_fd_sc_hd__inv_1
*I *7694:Y O *D sky130_fd_sc_hd__inv_1
*CAP
1 *7695:A 0.000275514
2 *7694:Y 0.000275514
3 *7695:A *7696:A 2.42732e-05
4 *7694:A *7695:A 0.000257124
*RES
1 *7694:Y *7695:A 22.8188 
*END

*D_NET *365 0.000825382
*CONN
*I *7696:A I *D sky130_fd_sc_hd__inv_1
*I *7695:Y O *D sky130_fd_sc_hd__inv_1
*CAP
1 *7696:A 0.000277125
2 *7695:Y 0.000277125
3 *7696:A *7697:A 7.83587e-05
4 *7696:A *7698:A 3.55406e-05
5 *7692:A *7696:A 1.19393e-05
6 *7694:A *7696:A 1.48401e-05
7 *7695:A *7696:A 2.42732e-05
8 *124:30 *7696:A 6.71295e-05
9 *124:36 *7696:A 0
10 *205:55 *7696:A 3.90513e-05
*RES
1 *7695:Y *7696:A 32.167 
*END

*D_NET *366 0.000946835
*CONN
*I *7697:A I *D sky130_fd_sc_hd__inv_1
*I *7696:Y O *D sky130_fd_sc_hd__inv_1
*CAP
1 *7697:A 0.000275664
2 *7696:Y 0.000275664
3 *7697:A *7698:A 4.82256e-05
4 *7691:A *7697:A 2.79827e-05
5 *7692:A *7697:A 3.47984e-05
6 *7694:A *7697:A 0.000101168
7 *7696:A *7697:A 7.83587e-05
8 *124:36 *7697:A 0
9 *205:55 *7697:A 0.000104974
*RES
1 *7696:Y *7697:A 33.3634 
*END

*D_NET *367 0.000948472
*CONN
*I *7698:A I *D sky130_fd_sc_hd__inv_1
*I *7697:Y O *D sky130_fd_sc_hd__inv_1
*CAP
1 *7698:A 0.00030806
2 *7697:Y 0.00030806
3 *7367:C *7698:A 3.34672e-05
4 *7696:A *7698:A 3.55406e-05
5 *7697:A *7698:A 4.82256e-05
6 *98:95 *7698:A 0.000104974
7 *124:30 *7698:A 0.000110144
*RES
1 *7697:Y *7698:A 33.5821 
*END

*D_NET *368 0.000156494
*CONN
*I *7699:A I *D sky130_fd_sc_hd__inv_1
*I *7698:Y O *D sky130_fd_sc_hd__inv_1
*CAP
1 *7699:A 3.03862e-05
2 *7698:Y 3.03862e-05
3 *124:30 *7699:A 9.57215e-05
*RES
1 *7698:Y *7699:A 19.4973 
*END

*D_NET *369 0.000524466
*CONN
*I *7700:A I *D sky130_fd_sc_hd__inv_1
*I *7699:Y O *D sky130_fd_sc_hd__inv_1
*CAP
1 *7700:A 0.000203529
2 *7699:Y 0.000203529
3 *7700:A *7701:A 4.89191e-05
4 *7700:A *7702:A 3.32485e-05
5 *124:30 *7700:A 3.52408e-05
6 *205:55 *7700:A 0
*RES
1 *7699:Y *7700:A 30.9527 
*END

*D_NET *370 0.000331872
*CONN
*I *7701:A I *D sky130_fd_sc_hd__inv_1
*I *7700:Y O *D sky130_fd_sc_hd__inv_1
*CAP
1 *7701:A 7.39282e-05
2 *7700:Y 7.39282e-05
3 *7701:A *7702:A 0.000135097
4 *7700:A *7701:A 4.89191e-05
*RES
1 *7700:Y *7701:A 20.8277 
*END

*D_NET *371 0.000490542
*CONN
*I *7702:A I *D sky130_fd_sc_hd__inv_1
*I *7701:Y O *D sky130_fd_sc_hd__inv_1
*CAP
1 *7702:A 9.199e-05
2 *7701:Y 9.199e-05
3 *7702:A *7703:A 0.000138217
4 *7700:A *7702:A 3.32485e-05
5 *7701:A *7702:A 0.000135097
*RES
1 *7701:Y *7702:A 21.5866 
*END

*D_NET *372 0.000792944
*CONN
*I *7703:A I *D sky130_fd_sc_hd__inv_1
*I *7702:Y O *D sky130_fd_sc_hd__inv_1
*CAP
1 *7703:A 0.000286819
2 *7702:Y 0.000286819
3 *7702:A *7703:A 0.000138217
4 *7714:A *7703:A 2.80853e-05
5 *205:55 *7703:A 5.3003e-05
*RES
1 *7702:Y *7703:A 32.4616 
*END

*D_NET *373 0.00016283
*CONN
*I *7705:A I *D sky130_fd_sc_hd__inv_1
*I *7703:Y O *D sky130_fd_sc_hd__inv_1
*CAP
1 *7705:A 3.3554e-05
2 *7703:Y 3.3554e-05
3 *7714:A *7705:A 9.57215e-05
*RES
1 *7703:Y *7705:A 19.4973 
*END

*D_NET *374 0.00011429
*CONN
*I *7706:A I *D sky130_fd_sc_hd__inv_1
*I *7704:Y O *D sky130_fd_sc_hd__inv_1
*CAP
1 *7706:A 3.84972e-05
2 *7704:Y 3.84972e-05
3 *7706:A *7707:A 3.72958e-05
*RES
1 *7704:Y *7706:A 19.4973 
*END

*D_NET *375 0.000134476
*CONN
*I *7714:B I *D sky130_fd_sc_hd__nand2_1
*I *7705:Y O *D sky130_fd_sc_hd__inv_1
*CAP
1 *7714:B 2.77113e-05
2 *7705:Y 2.77113e-05
3 *7714:A *7714:B 7.90536e-05
*RES
1 *7705:Y *7714:B 19.3411 
*END

*D_NET *376 0.000555723
*CONN
*I *7707:A I *D sky130_fd_sc_hd__inv_1
*I *7706:Y O *D sky130_fd_sc_hd__inv_1
*CAP
1 *7707:A 0.000259213
2 *7706:Y 0.000259213
3 *7707:A *7708:A 0
4 *7707:A *7709:A 0
5 *7706:A *7707:A 3.72958e-05
*RES
1 *7706:Y *7707:A 31.3455 
*END

*D_NET *377 0.000598405
*CONN
*I *7708:A I *D sky130_fd_sc_hd__inv_1
*I *7707:Y O *D sky130_fd_sc_hd__inv_1
*CAP
1 *7708:A 0.000299202
2 *7707:Y 0.000299202
3 *7708:A *7709:A 0
4 *7707:A *7708:A 0
*RES
1 *7707:Y *7708:A 31.8009 
*END

*D_NET *378 0.000437935
*CONN
*I *7709:A I *D sky130_fd_sc_hd__inv_1
*I *7708:Y O *D sky130_fd_sc_hd__inv_1
*CAP
1 *7709:A 0.000201899
2 *7708:Y 0.000201899
3 *7709:A *7710:A 2.80853e-05
4 *7709:A *7711:A 6.05161e-06
5 *7707:A *7709:A 0
6 *7708:A *7709:A 0
*RES
1 *7708:Y *7709:A 30.5688 
*END

*D_NET *379 0.000284168
*CONN
*I *7710:A I *D sky130_fd_sc_hd__inv_1
*I *7709:Y O *D sky130_fd_sc_hd__inv_1
*CAP
1 *7710:A 0.000113075
2 *7709:Y 0.000113075
3 *7710:A *7711:A 2.99338e-05
4 *7709:A *7710:A 2.80853e-05
*RES
1 *7709:Y *7710:A 20.8277 
*END

*D_NET *380 0.000418772
*CONN
*I *7711:A I *D sky130_fd_sc_hd__inv_1
*I *7710:Y O *D sky130_fd_sc_hd__inv_1
*CAP
1 *7711:A 0.000177351
2 *7710:Y 0.000177351
3 *7711:A *7712:A 2.80853e-05
4 *7709:A *7711:A 6.05161e-06
5 *7710:A *7711:A 2.99338e-05
*RES
1 *7710:Y *7711:A 30.2652 
*END

*D_NET *381 0.000561288
*CONN
*I *7712:A I *D sky130_fd_sc_hd__inv_1
*I *7711:Y O *D sky130_fd_sc_hd__inv_1
*CAP
1 *7712:A 0.000215039
2 *7711:Y 0.000215039
3 *7712:A *7683:A 9.57215e-05
4 *7684:A *7712:A 7.40303e-06
5 *7711:A *7712:A 2.80853e-05
*RES
1 *7711:Y *7712:A 22.5152 
*END

*D_NET *382 0.000156494
*CONN
*I *7683:A I *D sky130_fd_sc_hd__inv_1
*I *7712:Y O *D sky130_fd_sc_hd__inv_1
*CAP
1 *7683:A 3.03862e-05
2 *7712:Y 3.03862e-05
3 *7712:A *7683:A 9.57215e-05
*RES
1 *7712:Y *7683:A 19.4973 
*END

*D_NET *383 0.00103231
*CONN
*I *7382:A0 I *D sky130_fd_sc_hd__mux4_2
*I *7713:X O *D sky130_fd_sc_hd__buf_1
*CAP
1 *7382:A0 0.000424062
2 *7713:X 0.000424062
3 *7382:A0 *7382:A3 1.89507e-06
4 *7382:A0 *7745:A 6.05161e-06
5 *7385:S0 *7382:A0 3.63281e-05
6 *7414:A *7382:A0 0.000139913
*RES
1 *7713:X *7382:A0 32.8679 
*END

*D_NET *384 0.000572654
*CONN
*I *7746:A I *D sky130_fd_sc_hd__nand2_1
*I *7412:X O *D sky130_fd_sc_hd__and3_2
*CAP
1 *7746:A 0.000182599
2 *7412:X 0.000182599
3 *7746:A *7746:B 5.99152e-05
4 *7367:C *7746:A 0.000141734
5 *100:114 *7746:A 5.80706e-06
*RES
1 *7412:X *7746:A 31.0286 
*END

*D_NET *385 0.000435413
*CONN
*I *7725:A I *D sky130_fd_sc_hd__inv_1
*I *7746:Y O *D sky130_fd_sc_hd__nand2_1
*CAP
1 *7725:A 0.000190355
2 *7746:Y 0.000190355
3 *7725:A *7736:A 5.47017e-05
*RES
1 *7746:Y *7725:A 30.783 
*END

*D_NET *386 0.000174798
*CONN
*I *7716:A I *D sky130_fd_sc_hd__inv_1
*I *7715:Y O *D sky130_fd_sc_hd__inv_1
*CAP
1 *7716:A 1.2849e-05
2 *7715:Y 1.2849e-05
3 *101:101 *7716:A 5.33783e-05
4 *124:30 *7716:A 9.57215e-05
*RES
1 *7715:Y *7716:A 19.4973 
*END

*D_NET *387 0.000174968
*CONN
*I *7717:A I *D sky130_fd_sc_hd__inv_1
*I *7716:Y O *D sky130_fd_sc_hd__inv_1
*CAP
1 *7717:A 1.29822e-05
2 *7716:Y 1.29822e-05
3 *101:101 *7717:A 5.33783e-05
4 *124:30 *7717:A 9.56254e-05
*RES
1 *7716:Y *7717:A 19.4973 
*END

*D_NET *388 0.00065942
*CONN
*I *7718:A I *D sky130_fd_sc_hd__inv_1
*I *7717:Y O *D sky130_fd_sc_hd__inv_1
*CAP
1 *7718:A 0.000213152
2 *7717:Y 0.000213152
3 *7718:A *7730:A 2.43767e-05
4 *100:114 *7718:A 0.000134557
5 *101:101 *7718:A 7.41811e-05
*RES
1 *7717:Y *7718:A 31.6402 
*END

*D_NET *389 0.000265863
*CONN
*I *7719:A I *D sky130_fd_sc_hd__inv_1
*I *7718:Y O *D sky130_fd_sc_hd__inv_1
*CAP
1 *7719:A 0.000102616
2 *7718:Y 0.000102616
3 *7719:A *7730:A 6.06312e-05
*RES
1 *7718:Y *7719:A 20.7295 
*END

*D_NET *390 0.000730623
*CONN
*I *7720:A I *D sky130_fd_sc_hd__inv_1
*I *7719:Y O *D sky130_fd_sc_hd__inv_1
*CAP
1 *7720:A 0.000306269
2 *7719:Y 0.000306269
3 *7720:A *7745:A 3.27461e-05
4 *7720:A *391:6 2.80853e-05
5 *7411:B *7720:A 5.72546e-05
*RES
1 *7719:Y *7720:A 31.908 
*END

*D_NET *391 0.00119107
*CONN
*I *7745:A I *D sky130_fd_sc_hd__buf_1
*I *7721:A I *D sky130_fd_sc_hd__inv_1
*I *7720:Y O *D sky130_fd_sc_hd__inv_1
*CAP
1 *7745:A 0.000270531
2 *7721:A 6.33739e-05
3 *7720:Y 7.66527e-05
4 *391:6 0.000410557
5 *7721:A *7722:A 4.74238e-05
6 *7382:A0 *7745:A 6.05161e-06
7 *7411:B *7745:A 6.88884e-05
8 *7569:A *7745:A 0.000186765
9 *7720:A *7745:A 3.27461e-05
10 *7720:A *391:6 2.80853e-05
*RES
1 *7720:Y *391:6 10.4518 
2 *391:6 *7721:A 10.5768 
3 *391:6 *7745:A 24.05 
*END

*D_NET *392 0.00030833
*CONN
*I *7722:A I *D sky130_fd_sc_hd__inv_1
*I *7721:Y O *D sky130_fd_sc_hd__inv_1
*CAP
1 *7722:A 9.36985e-05
2 *7721:Y 9.36985e-05
3 *7722:A *7723:A 7.35088e-05
4 *7721:A *7722:A 4.74238e-05
*RES
1 *7721:Y *7722:A 20.6982 
*END

*D_NET *393 0.000339459
*CONN
*I *7723:A I *D sky130_fd_sc_hd__inv_1
*I *7722:Y O *D sky130_fd_sc_hd__inv_1
*CAP
1 *7723:A 0.000118803
2 *7722:Y 0.000118803
3 *7723:A *7724:A 2.83444e-05
4 *7722:A *7723:A 7.35088e-05
*RES
1 *7722:Y *7723:A 21.1313 
*END

*D_NET *394 0.000439755
*CONN
*I *7724:A I *D sky130_fd_sc_hd__inv_1
*I *7723:Y O *D sky130_fd_sc_hd__inv_1
*CAP
1 *7724:A 0.000170167
2 *7723:Y 0.000170167
3 *7724:A *7726:A 7.10779e-05
4 *7723:A *7724:A 2.83444e-05
*RES
1 *7723:Y *7724:A 21.542 
*END

*D_NET *395 0.000475639
*CONN
*I *7726:A I *D sky130_fd_sc_hd__inv_1
*I *7724:Y O *D sky130_fd_sc_hd__inv_1
*CAP
1 *7726:A 0.000185855
2 *7724:Y 0.000185855
3 *7726:A *7727:A 2.13968e-05
4 *7726:A *7763:A 1.14548e-05
5 *7726:A *7766:A 0
6 *7724:A *7726:A 7.10779e-05
*RES
1 *7724:Y *7726:A 22.0777 
*END

*D_NET *396 0.000368492
*CONN
*I *7736:A I *D sky130_fd_sc_hd__inv_1
*I *7725:Y O *D sky130_fd_sc_hd__inv_1
*CAP
1 *7736:A 0.000125986
2 *7725:Y 0.000125986
3 *7736:A *7738:A 6.18178e-05
4 *7725:A *7736:A 5.47017e-05
*RES
1 *7725:Y *7736:A 21.3098 
*END

*D_NET *397 0.000896574
*CONN
*I *7727:A I *D sky130_fd_sc_hd__inv_1
*I *7726:Y O *D sky130_fd_sc_hd__inv_1
*CAP
1 *7727:A 0.000338511
2 *7726:Y 0.000338511
3 *7727:A *7728:A 5.323e-05
4 *7727:A *7763:A 0.000112418
5 *7726:A *7727:A 2.13968e-05
6 *100:114 *7727:A 3.25078e-05
*RES
1 *7726:Y *7727:A 33.3723 
*END

*D_NET *398 0.000118985
*CONN
*I *7728:A I *D sky130_fd_sc_hd__inv_1
*I *7727:Y O *D sky130_fd_sc_hd__inv_1
*CAP
1 *7728:A 3.28774e-05
2 *7727:Y 3.28774e-05
3 *7727:A *7728:A 5.323e-05
*RES
1 *7727:Y *7728:A 19.4973 
*END

*D_NET *399 0.000124513
*CONN
*I *7729:A I *D sky130_fd_sc_hd__inv_1
*I *7728:Y O *D sky130_fd_sc_hd__inv_1
*CAP
1 *7729:A 6.22567e-05
2 *7728:Y 6.22567e-05
*RES
1 *7728:Y *7729:A 19.4973 
*END

*D_NET *400 0.000962024
*CONN
*I *7730:A I *D sky130_fd_sc_hd__inv_1
*I *7729:Y O *D sky130_fd_sc_hd__inv_1
*CAP
1 *7730:A 0.00041637
2 *7729:Y 0.00041637
3 *7718:A *7730:A 2.43767e-05
4 *7719:A *7730:A 6.06312e-05
5 *100:114 *7730:A 0
6 *101:101 *7730:A 1.62049e-05
7 *124:30 *7730:A 2.80715e-05
*RES
1 *7729:Y *7730:A 33.6937 
*END

*D_NET *401 0.000425816
*CONN
*I *7731:A I *D sky130_fd_sc_hd__inv_1
*I *7730:Y O *D sky130_fd_sc_hd__inv_1
*CAP
1 *7731:A 4.09618e-05
2 *7730:Y 4.09618e-05
3 *101:101 *7731:A 0.000118925
4 *124:30 *7731:A 0.000224967
*RES
1 *7730:Y *7731:A 20.7295 
*END

*D_NET *402 0.000182343
*CONN
*I *7732:A I *D sky130_fd_sc_hd__inv_1
*I *7731:Y O *D sky130_fd_sc_hd__inv_1
*CAP
1 *7732:A 2.49146e-05
2 *7731:Y 2.49146e-05
3 *101:101 *7732:A 4.02348e-05
4 *124:30 *7732:A 9.22786e-05
*RES
1 *7731:Y *7732:A 19.4973 
*END

*D_NET *403 0.000455363
*CONN
*I *7733:A I *D sky130_fd_sc_hd__inv_1
*I *7732:Y O *D sky130_fd_sc_hd__inv_1
*CAP
1 *7733:A 9.7531e-05
2 *7732:Y 9.7531e-05
3 *7733:A *7735:A 2.79827e-05
4 *7365:A *7733:A 2.79827e-05
5 *7411:B *7733:A 0.000121573
6 *101:101 *7733:A 3.63281e-05
7 *124:30 *7733:A 3.51773e-05
8 *205:44 *7733:A 1.12566e-05
*RES
1 *7732:Y *7733:A 29.8545 
*END

*D_NET *404 0.000214098
*CONN
*I *7734:A I *D sky130_fd_sc_hd__inv_1
*I *7733:Y O *D sky130_fd_sc_hd__inv_1
*CAP
1 *7734:A 1.17696e-05
2 *7733:Y 1.17696e-05
3 *7734:A *7735:A 9.52792e-05
4 *7365:A *7734:A 9.52792e-05
*RES
1 *7733:Y *7734:A 19.4973 
*END

*D_NET *405 0.000814422
*CONN
*I *7735:A I *D sky130_fd_sc_hd__inv_1
*I *7734:Y O *D sky130_fd_sc_hd__inv_1
*CAP
1 *7735:A 9.28428e-05
2 *7734:Y 9.28428e-05
3 *7735:A *7737:A 5.17185e-05
4 *7365:A *7735:A 0.000174823
5 *7733:A *7735:A 2.79827e-05
6 *7734:A *7735:A 9.52792e-05
7 *169:20 *7735:A 0.000278933
*RES
1 *7734:Y *7735:A 22.542 
*END

*D_NET *406 0.000869978
*CONN
*I *7737:A I *D sky130_fd_sc_hd__inv_1
*I *7735:Y O *D sky130_fd_sc_hd__inv_1
*CAP
1 *7737:A 0.000216898
2 *7735:Y 0.000216898
3 *7737:A *7746:B 2.54648e-05
4 *7365:A *7737:A 3.67825e-05
5 *7367:C *7737:A 8.21617e-05
6 *7735:A *7737:A 5.17185e-05
7 *98:91 *7737:A 2.12087e-05
8 *169:20 *7737:A 0.000174894
9 *205:44 *7737:A 4.39511e-05
*RES
1 *7735:Y *7737:A 32.7741 
*END

*D_NET *407 0.000287984
*CONN
*I *7738:A I *D sky130_fd_sc_hd__inv_1
*I *7736:Y O *D sky130_fd_sc_hd__inv_1
*CAP
1 *7738:A 9.99376e-05
2 *7736:Y 9.99376e-05
3 *7738:A *7739:A 2.62908e-05
4 *7736:A *7738:A 6.18178e-05
*RES
1 *7736:Y *7738:A 20.8277 
*END

*D_NET *408 0.000640769
*CONN
*I *7746:B I *D sky130_fd_sc_hd__nand2_1
*I *7737:Y O *D sky130_fd_sc_hd__inv_1
*CAP
1 *7746:B 0.000252504
2 *7737:Y 0.000252504
3 *7367:C *7746:B 5.03808e-05
4 *7737:A *7746:B 2.54648e-05
5 *7746:A *7746:B 5.99152e-05
*RES
1 *7737:Y *7746:B 22.7875 
*END

*D_NET *409 0.000414553
*CONN
*I *7739:A I *D sky130_fd_sc_hd__inv_1
*I *7738:Y O *D sky130_fd_sc_hd__inv_1
*CAP
1 *7739:A 0.000185784
2 *7738:Y 0.000185784
3 *7739:A *7740:A 1.66955e-05
4 *7738:A *7739:A 2.62908e-05
*RES
1 *7738:Y *7739:A 21.9527 
*END

*D_NET *410 0.000726706
*CONN
*I *7740:A I *D sky130_fd_sc_hd__inv_1
*I *7739:Y O *D sky130_fd_sc_hd__inv_1
*CAP
1 *7740:A 0.000251232
2 *7739:Y 0.000251232
3 *7740:A *7741:A 9.57215e-05
4 *7367:C *7740:A 0.000111825
5 *7739:A *7740:A 1.66955e-05
*RES
1 *7739:Y *7740:A 32.8232 
*END

*D_NET *411 0.000212531
*CONN
*I *7741:A I *D sky130_fd_sc_hd__inv_1
*I *7740:Y O *D sky130_fd_sc_hd__inv_1
*CAP
1 *7741:A 1.05439e-05
2 *7740:Y 1.05439e-05
3 *7367:C *7741:A 9.57215e-05
4 *7740:A *7741:A 9.57215e-05
*RES
1 *7740:Y *7741:A 19.4973 
*END

*D_NET *412 0.000579721
*CONN
*I *7742:A I *D sky130_fd_sc_hd__inv_1
*I *7741:Y O *D sky130_fd_sc_hd__inv_1
*CAP
1 *7742:A 0.000218478
2 *7741:Y 0.000218478
3 *7365:A *7742:A 3.00023e-05
4 *7367:C *7742:A 6.55592e-05
5 *124:30 *7742:A 3.34295e-05
6 *169:22 *7742:A 1.37743e-05
*RES
1 *7741:Y *7742:A 30.9795 
*END

*D_NET *413 0.000174798
*CONN
*I *7743:A I *D sky130_fd_sc_hd__inv_1
*I *7742:Y O *D sky130_fd_sc_hd__inv_1
*CAP
1 *7743:A 1.2849e-05
2 *7742:Y 1.2849e-05
3 *7365:A *7743:A 9.57215e-05
4 *169:22 *7743:A 5.33783e-05
*RES
1 *7742:Y *7743:A 19.4973 
*END

*D_NET *414 0.000362719
*CONN
*I *7744:A I *D sky130_fd_sc_hd__inv_1
*I *7743:Y O *D sky130_fd_sc_hd__inv_1
*CAP
1 *7744:A 0.00014229
2 *7743:Y 0.00014229
3 *7365:A *7744:A 3.33238e-05
4 *7413:C *7744:A 0
5 *101:101 *7744:A 1.67305e-05
6 *124:30 *7744:A 2.80853e-05
*RES
1 *7743:Y *7744:A 29.8545 
*END

*D_NET *415 0.000174798
*CONN
*I *7715:A I *D sky130_fd_sc_hd__inv_1
*I *7744:Y O *D sky130_fd_sc_hd__inv_1
*CAP
1 *7715:A 1.2849e-05
2 *7744:Y 1.2849e-05
3 *101:101 *7715:A 5.33783e-05
4 *124:30 *7715:A 9.57215e-05
*RES
1 *7744:Y *7715:A 19.4973 
*END

*D_NET *416 0.000843041
*CONN
*I *7382:A1 I *D sky130_fd_sc_hd__mux4_2
*I *7745:X O *D sky130_fd_sc_hd__buf_1
*CAP
1 *7382:A1 0.000208523
2 *7745:X 0.000208523
3 *7382:A1 *7382:A3 0.000141734
4 *7382:S1 *7382:A1 0.000143375
5 *7569:A *7382:A1 0.000140886
*RES
1 *7745:X *7382:A1 31.6536 
*END

*D_NET *417 0.000852136
*CONN
*I *7778:A I *D sky130_fd_sc_hd__nand2_1
*I *7413:X O *D sky130_fd_sc_hd__and3_2
*CAP
1 *7778:A 0.000181348
2 *7413:X 0.000181348
3 *7778:A *7778:B 5.52302e-05
4 *101:80 *7778:A 0.000316031
5 *101:101 *7778:A 1.02504e-05
6 *113:25 *7778:A 0.000107929
*RES
1 *7413:X *7778:A 32.2071 
*END

*D_NET *418 0.000858765
*CONN
*I *7757:A I *D sky130_fd_sc_hd__inv_1
*I *7778:Y O *D sky130_fd_sc_hd__nand2_1
*CAP
1 *7757:A 0.000279724
2 *7778:Y 0.000279724
3 *7757:A *7768:A 5.43173e-05
4 *113:25 *7757:A 0.000121411
5 *127:16 *7757:A 0.000123589
*RES
1 *7778:Y *7757:A 32.1402 
*END

*D_NET *419 0.000547853
*CONN
*I *7748:A I *D sky130_fd_sc_hd__inv_1
*I *7747:Y O *D sky130_fd_sc_hd__inv_1
*CAP
1 *7748:A 0.000180913
2 *7747:Y 0.000180913
3 *7748:A *7747:A 9.23364e-05
4 *7748:A *7749:A 6.57079e-05
5 *7748:A *7776:A 2.79827e-05
*RES
1 *7747:Y *7748:A 22.0598 
*END

*D_NET *420 0.000712349
*CONN
*I *7749:A I *D sky130_fd_sc_hd__inv_1
*I *7748:Y O *D sky130_fd_sc_hd__inv_1
*CAP
1 *7749:A 0.000292433
2 *7748:Y 0.000292433
3 *7749:A *7747:A 4.8158e-05
4 *7749:A *7776:A 1.36161e-05
5 *7748:A *7749:A 6.57079e-05
*RES
1 *7748:Y *7749:A 22.8188 
*END

*D_NET *421 0.000109281
*CONN
*I *7750:A I *D sky130_fd_sc_hd__inv_1
*I *7749:Y O *D sky130_fd_sc_hd__inv_1
*CAP
1 *7750:A 5.46406e-05
2 *7749:Y 5.46406e-05
*RES
1 *7749:Y *7750:A 19.4973 
*END

*D_NET *422 0.000123347
*CONN
*I *7751:A I *D sky130_fd_sc_hd__inv_1
*I *7750:Y O *D sky130_fd_sc_hd__inv_1
*CAP
1 *7751:A 6.16736e-05
2 *7750:Y 6.16736e-05
*RES
1 *7750:Y *7751:A 19.4973 
*END

*D_NET *423 0.000106793
*CONN
*I *7752:A I *D sky130_fd_sc_hd__inv_1
*I *7751:Y O *D sky130_fd_sc_hd__inv_1
*CAP
1 *7752:A 5.33963e-05
2 *7751:Y 5.33963e-05
*RES
1 *7751:Y *7752:A 19.4973 
*END

*D_NET *424 0.001427
*CONN
*I *7777:A I *D sky130_fd_sc_hd__buf_1
*I *7753:A I *D sky130_fd_sc_hd__inv_1
*I *7752:Y O *D sky130_fd_sc_hd__inv_1
*CAP
1 *7777:A 0.000253265
2 *7753:A 4.41292e-05
3 *7752:Y 0.000130808
4 *424:12 0.000428202
5 *7753:A *7754:A 7.71303e-05
6 *7753:A *7755:A 0.000153322
7 *7777:A *7754:A 5.94614e-05
8 *7777:A *7755:A 0.000120501
9 *7395:A2 *7777:A 0
10 *7395:A2 *424:12 5.03694e-05
11 *100:114 *7777:A 0.000109809
12 *228:59 *424:12 0
*RES
1 *7752:Y *424:12 20.5768 
2 *424:12 *7753:A 10.925 
3 *424:12 *7777:A 23.8536 
*END

*D_NET *425 0.000250299
*CONN
*I *7754:A I *D sky130_fd_sc_hd__inv_1
*I *7753:Y O *D sky130_fd_sc_hd__inv_1
*CAP
1 *7754:A 5.68537e-05
2 *7753:Y 5.68537e-05
3 *7753:A *7754:A 7.71303e-05
4 *7777:A *7754:A 5.94614e-05
*RES
1 *7753:Y *7754:A 19.908 
*END

*D_NET *426 0.00072301
*CONN
*I *7755:A I *D sky130_fd_sc_hd__inv_1
*I *7754:Y O *D sky130_fd_sc_hd__inv_1
*CAP
1 *7755:A 0.000197352
2 *7754:Y 0.000197352
3 *7755:A *7756:A 5.4484e-05
4 *7753:A *7755:A 0.000153322
5 *7777:A *7755:A 0.000120501
*RES
1 *7754:Y *7755:A 22.8455 
*END

*D_NET *427 0.0012925
*CONN
*I *7756:A I *D sky130_fd_sc_hd__inv_1
*I *7755:Y O *D sky130_fd_sc_hd__inv_1
*CAP
1 *7756:A 0.00027365
2 *7755:Y 0.00027365
3 *7756:A *7758:A 0.000149485
4 *7755:A *7756:A 5.4484e-05
5 *113:25 *7756:A 6.39262e-05
6 *127:16 *7756:A 0.000253717
7 *228:59 *7756:A 0.000223592
*RES
1 *7755:Y *7756:A 35.7562 
*END

*D_NET *428 0.000359179
*CONN
*I *7758:A I *D sky130_fd_sc_hd__inv_1
*I *7756:Y O *D sky130_fd_sc_hd__inv_1
*CAP
1 *7758:A 7.1697e-05
2 *7756:Y 7.1697e-05
3 *7758:A *7759:A 5.96726e-05
4 *7756:A *7758:A 0.000149485
5 *127:16 *7758:A 6.62761e-06
*RES
1 *7756:Y *7758:A 20.8277 
*END

*D_NET *429 0.000335203
*CONN
*I *7768:A I *D sky130_fd_sc_hd__inv_1
*I *7757:Y O *D sky130_fd_sc_hd__inv_1
*CAP
1 *7768:A 0.000129744
2 *7757:Y 0.000129744
3 *7768:A *7770:A 2.13968e-05
4 *7757:A *7768:A 5.43173e-05
*RES
1 *7757:Y *7768:A 20.8277 
*END

*D_NET *430 0.000598282
*CONN
*I *7759:A I *D sky130_fd_sc_hd__inv_1
*I *7758:Y O *D sky130_fd_sc_hd__inv_1
*CAP
1 *7759:A 0.000248375
2 *7758:Y 0.000248375
3 *7759:A *7760:A 2.80853e-05
4 *7759:A *7764:A 1.37743e-05
5 *7758:A *7759:A 5.96726e-05
6 *100:114 *7759:A 0
7 *228:59 *7759:A 0
*RES
1 *7758:Y *7759:A 30.8009 
*END

*D_NET *431 0.000424882
*CONN
*I *7760:A I *D sky130_fd_sc_hd__inv_1
*I *7759:Y O *D sky130_fd_sc_hd__inv_1
*CAP
1 *7760:A 7.37425e-05
2 *7759:Y 7.37425e-05
3 *7760:A *7761:A 0.000156571
4 *7760:A *7764:A 9.27405e-05
5 *7759:A *7760:A 2.80853e-05
*RES
1 *7759:Y *7760:A 21.2384 
*END

*D_NET *432 0.000614821
*CONN
*I *7761:A I *D sky130_fd_sc_hd__inv_1
*I *7760:Y O *D sky130_fd_sc_hd__inv_1
*CAP
1 *7761:A 0.000216662
2 *7760:Y 0.000216662
3 *7761:A *7764:A 2.49256e-05
4 *7760:A *7761:A 0.000156571
*RES
1 *7760:Y *7761:A 21.8455 
*END

*D_NET *433 0.000685904
*CONN
*I *7762:A I *D sky130_fd_sc_hd__inv_1
*I *7761:Y O *D sky130_fd_sc_hd__inv_1
*CAP
1 *7762:A 0.000239611
2 *7761:Y 0.000239611
3 *7762:A *7763:A 1.66856e-05
4 *7762:A *7764:A 0.000122866
5 *7762:A *7765:A 0
6 *7762:A *7766:A 6.71295e-05
*RES
1 *7761:Y *7762:A 31.3455 
*END

*D_NET *434 0.00111148
*CONN
*I *7763:A I *D sky130_fd_sc_hd__inv_1
*I *7762:Y O *D sky130_fd_sc_hd__inv_1
*CAP
1 *7763:A 0.00032746
2 *7762:Y 0.00032746
3 *7763:A *7764:A 1.14548e-05
4 *7763:A *7766:A 2.2233e-05
5 *7763:A *7767:A 1.48401e-05
6 *7726:A *7763:A 1.14548e-05
7 *7727:A *7763:A 0.000112418
8 *7762:A *7763:A 1.66856e-05
9 *100:114 *7763:A 0.000267472
*RES
1 *7762:Y *7763:A 33.6848 
*END

*D_NET *435 0.00098097
*CONN
*I *7764:A I *D sky130_fd_sc_hd__inv_1
*I *7763:Y O *D sky130_fd_sc_hd__inv_1
*CAP
1 *7764:A 0.000302765
2 *7763:Y 0.000302765
3 *7764:A *7765:A 0.000109678
4 *7759:A *7764:A 1.37743e-05
5 *7760:A *7764:A 9.27405e-05
6 *7761:A *7764:A 2.49256e-05
7 *7762:A *7764:A 0.000122866
8 *7763:A *7764:A 1.14548e-05
*RES
1 *7763:Y *7764:A 25.2384 
*END

*D_NET *436 0.000545273
*CONN
*I *7765:A I *D sky130_fd_sc_hd__inv_1
*I *7764:Y O *D sky130_fd_sc_hd__inv_1
*CAP
1 *7765:A 0.00021091
2 *7764:Y 0.00021091
3 *7765:A *7767:A 1.37743e-05
4 *7762:A *7765:A 0
5 *7764:A *7765:A 0.000109678
6 *228:59 *7765:A 0
*RES
1 *7764:Y *7765:A 30.9795 
*END

*D_NET *437 0.000471408
*CONN
*I *7766:A I *D sky130_fd_sc_hd__inv_1
*I *7765:Y O *D sky130_fd_sc_hd__inv_1
*CAP
1 *7766:A 7.89139e-05
2 *7765:Y 7.89139e-05
3 *7766:A *7767:A 0.000224217
4 *7726:A *7766:A 0
5 *7762:A *7766:A 6.71295e-05
6 *7763:A *7766:A 2.2233e-05
*RES
1 *7765:Y *7766:A 21.1536 
*END

*D_NET *438 0.00080009
*CONN
*I *7767:A I *D sky130_fd_sc_hd__inv_1
*I *7766:Y O *D sky130_fd_sc_hd__inv_1
*CAP
1 *7767:A 0.000260831
2 *7766:Y 0.000260831
3 *7767:A *7769:A 2.5596e-05
4 *7763:A *7767:A 1.48401e-05
5 *7765:A *7767:A 1.37743e-05
6 *7766:A *7767:A 0.000224217
*RES
1 *7766:Y *7767:A 23.5286 
*END

*D_NET *439 0.00043315
*CONN
*I *7769:A I *D sky130_fd_sc_hd__inv_1
*I *7767:Y O *D sky130_fd_sc_hd__inv_1
*CAP
1 *7769:A 0.000153863
2 *7767:Y 0.000153863
3 *7769:A *7778:B 2.55987e-05
4 *7413:C *7769:A 7.42294e-05
5 *7767:A *7769:A 2.5596e-05
*RES
1 *7767:Y *7769:A 21.6491 
*END

*D_NET *440 0.000588265
*CONN
*I *7770:A I *D sky130_fd_sc_hd__inv_1
*I *7768:Y O *D sky130_fd_sc_hd__inv_1
*CAP
1 *7770:A 0.000239304
2 *7768:Y 0.000239304
3 *7770:A *7771:A 4.88402e-05
4 *7770:A *7772:A 3.94203e-05
5 *7768:A *7770:A 2.13968e-05
*RES
1 *7768:Y *7770:A 22.8188 
*END

*D_NET *441 0.00117005
*CONN
*I *7778:B I *D sky130_fd_sc_hd__nand2_1
*I *7769:Y O *D sky130_fd_sc_hd__inv_1
*CAP
1 *7778:B 0.000289222
2 *7769:Y 0.000289222
3 *7413:C *7778:B 5.44403e-05
4 *7769:A *7778:B 2.55987e-05
5 *7778:A *7778:B 5.52302e-05
6 *101:80 *7778:B 0.000318339
7 *101:101 *7778:B 2.31791e-05
8 *221:55 *7778:B 0.000114821
*RES
1 *7769:Y *7778:B 34.7696 
*END

*D_NET *442 0.000150762
*CONN
*I *7771:A I *D sky130_fd_sc_hd__inv_1
*I *7770:Y O *D sky130_fd_sc_hd__inv_1
*CAP
1 *7771:A 2.6541e-05
2 *7770:Y 2.6541e-05
3 *7771:A *7772:A 4.88402e-05
4 *7770:A *7771:A 4.88402e-05
*RES
1 *7770:Y *7771:A 19.4973 
*END

*D_NET *443 0.000695062
*CONN
*I *7772:A I *D sky130_fd_sc_hd__inv_1
*I *7771:Y O *D sky130_fd_sc_hd__inv_1
*CAP
1 *7772:A 0.000216714
2 *7771:Y 0.000216714
3 *7770:A *7772:A 3.94203e-05
4 *7771:A *7772:A 4.88402e-05
5 *210:16 *7772:A 0.000129868
6 *221:55 *7772:A 4.35048e-05
*RES
1 *7771:Y *7772:A 31.4973 
*END

*D_NET *444 0.000123655
*CONN
*I *7773:A I *D sky130_fd_sc_hd__inv_1
*I *7772:Y O *D sky130_fd_sc_hd__inv_1
*CAP
1 *7773:A 6.18274e-05
2 *7772:Y 6.18274e-05
*RES
1 *7772:Y *7773:A 19.4973 
*END

*D_NET *445 0.00041242
*CONN
*I *7774:A I *D sky130_fd_sc_hd__inv_1
*I *7773:Y O *D sky130_fd_sc_hd__inv_1
*CAP
1 *7774:A 0.000102058
2 *7773:Y 0.000102058
3 *101:80 *7774:A 5.35423e-05
4 *221:55 *7774:A 0.000154762
*RES
1 *7773:Y *7774:A 30.1134 
*END

*D_NET *446 0.000784288
*CONN
*I *7775:A I *D sky130_fd_sc_hd__inv_1
*I *7774:Y O *D sky130_fd_sc_hd__inv_1
*CAP
1 *7775:A 0.000175262
2 *7774:Y 0.000175262
3 *7775:A *7776:A 0.000155889
4 *101:80 *7775:A 0.000175795
5 *221:55 *7775:A 0.000102081
*RES
1 *7774:Y *7775:A 32.542 
*END

*D_NET *447 0.000601121
*CONN
*I *7776:A I *D sky130_fd_sc_hd__inv_1
*I *7775:Y O *D sky130_fd_sc_hd__inv_1
*CAP
1 *7776:A 0.000126508
2 *7775:Y 0.000126508
3 *7748:A *7776:A 2.79827e-05
4 *7749:A *7776:A 1.36161e-05
5 *7775:A *7776:A 0.000155889
6 *221:55 *7776:A 0.000150618
*RES
1 *7775:Y *7776:A 30.5688 
*END

*D_NET *448 0.00018867
*CONN
*I *7747:A I *D sky130_fd_sc_hd__inv_1
*I *7776:Y O *D sky130_fd_sc_hd__inv_1
*CAP
1 *7747:A 2.40879e-05
2 *7776:Y 2.40879e-05
3 *7748:A *7747:A 9.23364e-05
4 *7749:A *7747:A 4.8158e-05
*RES
1 *7776:Y *7747:A 19.4973 
*END

*D_NET *449 0.000249026
*CONN
*I *7382:A2 I *D sky130_fd_sc_hd__mux4_2
*I *7777:X O *D sky130_fd_sc_hd__buf_1
*CAP
1 *7382:A2 0.000124513
2 *7777:X 0.000124513
*RES
1 *7777:X *7382:A2 19.9571 
*END

*D_NET *450 0.00047468
*CONN
*I *7810:A I *D sky130_fd_sc_hd__nand2_1
*I *7414:X O *D sky130_fd_sc_hd__and3_2
*CAP
1 *7810:A 0.00020012
2 *7414:X 0.00020012
3 *7713:A *7810:A 3.18676e-05
4 *124:36 *7810:A 4.25716e-05
5 *205:61 *7810:A 0
*RES
1 *7414:X *7810:A 30.6 
*END

*D_NET *451 0.000237154
*CONN
*I *7789:A I *D sky130_fd_sc_hd__inv_1
*I *7810:Y O *D sky130_fd_sc_hd__nand2_1
*CAP
1 *7789:A 8.69914e-05
2 *7810:Y 8.69914e-05
3 *7789:A *7800:A 2.62908e-05
4 *7789:A *7801:A 0
5 *7789:A *7810:B 3.68802e-05
*RES
1 *7810:Y *7789:A 20.4929 
*END

*D_NET *452 0.00036
*CONN
*I *7780:A I *D sky130_fd_sc_hd__inv_1
*I *7779:Y O *D sky130_fd_sc_hd__inv_1
*CAP
1 *7780:A 0.00010164
2 *7779:Y 0.00010164
3 *7780:A *7779:A 2.80853e-05
4 *7780:A *7781:A 0.000128634
*RES
1 *7779:Y *7780:A 20.8277 
*END

*D_NET *453 0.000458047
*CONN
*I *7781:A I *D sky130_fd_sc_hd__inv_1
*I *7780:Y O *D sky130_fd_sc_hd__inv_1
*CAP
1 *7781:A 0.000164706
2 *7780:Y 0.000164706
3 *7781:A *7807:A 0
4 *7780:A *7781:A 0.000128634
*RES
1 *7780:Y *7781:A 21.7071 
*END

*D_NET *454 0.000443967
*CONN
*I *7782:A I *D sky130_fd_sc_hd__inv_1
*I *7781:Y O *D sky130_fd_sc_hd__inv_1
*CAP
1 *7782:A 0.000125646
2 *7781:Y 0.000125646
3 *7782:A *7783:A 6.55982e-05
4 *7782:A *7807:A 0.000120813
5 *7782:A *7808:A 6.26329e-06
*RES
1 *7781:Y *7782:A 21.283 
*END

*D_NET *455 0.000490029
*CONN
*I *7783:A I *D sky130_fd_sc_hd__inv_1
*I *7782:Y O *D sky130_fd_sc_hd__inv_1
*CAP
1 *7783:A 0.000181848
2 *7782:Y 0.000181848
3 *7783:A *7807:A 1.27499e-05
4 *7782:A *7783:A 6.55982e-05
5 *100:114 *7783:A 4.79842e-05
*RES
1 *7782:Y *7783:A 30.6759 
*END

*D_NET *456 0.00015607
*CONN
*I *7784:A I *D sky130_fd_sc_hd__inv_1
*I *7783:Y O *D sky130_fd_sc_hd__inv_1
*CAP
1 *7784:A 7.8035e-05
2 *7783:Y 7.8035e-05
*RES
1 *7783:Y *7784:A 19.908 
*END

*D_NET *457 0.000733671
*CONN
*I *7785:A I *D sky130_fd_sc_hd__inv_1
*I *7809:A I *D sky130_fd_sc_hd__buf_1
*I *7784:Y O *D sky130_fd_sc_hd__inv_1
*CAP
1 *7785:A 0.000273623
2 *7809:A 0
3 *7784:Y 4.46852e-05
4 *457:6 0.000318308
5 *7785:A *7805:A 1.37493e-05
6 *7385:S0 *7785:A 8.33056e-05
*RES
1 *7784:Y *457:6 10.0411 
2 *457:6 *7809:A 9.3 
3 *457:6 *7785:A 23.0098 
*END

*D_NET *458 0.000523026
*CONN
*I *7786:A I *D sky130_fd_sc_hd__inv_1
*I *7785:Y O *D sky130_fd_sc_hd__inv_1
*CAP
1 *7786:A 0.000218123
2 *7785:Y 0.000218123
3 *7786:A *7804:A 2.3541e-05
4 *7786:A *7805:A 6.32382e-05
*RES
1 *7785:Y *7786:A 22.1045 
*END

*D_NET *459 0.000125872
*CONN
*I *7787:A I *D sky130_fd_sc_hd__inv_1
*I *7786:Y O *D sky130_fd_sc_hd__inv_1
*CAP
1 *7787:A 6.2936e-05
2 *7786:Y 6.2936e-05
*RES
1 *7786:Y *7787:A 19.4973 
*END

*D_NET *460 0.000123347
*CONN
*I *7788:A I *D sky130_fd_sc_hd__inv_1
*I *7787:Y O *D sky130_fd_sc_hd__inv_1
*CAP
1 *7788:A 6.16736e-05
2 *7787:Y 6.16736e-05
*RES
1 *7787:Y *7788:A 19.4973 
*END

*D_NET *461 0.000106793
*CONN
*I *7790:A I *D sky130_fd_sc_hd__inv_1
*I *7788:Y O *D sky130_fd_sc_hd__inv_1
*CAP
1 *7790:A 5.33963e-05
2 *7788:Y 5.33963e-05
*RES
1 *7788:Y *7790:A 19.4973 
*END

*D_NET *462 0.00060948
*CONN
*I *7800:A I *D sky130_fd_sc_hd__inv_1
*I *7789:Y O *D sky130_fd_sc_hd__inv_1
*CAP
1 *7800:A 0.000202963
2 *7789:Y 0.000202963
3 *7800:A *7802:A 1.40749e-05
4 *7789:A *7800:A 2.62908e-05
5 *102:74 *7800:A 8.39e-05
6 *205:61 *7800:A 7.92879e-05
*RES
1 *7789:Y *7800:A 31.3455 
*END

*D_NET *463 0.000107334
*CONN
*I *7791:A I *D sky130_fd_sc_hd__inv_1
*I *7790:Y O *D sky130_fd_sc_hd__inv_1
*CAP
1 *7791:A 5.36668e-05
2 *7790:Y 5.36668e-05
*RES
1 *7790:Y *7791:A 19.4973 
*END

*D_NET *464 0.000109281
*CONN
*I *7792:A I *D sky130_fd_sc_hd__inv_1
*I *7791:Y O *D sky130_fd_sc_hd__inv_1
*CAP
1 *7792:A 5.46406e-05
2 *7791:Y 5.46406e-05
*RES
1 *7791:Y *7792:A 19.4973 
*END

*D_NET *465 0.000106793
*CONN
*I *7793:A I *D sky130_fd_sc_hd__inv_1
*I *7792:Y O *D sky130_fd_sc_hd__inv_1
*CAP
1 *7793:A 5.33963e-05
2 *7792:Y 5.33963e-05
*RES
1 *7792:Y *7793:A 19.4973 
*END

*D_NET *466 0.000106793
*CONN
*I *7794:A I *D sky130_fd_sc_hd__inv_1
*I *7793:Y O *D sky130_fd_sc_hd__inv_1
*CAP
1 *7794:A 5.33963e-05
2 *7793:Y 5.33963e-05
*RES
1 *7793:Y *7794:A 19.4973 
*END

*D_NET *467 0.000106793
*CONN
*I *7795:A I *D sky130_fd_sc_hd__inv_1
*I *7794:Y O *D sky130_fd_sc_hd__inv_1
*CAP
1 *7795:A 5.33963e-05
2 *7794:Y 5.33963e-05
*RES
1 *7794:Y *7795:A 19.4973 
*END

*D_NET *468 0.000539535
*CONN
*I *7796:A I *D sky130_fd_sc_hd__inv_1
*I *7795:Y O *D sky130_fd_sc_hd__inv_1
*CAP
1 *7796:A 0.000242384
2 *7795:Y 0.000242384
3 *7796:A *7797:A 5.47661e-05
*RES
1 *7795:Y *7796:A 31.5241 
*END

*D_NET *469 0.000280012
*CONN
*I *7797:A I *D sky130_fd_sc_hd__inv_1
*I *7796:Y O *D sky130_fd_sc_hd__inv_1
*CAP
1 *7797:A 0.000102797
2 *7796:Y 0.000102797
3 *7797:A *7798:A 1.96517e-05
4 *7796:A *7797:A 5.47661e-05
*RES
1 *7796:Y *7797:A 20.6982 
*END

*D_NET *470 0.000381799
*CONN
*I *7798:A I *D sky130_fd_sc_hd__inv_1
*I *7797:Y O *D sky130_fd_sc_hd__inv_1
*CAP
1 *7798:A 0.000167031
2 *7797:Y 0.000167031
3 *7798:A *7799:A 2.80853e-05
4 *7797:A *7798:A 1.96517e-05
5 *124:36 *7798:A 0
*RES
1 *7797:Y *7798:A 30.158 
*END

*D_NET *471 0.000287142
*CONN
*I *7799:A I *D sky130_fd_sc_hd__inv_1
*I *7798:Y O *D sky130_fd_sc_hd__inv_1
*CAP
1 *7799:A 0.000116383
2 *7798:Y 0.000116383
3 *7799:A *7801:A 2.62908e-05
4 *7798:A *7799:A 2.80853e-05
*RES
1 *7798:Y *7799:A 20.8277 
*END

*D_NET *472 0.000385144
*CONN
*I *7801:A I *D sky130_fd_sc_hd__inv_1
*I *7799:Y O *D sky130_fd_sc_hd__inv_1
*CAP
1 *7801:A 0.000170705
2 *7799:Y 0.000170705
3 *7801:A *7810:B 1.74437e-05
4 *7789:A *7801:A 0
5 *7799:A *7801:A 2.62908e-05
*RES
1 *7799:Y *7801:A 21.475 
*END

*D_NET *473 0.00104153
*CONN
*I *7802:A I *D sky130_fd_sc_hd__inv_1
*I *7800:Y O *D sky130_fd_sc_hd__inv_1
*CAP
1 *7802:A 0.00025234
2 *7800:Y 0.00025234
3 *7802:A *7803:A 5.10796e-05
4 *7800:A *7802:A 1.40749e-05
5 *102:74 *7802:A 0.000347354
6 *205:61 *7802:A 0.000124342
*RES
1 *7800:Y *7802:A 33.8455 
*END

*D_NET *474 0.000394021
*CONN
*I *7810:B I *D sky130_fd_sc_hd__nand2_1
*I *7801:Y O *D sky130_fd_sc_hd__inv_1
*CAP
1 *7810:B 0.000169848
2 *7801:Y 0.000169848
3 *7789:A *7810:B 3.68802e-05
4 *7801:A *7810:B 1.74437e-05
*RES
1 *7801:Y *7810:B 21.4125 
*END

*D_NET *475 0.000312719
*CONN
*I *7803:A I *D sky130_fd_sc_hd__inv_1
*I *7802:Y O *D sky130_fd_sc_hd__inv_1
*CAP
1 *7803:A 0.000122743
2 *7802:Y 0.000122743
3 *7803:A *7804:A 1.61534e-05
4 *7802:A *7803:A 5.10796e-05
*RES
1 *7802:Y *7803:A 20.8277 
*END

*D_NET *476 0.000454291
*CONN
*I *7804:A I *D sky130_fd_sc_hd__inv_1
*I *7803:Y O *D sky130_fd_sc_hd__inv_1
*CAP
1 *7804:A 8.6798e-05
2 *7803:Y 8.6798e-05
3 *7804:A *7805:A 1.14548e-05
4 *7382:S1 *7804:A 8.06427e-05
5 *7786:A *7804:A 2.3541e-05
6 *7803:A *7804:A 1.61534e-05
7 *98:105 *7804:A 0.000148903
*RES
1 *7803:Y *7804:A 30.1134 
*END

*D_NET *477 0.000837023
*CONN
*I *7805:A I *D sky130_fd_sc_hd__inv_1
*I *7804:Y O *D sky130_fd_sc_hd__inv_1
*CAP
1 *7805:A 0.000360701
2 *7804:Y 0.000360701
3 *7805:A *7806:A 2.71774e-05
4 *7785:A *7805:A 1.37493e-05
5 *7786:A *7805:A 6.32382e-05
6 *7804:A *7805:A 1.14548e-05
*RES
1 *7804:Y *7805:A 23.1759 
*END

*D_NET *478 0.000360261
*CONN
*I *7806:A I *D sky130_fd_sc_hd__inv_1
*I *7805:Y O *D sky130_fd_sc_hd__inv_1
*CAP
1 *7806:A 0.00015381
2 *7805:Y 0.00015381
3 *7806:A *7807:A 2.54648e-05
4 *7805:A *7806:A 2.71774e-05
*RES
1 *7805:Y *7806:A 21.6491 
*END

*D_NET *479 0.000534468
*CONN
*I *7807:A I *D sky130_fd_sc_hd__inv_1
*I *7806:Y O *D sky130_fd_sc_hd__inv_1
*CAP
1 *7807:A 0.000179652
2 *7806:Y 0.000179652
3 *7807:A *7808:A 1.6137e-05
4 *7781:A *7807:A 0
5 *7782:A *7807:A 0.000120813
6 *7783:A *7807:A 1.27499e-05
7 *7806:A *7807:A 2.54648e-05
*RES
1 *7806:Y *7807:A 22.3634 
*END

*D_NET *480 0.000656492
*CONN
*I *7808:A I *D sky130_fd_sc_hd__inv_1
*I *7807:Y O *D sky130_fd_sc_hd__inv_1
*CAP
1 *7808:A 0.000231137
2 *7807:Y 0.000231137
3 *7808:A *7779:A 1.87618e-05
4 *7782:A *7808:A 6.26329e-06
5 *7807:A *7808:A 1.6137e-05
6 *100:114 *7808:A 0.000153054
*RES
1 *7807:Y *7808:A 31.7563 
*END

*D_NET *481 0.000664746
*CONN
*I *7779:A I *D sky130_fd_sc_hd__inv_1
*I *7808:Y O *D sky130_fd_sc_hd__inv_1
*CAP
1 *7779:A 0.000234855
2 *7808:Y 0.000234855
3 *7395:A2 *7779:A 0.000148189
4 *7780:A *7779:A 2.80853e-05
5 *7808:A *7779:A 1.87618e-05
6 *100:114 *7779:A 0
*RES
1 *7808:Y *7779:A 31.3902 
*END

*D_NET *482 0.000930407
*CONN
*I *7382:A3 I *D sky130_fd_sc_hd__mux4_2
*I *7809:X O *D sky130_fd_sc_hd__buf_1
*CAP
1 *7382:A3 0.000370956
2 *7809:X 0.000370956
3 *7382:A0 *7382:A3 1.89507e-06
4 *7382:A1 *7382:A3 0.000141734
5 *7382:S1 *7382:A3 4.48647e-05
6 *7385:S0 *7382:A3 0
*RES
1 *7809:X *7382:A3 33.1714 
*END

*D_NET *483 0.000517987
*CONN
*I *7842:A I *D sky130_fd_sc_hd__nand2_1
*I *7400:X O *D sky130_fd_sc_hd__and3_2
*CAP
1 *7842:A 0.00016731
2 *7400:X 0.00016731
3 *7842:A *7833:A 4.1331e-06
4 *7400:C *7842:A 5.52238e-05
5 *125:16 *7842:A 0
6 *211:106 *7842:A 0.00012401
*RES
1 *7400:X *7842:A 30.1893 
*END

*D_NET *484 0.000300347
*CONN
*I *7821:A I *D sky130_fd_sc_hd__inv_1
*I *7842:Y O *D sky130_fd_sc_hd__nand2_1
*CAP
1 *7821:A 0.000106879
2 *7842:Y 0.000106879
3 *7821:A *7832:A 2.55987e-05
4 *7821:A *7842:B 6.09899e-05
*RES
1 *7842:Y *7821:A 20.6223 
*END

*D_NET *485 0.000316672
*CONN
*I *7812:A I *D sky130_fd_sc_hd__inv_1
*I *7811:Y O *D sky130_fd_sc_hd__inv_1
*CAP
1 *7812:A 9.59487e-05
2 *7811:Y 9.59487e-05
3 *7812:A *7811:A 0.000124774
*RES
1 *7811:Y *7812:A 20.8277 
*END

*D_NET *486 0.000343184
*CONN
*I *7813:A I *D sky130_fd_sc_hd__inv_1
*I *7812:Y O *D sky130_fd_sc_hd__inv_1
*CAP
1 *7813:A 0.000147267
2 *7812:Y 0.000147267
3 *7813:A *7381:A2 1.37493e-05
4 *7813:A *7811:A 3.49005e-05
5 *100:89 *7813:A 0
*RES
1 *7812:Y *7813:A 29.8545 
*END

*D_NET *487 0.000119809
*CONN
*I *7814:A I *D sky130_fd_sc_hd__inv_1
*I *7813:Y O *D sky130_fd_sc_hd__inv_1
*CAP
1 *7814:A 3.40539e-05
2 *7813:Y 3.40539e-05
3 *7814:A *7381:A2 5.17013e-05
*RES
1 *7813:Y *7814:A 19.4973 
*END

*D_NET *488 0.000344056
*CONN
*I *7815:A I *D sky130_fd_sc_hd__inv_1
*I *7814:Y O *D sky130_fd_sc_hd__inv_1
*CAP
1 *7815:A 0.000168305
2 *7814:Y 0.000168305
3 *7815:A *7381:A2 3.31452e-06
4 *7815:A *7984:A 4.13122e-06
5 *7815:A *7987:A 0
*RES
1 *7814:Y *7815:A 30.158 
*END

*D_NET *489 0.000107065
*CONN
*I *7816:A I *D sky130_fd_sc_hd__inv_1
*I *7815:Y O *D sky130_fd_sc_hd__inv_1
*CAP
1 *7816:A 5.35325e-05
2 *7815:Y 5.35325e-05
*RES
1 *7815:Y *7816:A 19.4973 
*END

*D_NET *490 0.00106963
*CONN
*I *7817:A I *D sky130_fd_sc_hd__inv_1
*I *7841:A I *D sky130_fd_sc_hd__buf_1
*I *7816:Y O *D sky130_fd_sc_hd__inv_1
*CAP
1 *7817:A 0.000123592
2 *7841:A 0.000215151
3 *7816:Y 7.40826e-05
4 *490:6 0.000412826
5 *7841:A *7381:A3 0.000151613
6 *99:45 *7841:A 7.54384e-05
7 *216:47 *7841:A 1.69252e-05
*RES
1 *7816:Y *490:6 10.4518 
2 *490:6 *7841:A 23.2821 
3 *490:6 *7817:A 11.2241 
*END

*D_NET *491 0.000191884
*CONN
*I *7818:A I *D sky130_fd_sc_hd__inv_1
*I *7817:Y O *D sky130_fd_sc_hd__inv_1
*CAP
1 *7818:A 9.59419e-05
2 *7817:Y 9.59419e-05
*RES
1 *7817:Y *7818:A 19.908 
*END

*D_NET *492 0.000223596
*CONN
*I *7819:A I *D sky130_fd_sc_hd__inv_1
*I *7818:Y O *D sky130_fd_sc_hd__inv_1
*CAP
1 *7819:A 0.000111798
2 *7818:Y 0.000111798
*RES
1 *7818:Y *7819:A 20.3188 
*END

*D_NET *493 0.000221108
*CONN
*I *7820:A I *D sky130_fd_sc_hd__inv_1
*I *7819:Y O *D sky130_fd_sc_hd__inv_1
*CAP
1 *7820:A 0.000110554
2 *7819:Y 0.000110554
*RES
1 *7819:Y *7820:A 20.3188 
*END

*D_NET *494 0.000172228
*CONN
*I *7822:A I *D sky130_fd_sc_hd__inv_1
*I *7820:Y O *D sky130_fd_sc_hd__inv_1
*CAP
1 *7822:A 8.61138e-05
2 *7820:Y 8.61138e-05
*RES
1 *7820:Y *7822:A 19.908 
*END

*D_NET *495 0.000945509
*CONN
*I *7832:A I *D sky130_fd_sc_hd__inv_1
*I *7821:Y O *D sky130_fd_sc_hd__inv_1
*CAP
1 *7832:A 0.000277747
2 *7821:Y 0.000277747
3 *7832:A *7381:A3 7.07155e-06
4 *7832:A *7905:A 0.000125731
5 *7400:A *7832:A 0.000107603
6 *7821:A *7832:A 2.55987e-05
7 *216:47 *7832:A 0.00012401
*RES
1 *7821:Y *7832:A 32.2741 
*END

*D_NET *496 0.000122371
*CONN
*I *7823:A I *D sky130_fd_sc_hd__inv_1
*I *7822:Y O *D sky130_fd_sc_hd__inv_1
*CAP
1 *7823:A 4.61842e-05
2 *7822:Y 4.61842e-05
3 *7823:A *7826:A 3.00023e-05
*RES
1 *7822:Y *7823:A 19.4973 
*END

*D_NET *497 0.00038685
*CONN
*I *7824:A I *D sky130_fd_sc_hd__inv_1
*I *7823:Y O *D sky130_fd_sc_hd__inv_1
*CAP
1 *7824:A 0.000142124
2 *7823:Y 0.000142124
3 *7824:A *7387:A0 0
4 *7824:A *7387:A1 0
5 *7824:A *7825:A 2.80853e-05
6 *7824:A *7826:A 7.45165e-05
*RES
1 *7823:Y *7824:A 29.8545 
*END

*D_NET *498 0.000300863
*CONN
*I *7825:A I *D sky130_fd_sc_hd__inv_1
*I *7824:Y O *D sky130_fd_sc_hd__inv_1
*CAP
1 *7825:A 0.000128041
2 *7824:Y 0.000128041
3 *7825:A *7826:A 1.66955e-05
4 *7824:A *7825:A 2.80853e-05
*RES
1 *7824:Y *7825:A 20.8277 
*END

*D_NET *499 0.000532614
*CONN
*I *7826:A I *D sky130_fd_sc_hd__inv_1
*I *7825:Y O *D sky130_fd_sc_hd__inv_1
*CAP
1 *7826:A 0.000201455
2 *7825:Y 0.000201455
3 *7826:A *7387:A0 0
4 *7826:A *7827:A 8.48822e-06
5 *7823:A *7826:A 3.00023e-05
6 *7824:A *7826:A 7.45165e-05
7 *7825:A *7826:A 1.66955e-05
*RES
1 *7825:Y *7826:A 31.4616 
*END

*D_NET *500 0.000571632
*CONN
*I *7827:A I *D sky130_fd_sc_hd__inv_1
*I *7826:Y O *D sky130_fd_sc_hd__inv_1
*CAP
1 *7827:A 0.000211994
2 *7826:Y 0.000211994
3 *7827:A *7387:A0 0
4 *7827:A *7828:A 2.62908e-05
5 *7827:A *7969:A 0
6 *7381:A0 *7827:A 0.000112866
7 *7826:A *7827:A 8.48822e-06
*RES
1 *7826:Y *7827:A 31.3455 
*END

*D_NET *501 0.000594598
*CONN
*I *7828:A I *D sky130_fd_sc_hd__inv_1
*I *7827:Y O *D sky130_fd_sc_hd__inv_1
*CAP
1 *7828:A 0.000124297
2 *7827:Y 0.000124297
3 *7828:A *7387:A0 0.000162208
4 *7828:A *7937:A 5.33334e-05
5 *7381:A0 *7828:A 0.000104173
6 *7827:A *7828:A 2.62908e-05
*RES
1 *7827:Y *7828:A 22.3634 
*END

*D_NET *502 0.000482962
*CONN
*I *7829:A I *D sky130_fd_sc_hd__inv_1
*I *7828:Y O *D sky130_fd_sc_hd__inv_1
*CAP
1 *7829:A 0.000157914
2 *7828:Y 0.000157914
3 *7829:A *7831:A 2.80853e-05
4 *7829:A *7937:A 3.34687e-05
5 *7829:A *589:10 2.84494e-05
6 *7381:A0 *7829:A 7.71303e-05
7 *125:16 *7829:A 0
*RES
1 *7828:Y *7829:A 30.2652 
*END

*D_NET *503 0.00017053
*CONN
*I *7830:A I *D sky130_fd_sc_hd__inv_1
*I *7829:Y O *D sky130_fd_sc_hd__inv_1
*CAP
1 *7830:A 3.88754e-05
2 *7829:Y 3.88754e-05
3 *7830:A *7831:A 9.27788e-05
*RES
1 *7829:Y *7830:A 19.4973 
*END

*D_NET *504 0.000665081
*CONN
*I *7831:A I *D sky130_fd_sc_hd__inv_1
*I *7830:Y O *D sky130_fd_sc_hd__inv_1
*CAP
1 *7831:A 0.000202253
2 *7830:Y 0.000202253
3 *7831:A *7833:A 1.87618e-05
4 *7831:A *7913:A 0.00012095
5 *7829:A *7831:A 2.80853e-05
6 *7830:A *7831:A 9.27788e-05
*RES
1 *7830:Y *7831:A 22.8813 
*END

*D_NET *505 0.000714561
*CONN
*I *7833:A I *D sky130_fd_sc_hd__inv_1
*I *7831:Y O *D sky130_fd_sc_hd__inv_1
*CAP
1 *7833:A 0.000338795
2 *7831:Y 0.000338795
3 *7833:A *7842:B 1.40749e-05
4 *7831:A *7833:A 1.87618e-05
5 *7842:A *7833:A 4.1331e-06
6 *125:16 *7833:A 0
7 *211:106 *7833:A 0
*RES
1 *7831:Y *7833:A 32.167 
*END

*D_NET *506 0.000492514
*CONN
*I *7834:A I *D sky130_fd_sc_hd__inv_1
*I *7832:Y O *D sky130_fd_sc_hd__inv_1
*CAP
1 *7834:A 0.0001657
2 *7832:Y 0.0001657
3 *7834:A *7835:A 2.80715e-05
4 *7834:A *7905:A 5.5136e-05
5 *7400:A *7834:A 7.79069e-05
*RES
1 *7832:Y *7834:A 30.2652 
*END

*D_NET *507 0.000529034
*CONN
*I *7842:B I *D sky130_fd_sc_hd__nand2_1
*I *7833:Y O *D sky130_fd_sc_hd__inv_1
*CAP
1 *7842:B 0.000226985
2 *7833:Y 0.000226985
3 *7821:A *7842:B 6.09899e-05
4 *7833:A *7842:B 1.40749e-05
*RES
1 *7833:Y *7842:B 22.6982 
*END

*D_NET *508 0.000304581
*CONN
*I *7835:A I *D sky130_fd_sc_hd__inv_1
*I *7834:Y O *D sky130_fd_sc_hd__inv_1
*CAP
1 *7835:A 0.000123815
2 *7834:Y 0.000123815
3 *7835:A *7836:A 2.888e-05
4 *7834:A *7835:A 2.80715e-05
*RES
1 *7834:Y *7835:A 20.8277 
*END

*D_NET *509 0.000313534
*CONN
*I *7836:A I *D sky130_fd_sc_hd__inv_1
*I *7835:Y O *D sky130_fd_sc_hd__inv_1
*CAP
1 *7836:A 0.000128343
2 *7835:Y 0.000128343
3 *7836:A *7837:A 2.79671e-05
4 *7835:A *7836:A 2.888e-05
*RES
1 *7835:Y *7836:A 21.1313 
*END

*D_NET *510 0.000347069
*CONN
*I *7837:A I *D sky130_fd_sc_hd__inv_1
*I *7836:Y O *D sky130_fd_sc_hd__inv_1
*CAP
1 *7837:A 0.000140964
2 *7836:Y 0.000140964
3 *7837:A *7838:A 3.7174e-05
4 *7836:A *7837:A 2.79671e-05
*RES
1 *7836:Y *7837:A 21.3813 
*END

*D_NET *511 0.000371865
*CONN
*I *7838:A I *D sky130_fd_sc_hd__inv_1
*I *7837:Y O *D sky130_fd_sc_hd__inv_1
*CAP
1 *7838:A 0.000150848
2 *7837:Y 0.000150848
3 *7838:A *7839:A 3.29955e-05
4 *7837:A *7838:A 3.7174e-05
*RES
1 *7837:Y *7838:A 21.2027 
*END

*D_NET *512 0.000342837
*CONN
*I *7839:A I *D sky130_fd_sc_hd__inv_1
*I *7838:Y O *D sky130_fd_sc_hd__inv_1
*CAP
1 *7839:A 0.000127782
2 *7838:Y 0.000127782
3 *7839:A *7840:A 5.42787e-05
4 *7838:A *7839:A 3.29955e-05
*RES
1 *7838:Y *7839:A 21.2027 
*END

*D_NET *513 0.000954222
*CONN
*I *7840:A I *D sky130_fd_sc_hd__inv_1
*I *7839:Y O *D sky130_fd_sc_hd__inv_1
*CAP
1 *7840:A 0.000339742
2 *7839:Y 0.000339742
3 *7840:A *7811:A 0.000154383
4 *7840:A *7848:A 0
5 *7840:A *7873:A 6.6076e-05
6 *7839:A *7840:A 5.42787e-05
7 *100:89 *7840:A 0
*RES
1 *7839:Y *7840:A 34.1134 
*END

*D_NET *514 0.000885606
*CONN
*I *7811:A I *D sky130_fd_sc_hd__inv_1
*I *7840:Y O *D sky130_fd_sc_hd__inv_1
*CAP
1 *7811:A 0.000278924
2 *7840:Y 0.000278924
3 *7811:A *7873:A 1.3701e-05
4 *7812:A *7811:A 0.000124774
5 *7813:A *7811:A 3.49005e-05
6 *7840:A *7811:A 0.000154383
*RES
1 *7840:Y *7811:A 24.4973 
*END

*D_NET *515 0.000621814
*CONN
*I *7381:A1 I *D sky130_fd_sc_hd__mux4_2
*I *7841:X O *D sky130_fd_sc_hd__buf_1
*CAP
1 *7381:A1 0.000207647
2 *7841:X 0.000207647
3 *120:88 *7381:A1 0.00010326
4 *214:109 *7381:A1 0.00010326
*RES
1 *7841:X *7381:A1 30.7071 
*END

*D_NET *516 0.000314029
*CONN
*I *7874:A I *D sky130_fd_sc_hd__nand2_1
*I *7401:X O *D sky130_fd_sc_hd__and3_2
*CAP
1 *7874:A 4.60473e-05
2 *7401:X 4.60473e-05
3 *7874:A *7853:A 4.22908e-05
4 *7401:B *7874:A 5.30637e-06
5 *7401:C *7874:A 0.000144773
6 *204:54 *7874:A 2.95641e-05
*RES
1 *7401:X *7874:A 20.8143 
*END

*D_NET *517 0.000271705
*CONN
*I *7853:A I *D sky130_fd_sc_hd__inv_1
*I *7874:Y O *D sky130_fd_sc_hd__nand2_1
*CAP
1 *7853:A 4.9299e-05
2 *7874:Y 4.9299e-05
3 *7401:C *7853:A 2.40564e-05
4 *7874:A *7853:A 4.22908e-05
5 *204:54 *7853:A 0.000106759
*RES
1 *7874:Y *7853:A 20.2563 
*END

*D_NET *518 0.000125573
*CONN
*I *7844:A I *D sky130_fd_sc_hd__inv_1
*I *7843:Y O *D sky130_fd_sc_hd__inv_1
*CAP
1 *7844:A 3.61715e-05
2 *7843:Y 3.61715e-05
3 *7844:A *7843:A 5.323e-05
*RES
1 *7843:Y *7844:A 19.4973 
*END

*D_NET *519 0.000401912
*CONN
*I *7845:A I *D sky130_fd_sc_hd__inv_1
*I *7844:Y O *D sky130_fd_sc_hd__inv_1
*CAP
1 *7845:A 9.89294e-05
2 *7844:Y 9.89294e-05
3 *7845:A *7843:A 9.91229e-06
4 *7845:A *7846:A 2.80853e-05
5 *100:89 *7845:A 4.03318e-05
6 *102:40 *7845:A 0.000125724
*RES
1 *7844:Y *7845:A 29.8545 
*END

*D_NET *520 0.000359832
*CONN
*I *7846:A I *D sky130_fd_sc_hd__inv_1
*I *7845:Y O *D sky130_fd_sc_hd__inv_1
*CAP
1 *7846:A 0.000158861
2 *7845:Y 0.000158861
3 *7846:A *7847:A 1.4024e-05
4 *7845:A *7846:A 2.80853e-05
*RES
1 *7845:Y *7846:A 21.2384 
*END

*D_NET *521 0.000558673
*CONN
*I *7847:A I *D sky130_fd_sc_hd__inv_1
*I *7846:Y O *D sky130_fd_sc_hd__inv_1
*CAP
1 *7847:A 0.000146569
2 *7846:Y 0.000146569
3 *7847:A *7848:A 6.8949e-05
4 *7847:A *7873:A 3.36582e-05
5 *7846:A *7847:A 1.4024e-05
6 *102:40 *7847:A 0.000148903
7 *210:41 *7847:A 0
*RES
1 *7846:Y *7847:A 30.5688 
*END

*D_NET *522 0.000340273
*CONN
*I *7848:A I *D sky130_fd_sc_hd__inv_1
*I *7847:Y O *D sky130_fd_sc_hd__inv_1
*CAP
1 *7848:A 0.000102663
2 *7847:Y 0.000102663
3 *7848:A *7849:A 4.41057e-05
4 *7848:A *7873:A 2.18923e-05
5 *7840:A *7848:A 0
6 *7847:A *7848:A 6.8949e-05
*RES
1 *7847:Y *7848:A 20.8277 
*END

*D_NET *523 0.00106809
*CONN
*I *7873:A I *D sky130_fd_sc_hd__buf_1
*I *7849:A I *D sky130_fd_sc_hd__inv_1
*I *7848:Y O *D sky130_fd_sc_hd__inv_1
*CAP
1 *7873:A 0.00027043
2 *7849:A 0.000146513
3 *7848:Y 0
4 *523:4 0.000416944
5 *7849:A *7850:A 5.47661e-05
6 *7811:A *7873:A 1.3701e-05
7 *7840:A *7873:A 6.6076e-05
8 *7847:A *7873:A 3.36582e-05
9 *7848:A *7849:A 4.41057e-05
10 *7848:A *7873:A 2.18923e-05
*RES
1 *7848:Y *523:4 9.3 
2 *523:4 *7849:A 12.4384 
3 *523:4 *7873:A 13.2375 
*END

*D_NET *524 0.000298913
*CONN
*I *7850:A I *D sky130_fd_sc_hd__inv_1
*I *7849:Y O *D sky130_fd_sc_hd__inv_1
*CAP
1 *7850:A 0.000102078
2 *7849:Y 0.000102078
3 *7850:A *7851:A 3.99918e-05
4 *7849:A *7850:A 5.47661e-05
*RES
1 *7849:Y *7850:A 20.8277 
*END

*D_NET *525 0.000377855
*CONN
*I *7851:A I *D sky130_fd_sc_hd__inv_1
*I *7850:Y O *D sky130_fd_sc_hd__inv_1
*CAP
1 *7851:A 0.000154134
2 *7850:Y 0.000154134
3 *7851:A *7852:A 2.95948e-05
4 *7851:A *7854:A 0
5 *7850:A *7851:A 3.99918e-05
*RES
1 *7850:Y *7851:A 21.1313 
*END

*D_NET *526 0.000324835
*CONN
*I *7852:A I *D sky130_fd_sc_hd__inv_1
*I *7851:Y O *D sky130_fd_sc_hd__inv_1
*CAP
1 *7852:A 0.000134573
2 *7851:Y 0.000134573
3 *7852:A *7854:A 2.60949e-05
4 *7851:A *7852:A 2.95948e-05
*RES
1 *7851:Y *7852:A 21.1313 
*END

*D_NET *527 0.000373505
*CONN
*I *7854:A I *D sky130_fd_sc_hd__inv_1
*I *7852:Y O *D sky130_fd_sc_hd__inv_1
*CAP
1 *7854:A 0.000164788
2 *7852:Y 0.000164788
3 *7854:A *7855:A 1.78335e-05
4 *7851:A *7854:A 0
5 *7852:A *7854:A 2.60949e-05
*RES
1 *7852:Y *7854:A 21.1313 
*END

*D_NET *528 0.000672434
*CONN
*I *7864:A I *D sky130_fd_sc_hd__inv_1
*I *7853:Y O *D sky130_fd_sc_hd__inv_1
*CAP
1 *7864:A 0.000236407
2 *7853:Y 0.000236407
3 *7864:A *7866:A 4.8682e-05
4 *7864:A *7874:B 1.24368e-05
5 *102:40 *7864:A 0
6 *204:54 *7864:A 3.52408e-05
7 *210:41 *7864:A 0.00010326
*RES
1 *7853:Y *7864:A 32.0509 
*END

*D_NET *529 0.000524321
*CONN
*I *7855:A I *D sky130_fd_sc_hd__inv_1
*I *7854:Y O *D sky130_fd_sc_hd__inv_1
*CAP
1 *7855:A 0.000134502
2 *7854:Y 0.000134502
3 *7855:A *7856:A 8.30355e-06
4 *7855:A *7857:A 5.03694e-05
5 *7855:A *7858:A 2.99061e-05
6 *7854:A *7855:A 1.78335e-05
7 *204:31 *7855:A 0.000148903
*RES
1 *7854:Y *7855:A 30.5688 
*END

*D_NET *530 0.000913444
*CONN
*I *7856:A I *D sky130_fd_sc_hd__inv_1
*I *7855:Y O *D sky130_fd_sc_hd__inv_1
*CAP
1 *7856:A 0.000313654
2 *7855:Y 0.000313654
3 *7856:A *7857:A 9.48856e-05
4 *7856:A *7858:A 2.98999e-05
5 *7855:A *7856:A 8.30355e-06
6 *101:59 *7856:A 0.000153047
7 *204:31 *7856:A 0
*RES
1 *7855:Y *7856:A 32.5777 
*END

*D_NET *531 0.000491717
*CONN
*I *7857:A I *D sky130_fd_sc_hd__inv_1
*I *7856:Y O *D sky130_fd_sc_hd__inv_1
*CAP
1 *7857:A 0.000152077
2 *7856:Y 0.000152077
3 *7855:A *7857:A 5.03694e-05
4 *7856:A *7857:A 9.48856e-05
5 *101:59 *7857:A 4.23086e-05
*RES
1 *7856:Y *7857:A 30.5688 
*END

*D_NET *532 0.000364318
*CONN
*I *7858:A I *D sky130_fd_sc_hd__inv_1
*I *7857:Y O *D sky130_fd_sc_hd__inv_1
*CAP
1 *7858:A 0.000145369
2 *7857:Y 0.000145369
3 *7858:A *7859:A 1.37743e-05
4 *7855:A *7858:A 2.99061e-05
5 *7856:A *7858:A 2.98999e-05
*RES
1 *7857:Y *7858:A 21.283 
*END

*D_NET *533 0.000736562
*CONN
*I *7859:A I *D sky130_fd_sc_hd__inv_1
*I *7858:Y O *D sky130_fd_sc_hd__inv_1
*CAP
1 *7859:A 0.000276802
2 *7858:Y 0.000276802
3 *7859:A *7860:A 3.99614e-06
4 *7859:A *7861:A 8.57121e-05
5 *7859:A *7862:A 3.22076e-06
6 *7858:A *7859:A 1.37743e-05
7 *204:31 *7859:A 3.92854e-05
8 *210:41 *7859:A 3.69697e-05
*RES
1 *7858:Y *7859:A 32.158 
*END

*D_NET *534 0.000543221
*CONN
*I *7860:A I *D sky130_fd_sc_hd__inv_1
*I *7859:Y O *D sky130_fd_sc_hd__inv_1
*CAP
1 *7860:A 0.000199168
2 *7859:Y 0.000199168
3 *7860:A *7861:A 0.000140888
4 *7859:A *7860:A 3.99614e-06
*RES
1 *7859:Y *7860:A 21.8902 
*END

*D_NET *535 0.000451778
*CONN
*I *7861:A I *D sky130_fd_sc_hd__inv_1
*I *7860:Y O *D sky130_fd_sc_hd__inv_1
*CAP
1 *7861:A 0.000108345
2 *7860:Y 0.000108345
3 *7861:A *7862:A 8.48822e-06
4 *7859:A *7861:A 8.57121e-05
5 *7860:A *7861:A 0.000140888
*RES
1 *7860:Y *7861:A 21.5866 
*END

*D_NET *536 0.000659992
*CONN
*I *7862:A I *D sky130_fd_sc_hd__inv_1
*I *7861:Y O *D sky130_fd_sc_hd__inv_1
*CAP
1 *7862:A 0.000207698
2 *7861:Y 0.000207698
3 *7862:A *7863:A 2.62908e-05
4 *7859:A *7862:A 3.22076e-06
5 *7861:A *7862:A 8.48822e-06
6 *204:31 *7862:A 0.000153054
7 *210:41 *7862:A 5.35423e-05
*RES
1 *7861:Y *7862:A 31.7563 
*END

*D_NET *537 0.00031607
*CONN
*I *7863:A I *D sky130_fd_sc_hd__inv_1
*I *7862:Y O *D sky130_fd_sc_hd__inv_1
*CAP
1 *7863:A 0.000130065
2 *7862:Y 0.000130065
3 *7863:A *7865:A 2.96481e-05
4 *7862:A *7863:A 2.62908e-05
*RES
1 *7862:Y *7863:A 21.1313 
*END

*D_NET *538 0.000388731
*CONN
*I *7865:A I *D sky130_fd_sc_hd__inv_1
*I *7863:Y O *D sky130_fd_sc_hd__inv_1
*CAP
1 *7865:A 0.000133797
2 *7863:Y 0.000133797
3 *7863:A *7865:A 2.96481e-05
4 *101:59 *7865:A 4.79842e-05
5 *204:31 *7865:A 4.35048e-05
*RES
1 *7863:Y *7865:A 30.2652 
*END

*D_NET *539 0.000139914
*CONN
*I *7866:A I *D sky130_fd_sc_hd__inv_1
*I *7864:Y O *D sky130_fd_sc_hd__inv_1
*CAP
1 *7866:A 4.56159e-05
2 *7864:Y 4.56159e-05
3 *7864:A *7866:A 4.8682e-05
*RES
1 *7864:Y *7866:A 19.4973 
*END

*D_NET *540 0.000529631
*CONN
*I *7874:B I *D sky130_fd_sc_hd__nand2_1
*I *7865:Y O *D sky130_fd_sc_hd__inv_1
*CAP
1 *7874:B 0.00018152
2 *7865:Y 0.00018152
3 *7864:A *7874:B 1.24368e-05
4 *101:59 *7874:B 0
5 *204:31 *7874:B 0.000101545
6 *210:41 *7874:B 5.26091e-05
*RES
1 *7865:Y *7874:B 30.6982 
*END

*D_NET *541 0.000321765
*CONN
*I *7867:A I *D sky130_fd_sc_hd__inv_1
*I *7866:Y O *D sky130_fd_sc_hd__inv_1
*CAP
1 *7867:A 0.000125984
2 *7866:Y 0.000125984
3 *102:40 *7867:A 0
4 *210:41 *7867:A 6.97972e-05
*RES
1 *7866:Y *7867:A 29.8098 
*END

*D_NET *542 0.000193704
*CONN
*I *7868:A I *D sky130_fd_sc_hd__inv_1
*I *7867:Y O *D sky130_fd_sc_hd__inv_1
*CAP
1 *7868:A 9.6852e-05
2 *7867:Y 9.6852e-05
*RES
1 *7867:Y *7868:A 20.3545 
*END

*D_NET *543 0.000106793
*CONN
*I *7869:A I *D sky130_fd_sc_hd__inv_1
*I *7868:Y O *D sky130_fd_sc_hd__inv_1
*CAP
1 *7869:A 5.33963e-05
2 *7868:Y 5.33963e-05
*RES
1 *7868:Y *7869:A 19.4973 
*END

*D_NET *544 0.000221108
*CONN
*I *7870:A I *D sky130_fd_sc_hd__inv_1
*I *7869:Y O *D sky130_fd_sc_hd__inv_1
*CAP
1 *7870:A 0.000110554
2 *7869:Y 0.000110554
*RES
1 *7869:Y *7870:A 20.3188 
*END

*D_NET *545 0.000124356
*CONN
*I *7871:A I *D sky130_fd_sc_hd__inv_1
*I *7870:Y O *D sky130_fd_sc_hd__inv_1
*CAP
1 *7871:A 4.71771e-05
2 *7870:Y 4.71771e-05
3 *7871:A *7872:A 3.00023e-05
*RES
1 *7870:Y *7871:A 19.4973 
*END

*D_NET *546 0.000527434
*CONN
*I *7872:A I *D sky130_fd_sc_hd__inv_1
*I *7871:Y O *D sky130_fd_sc_hd__inv_1
*CAP
1 *7872:A 0.000229698
2 *7871:Y 0.000229698
3 *7872:A *7843:A 2.55987e-05
4 *7871:A *7872:A 3.00023e-05
5 *100:89 *7872:A 1.24368e-05
6 *102:40 *7872:A 0
*RES
1 *7871:Y *7872:A 31.667 
*END

*D_NET *547 0.000511675
*CONN
*I *7843:A I *D sky130_fd_sc_hd__inv_1
*I *7872:Y O *D sky130_fd_sc_hd__inv_1
*CAP
1 *7843:A 0.000211467
2 *7872:Y 0.000211467
3 *7844:A *7843:A 5.323e-05
4 *7845:A *7843:A 9.91229e-06
5 *7872:A *7843:A 2.55987e-05
*RES
1 *7872:Y *7843:A 22.2964 
*END

*D_NET *548 0.00129017
*CONN
*I *7381:A2 I *D sky130_fd_sc_hd__mux4_2
*I *7873:X O *D sky130_fd_sc_hd__buf_1
*CAP
1 *7381:A2 0.000596247
2 *7873:X 0.000596247
3 *7381:A2 *7987:A 2.89114e-05
4 *7813:A *7381:A2 1.37493e-05
5 *7814:A *7381:A2 5.17013e-05
6 *7815:A *7381:A2 3.31452e-06
7 *100:89 *7381:A2 0
*RES
1 *7873:X *7381:A2 34.9214 
*END

*D_NET *549 0.000379817
*CONN
*I *7906:A I *D sky130_fd_sc_hd__nand2_1
*I *7402:X O *D sky130_fd_sc_hd__and3_2
*CAP
1 *7906:A 0.000160268
2 *7402:X 0.000160268
3 *7906:A *7885:A 3.76337e-05
4 *7906:A *7896:A 6.05161e-06
5 *204:65 *7906:A 1.55953e-05
*RES
1 *7402:X *7906:A 21.225 
*END

*D_NET *550 0.000287746
*CONN
*I *7885:A I *D sky130_fd_sc_hd__inv_1
*I *7906:Y O *D sky130_fd_sc_hd__nand2_1
*CAP
1 *7885:A 6.11162e-05
2 *7906:Y 6.11162e-05
3 *7885:A *7896:A 2.30494e-05
4 *7906:A *7885:A 3.76337e-05
5 *204:65 *7885:A 0.00010483
*RES
1 *7906:Y *7885:A 20.5598 
*END

*D_NET *551 0.000584729
*CONN
*I *7876:A I *D sky130_fd_sc_hd__inv_1
*I *7875:Y O *D sky130_fd_sc_hd__inv_1
*CAP
1 *7876:A 0.000188777
2 *7875:Y 0.000188777
3 *7876:A *7875:A 2.80853e-05
4 *7876:A *7877:A 9.47974e-05
5 *211:76 *7876:A 8.42931e-05
*RES
1 *7875:Y *7876:A 22.5152 
*END

*D_NET *552 0.000176738
*CONN
*I *7877:A I *D sky130_fd_sc_hd__inv_1
*I *7876:Y O *D sky130_fd_sc_hd__inv_1
*CAP
1 *7877:A 1.51196e-05
2 *7876:Y 1.51196e-05
3 *7876:A *7877:A 9.47974e-05
4 *211:76 *7877:A 5.17013e-05
*RES
1 *7876:Y *7877:A 19.4973 
*END

*D_NET *553 0.00065781
*CONN
*I *7878:A I *D sky130_fd_sc_hd__inv_1
*I *7877:Y O *D sky130_fd_sc_hd__inv_1
*CAP
1 *7878:A 0.000221928
2 *7877:Y 0.000221928
3 *100:77 *7878:A 4.88847e-05
4 *211:76 *7878:A 0.00016507
*RES
1 *7877:Y *7878:A 31.3902 
*END

*D_NET *554 0.000107065
*CONN
*I *7879:A I *D sky130_fd_sc_hd__inv_1
*I *7878:Y O *D sky130_fd_sc_hd__inv_1
*CAP
1 *7879:A 5.35325e-05
2 *7878:Y 5.35325e-05
*RES
1 *7878:Y *7879:A 19.4973 
*END

*D_NET *555 0.000548504
*CONN
*I *7880:A I *D sky130_fd_sc_hd__inv_1
*I *7879:Y O *D sky130_fd_sc_hd__inv_1
*CAP
1 *7880:A 0.000181538
2 *7879:Y 0.000181538
3 *7880:A *7905:A 3.34366e-05
4 *7880:A *556:6 2.79827e-05
5 *216:47 *7880:A 0.00012401
*RES
1 *7879:Y *7880:A 30.6759 
*END

*D_NET *556 0.00122373
*CONN
*I *7905:A I *D sky130_fd_sc_hd__buf_1
*I *7881:A I *D sky130_fd_sc_hd__inv_1
*I *7880:Y O *D sky130_fd_sc_hd__inv_1
*CAP
1 *7905:A 0.000246764
2 *7881:A 6.15538e-05
3 *7880:Y 8.42715e-05
4 *556:6 0.00039259
5 *7881:A *7882:A 4.45815e-05
6 *7832:A *7905:A 0.000125731
7 *7834:A *7905:A 5.5136e-05
8 *7880:A *7905:A 3.34366e-05
9 *7880:A *556:6 2.79827e-05
10 *216:47 *7905:A 0.000151678
*RES
1 *7880:Y *556:6 10.4518 
2 *556:6 *7881:A 10.5723 
3 *556:6 *7905:A 24.2464 
*END

*D_NET *557 0.000283717
*CONN
*I *7882:A I *D sky130_fd_sc_hd__inv_1
*I *7881:Y O *D sky130_fd_sc_hd__inv_1
*CAP
1 *7882:A 0.000100981
2 *7881:Y 0.000100981
3 *7882:A *7883:A 3.7174e-05
4 *7881:A *7882:A 4.45815e-05
*RES
1 *7881:Y *7882:A 20.8277 
*END

*D_NET *558 0.000314694
*CONN
*I *7883:A I *D sky130_fd_sc_hd__inv_1
*I *7882:Y O *D sky130_fd_sc_hd__inv_1
*CAP
1 *7883:A 0.000124777
2 *7882:Y 0.000124777
3 *7883:A *7884:A 2.79671e-05
4 *7882:A *7883:A 3.7174e-05
*RES
1 *7882:Y *7883:A 21.1313 
*END

*D_NET *559 0.000366873
*CONN
*I *7884:A I *D sky130_fd_sc_hd__inv_1
*I *7883:Y O *D sky130_fd_sc_hd__inv_1
*CAP
1 *7884:A 0.0001553
2 *7883:Y 0.0001553
3 *7884:A *7886:A 2.83064e-05
4 *7883:A *7884:A 2.79671e-05
*RES
1 *7883:Y *7884:A 21.3813 
*END

*D_NET *560 0.000312454
*CONN
*I *7886:A I *D sky130_fd_sc_hd__inv_1
*I *7884:Y O *D sky130_fd_sc_hd__inv_1
*CAP
1 *7886:A 0.000127634
2 *7884:Y 0.000127634
3 *7886:A *7887:A 2.888e-05
4 *7884:A *7886:A 2.83064e-05
*RES
1 *7884:Y *7886:A 21.1313 
*END

*D_NET *561 0.000456062
*CONN
*I *7896:A I *D sky130_fd_sc_hd__inv_1
*I *7885:Y O *D sky130_fd_sc_hd__inv_1
*CAP
1 *7896:A 0.000211109
2 *7885:Y 0.000211109
3 *7885:A *7896:A 2.30494e-05
4 *7906:A *7896:A 6.05161e-06
5 *100:64 *7896:A 0
6 *204:65 *7896:A 4.74297e-06
7 *211:46 *7896:A 0
*RES
1 *7885:Y *7896:A 30.6759 
*END

*D_NET *562 0.000343088
*CONN
*I *7887:A I *D sky130_fd_sc_hd__inv_1
*I *7886:Y O *D sky130_fd_sc_hd__inv_1
*CAP
1 *7887:A 0.000144372
2 *7886:Y 0.000144372
3 *7887:A *7888:A 2.54648e-05
4 *7886:A *7887:A 2.888e-05
*RES
1 *7886:Y *7887:A 21.3813 
*END

*D_NET *563 0.000457371
*CONN
*I *7888:A I *D sky130_fd_sc_hd__inv_1
*I *7887:Y O *D sky130_fd_sc_hd__inv_1
*CAP
1 *7888:A 0.000208916
2 *7887:Y 0.000208916
3 *7888:A *7889:A 1.40749e-05
4 *7887:A *7888:A 2.54648e-05
5 *100:77 *7888:A 0
6 *102:40 *7888:A 0
*RES
1 *7887:Y *7888:A 30.6313 
*END

*D_NET *564 0.000310084
*CONN
*I *7889:A I *D sky130_fd_sc_hd__inv_1
*I *7888:Y O *D sky130_fd_sc_hd__inv_1
*CAP
1 *7889:A 0.000138351
2 *7888:Y 0.000138351
3 *7889:A *7890:A 1.93076e-05
4 *7888:A *7889:A 1.40749e-05
*RES
1 *7888:Y *7889:A 21.1313 
*END

*D_NET *565 0.00043852
*CONN
*I *7890:A I *D sky130_fd_sc_hd__inv_1
*I *7889:Y O *D sky130_fd_sc_hd__inv_1
*CAP
1 *7890:A 0.000171715
2 *7889:Y 0.000171715
3 *7890:A *7891:A 3.00023e-05
4 *7890:A *7892:A 1.37743e-05
5 *7889:A *7890:A 1.93076e-05
6 *102:40 *7890:A 0
7 *211:57 *7890:A 3.2006e-05
*RES
1 *7889:Y *7890:A 30.158 
*END

*D_NET *566 0.000330038
*CONN
*I *7891:A I *D sky130_fd_sc_hd__inv_1
*I *7890:Y O *D sky130_fd_sc_hd__inv_1
*CAP
1 *7891:A 7.70737e-05
2 *7890:Y 7.70737e-05
3 *7891:A *7892:A 5.52966e-05
4 *7891:A *7893:A 7.71367e-05
5 *7890:A *7891:A 3.00023e-05
6 *211:76 *7891:A 1.34554e-05
*RES
1 *7890:Y *7891:A 20.8277 
*END

*D_NET *567 0.000469952
*CONN
*I *7892:A I *D sky130_fd_sc_hd__inv_1
*I *7891:Y O *D sky130_fd_sc_hd__inv_1
*CAP
1 *7892:A 7.7078e-05
2 *7891:Y 7.7078e-05
3 *7892:A *7893:A 4.37307e-05
4 *7890:A *7892:A 1.37743e-05
5 *7891:A *7892:A 5.52966e-05
6 *211:76 *7892:A 0.000202994
*RES
1 *7891:Y *7892:A 21.5866 
*END

*D_NET *568 0.000705897
*CONN
*I *7893:A I *D sky130_fd_sc_hd__inv_1
*I *7892:Y O *D sky130_fd_sc_hd__inv_1
*CAP
1 *7893:A 0.000251964
2 *7892:Y 0.000251964
3 *7893:A *7897:A 2.3541e-05
4 *7891:A *7893:A 7.71367e-05
5 *7892:A *7893:A 4.37307e-05
6 *211:57 *7893:A 4.48113e-05
7 *211:76 *7893:A 1.27499e-05
*RES
1 *7892:Y *7893:A 31.4527 
*END

*D_NET *569 0.00108695
*CONN
*I *7894:A I *D sky130_fd_sc_hd__inv_1
*I *7893:Y O *D sky130_fd_sc_hd__inv_1
*CAP
1 *7894:A 0.000295027
2 *7893:Y 0.000295027
3 *7894:A *7895:A 0.000151261
4 *7894:A *7897:A 0.000141388
5 *7401:C *7894:A 5.35778e-05
6 *102:40 *7894:A 0.000125724
7 *211:57 *7894:A 2.49484e-05
*RES
1 *7893:Y *7894:A 33.0955 
*END

*D_NET *570 0.00069068
*CONN
*I *7895:A I *D sky130_fd_sc_hd__inv_1
*I *7894:Y O *D sky130_fd_sc_hd__inv_1
*CAP
1 *7895:A 0.000192067
2 *7894:Y 0.000192067
3 *7401:C *7895:A 3.06878e-06
4 *7894:A *7895:A 0.000151261
5 *102:40 *7895:A 2.82057e-05
6 *211:57 *7895:A 0.00012401
*RES
1 *7894:Y *7895:A 31.0866 
*END

*D_NET *571 0.000409562
*CONN
*I *7897:A I *D sky130_fd_sc_hd__inv_1
*I *7895:Y O *D sky130_fd_sc_hd__inv_1
*CAP
1 *7897:A 0.000118073
2 *7895:Y 0.000118073
3 *7897:A *7906:B 8.48822e-06
4 *7893:A *7897:A 2.3541e-05
5 *7894:A *7897:A 0.000141388
*RES
1 *7895:Y *7897:A 21.283 
*END

*D_NET *572 0.000108941
*CONN
*I *7898:A I *D sky130_fd_sc_hd__inv_1
*I *7896:Y O *D sky130_fd_sc_hd__inv_1
*CAP
1 *7898:A 5.44705e-05
2 *7896:Y 5.44705e-05
*RES
1 *7896:Y *7898:A 19.4973 
*END

*D_NET *573 0.000502672
*CONN
*I *7906:B I *D sky130_fd_sc_hd__nand2_1
*I *7897:Y O *D sky130_fd_sc_hd__inv_1
*CAP
1 *7906:B 0.000247092
2 *7897:Y 0.000247092
3 *7897:A *7906:B 8.48822e-06
4 *100:64 *7906:B 0
5 *211:57 *7906:B 0
*RES
1 *7897:Y *7906:B 30.9482 
*END

*D_NET *574 0.000159942
*CONN
*I *7899:A I *D sky130_fd_sc_hd__inv_1
*I *7898:Y O *D sky130_fd_sc_hd__inv_1
*CAP
1 *7899:A 7.99711e-05
2 *7898:Y 7.99711e-05
*RES
1 *7898:Y *7899:A 19.908 
*END

*D_NET *575 0.000109535
*CONN
*I *7900:A I *D sky130_fd_sc_hd__inv_1
*I *7899:Y O *D sky130_fd_sc_hd__inv_1
*CAP
1 *7900:A 5.47673e-05
2 *7899:Y 5.47673e-05
*RES
1 *7899:Y *7900:A 19.4973 
*END

*D_NET *576 0.000107065
*CONN
*I *7901:A I *D sky130_fd_sc_hd__inv_1
*I *7900:Y O *D sky130_fd_sc_hd__inv_1
*CAP
1 *7901:A 5.35325e-05
2 *7900:Y 5.35325e-05
*RES
1 *7900:Y *7901:A 19.4973 
*END

*D_NET *577 0.000644984
*CONN
*I *7902:A I *D sky130_fd_sc_hd__inv_1
*I *7901:Y O *D sky130_fd_sc_hd__inv_1
*CAP
1 *7902:A 0.00025333
2 *7901:Y 0.00025333
3 *7902:A *7903:A 9.47974e-05
4 *204:65 *7902:A 4.35266e-05
*RES
1 *7901:Y *7902:A 32.158 
*END

*D_NET *578 0.000167988
*CONN
*I *7903:A I *D sky130_fd_sc_hd__inv_1
*I *7902:Y O *D sky130_fd_sc_hd__inv_1
*CAP
1 *7903:A 1.654e-05
2 *7902:Y 1.654e-05
3 *7902:A *7903:A 9.47974e-05
4 *204:65 *7903:A 4.01109e-05
*RES
1 *7902:Y *7903:A 19.4973 
*END

*D_NET *579 0.000586879
*CONN
*I *7904:A I *D sky130_fd_sc_hd__inv_1
*I *7903:Y O *D sky130_fd_sc_hd__inv_1
*CAP
1 *7904:A 0.000191333
2 *7903:Y 0.000191333
3 *7904:A *7875:A 2.12005e-05
4 *7404:A *7904:A 0.000111776
5 *7404:B *7904:A 3.6337e-05
6 *204:65 *7904:A 3.49005e-05
*RES
1 *7903:Y *7904:A 31.3455 
*END

*D_NET *580 0.000720292
*CONN
*I *7875:A I *D sky130_fd_sc_hd__inv_1
*I *7904:Y O *D sky130_fd_sc_hd__inv_1
*CAP
1 *7875:A 0.000244178
2 *7904:Y 0.000244178
3 *7404:A *7875:A 7.82904e-05
4 *7404:C *7875:A 5.65955e-05
5 *7876:A *7875:A 2.80853e-05
6 *7904:A *7875:A 2.12005e-05
7 *211:76 *7875:A 1.37743e-05
8 *216:47 *7875:A 3.39905e-05
*RES
1 *7904:Y *7875:A 31.4973 
*END

*D_NET *581 0.000835825
*CONN
*I *7381:A3 I *D sky130_fd_sc_hd__mux4_2
*I *7905:X O *D sky130_fd_sc_hd__buf_1
*CAP
1 *7381:A3 0.000258727
2 *7905:X 0.000258727
3 *7832:A *7381:A3 7.07155e-06
4 *7841:A *7381:A3 0.000151613
5 *216:47 *7381:A3 0.000159687
*RES
1 *7905:X *7381:A3 32.725 
*END

*D_NET *582 0.000791533
*CONN
*I *7938:A I *D sky130_fd_sc_hd__nand2_1
*I *7403:X O *D sky130_fd_sc_hd__and3_2
*CAP
1 *7938:A 0.000353699
2 *7403:X 0.000353699
3 *7938:A *7929:A 5.80706e-06
4 *125:16 *7938:A 7.8327e-05
*RES
1 *7403:X *7938:A 32.5464 
*END

*D_NET *583 0.000450102
*CONN
*I *7917:A I *D sky130_fd_sc_hd__inv_1
*I *7938:Y O *D sky130_fd_sc_hd__nand2_1
*CAP
1 *7917:A 9.65257e-05
2 *7938:Y 9.65257e-05
3 *7917:A *7929:A 2.3541e-05
4 *7917:A *7938:B 0.000163737
5 *7917:A *7970:A 6.97734e-05
*RES
1 *7938:Y *7917:A 21.4884 
*END

*D_NET *584 0.000837802
*CONN
*I *7908:A I *D sky130_fd_sc_hd__inv_1
*I *7907:Y O *D sky130_fd_sc_hd__inv_1
*CAP
1 *7908:A 0.000306842
2 *7907:Y 0.000306842
3 *7908:A *7909:A 0.00021677
4 *7908:A *7910:A 7.34801e-06
*RES
1 *7907:Y *7908:A 24.0196 
*END

*D_NET *585 0.000416778
*CONN
*I *7909:A I *D sky130_fd_sc_hd__inv_1
*I *7908:Y O *D sky130_fd_sc_hd__inv_1
*CAP
1 *7909:A 7.26213e-05
2 *7908:Y 7.26213e-05
3 *7909:A *7910:A 5.47661e-05
4 *7908:A *7909:A 0.00021677
*RES
1 *7908:Y *7909:A 21.2027 
*END

*D_NET *586 0.000463026
*CONN
*I *7910:A I *D sky130_fd_sc_hd__inv_1
*I *7909:Y O *D sky130_fd_sc_hd__inv_1
*CAP
1 *7910:A 0.000160739
2 *7909:Y 0.000160739
3 *7910:A *7912:A 2.3541e-05
4 *7910:A *7914:A 5.58941e-05
5 *7910:A *7916:A 0
6 *7910:A *7918:A 0
7 *7908:A *7910:A 7.34801e-06
8 *7909:A *7910:A 5.47661e-05
*RES
1 *7909:Y *7910:A 30.6491 
*END

*D_NET *587 0.000457741
*CONN
*I *7911:A I *D sky130_fd_sc_hd__inv_1
*I *7910:Y O *D sky130_fd_sc_hd__inv_1
*CAP
1 *7911:A 0.00015598
2 *7910:Y 0.00015598
3 *7911:A *7912:A 0.000106506
4 *7911:A *7914:A 3.92757e-05
5 *7911:A *589:10 0
*RES
1 *7910:Y *7911:A 30.5688 
*END

*D_NET *588 0.000806729
*CONN
*I *7912:A I *D sky130_fd_sc_hd__inv_1
*I *7911:Y O *D sky130_fd_sc_hd__inv_1
*CAP
1 *7912:A 0.000265572
2 *7911:Y 0.000265572
3 *7912:A *7914:A 0.000126778
4 *7912:A *589:10 1.87618e-05
5 *7910:A *7912:A 2.3541e-05
6 *7911:A *7912:A 0.000106506
*RES
1 *7911:Y *7912:A 32.8277 
*END

*D_NET *589 0.00145054
*CONN
*I *7937:A I *D sky130_fd_sc_hd__buf_1
*I *7913:A I *D sky130_fd_sc_hd__inv_1
*I *7912:Y O *D sky130_fd_sc_hd__inv_1
*CAP
1 *7937:A 0.000113155
2 *7913:A 0.000189801
3 *7912:Y 0.00023103
4 *589:10 0.000533986
5 *7913:A *7914:A 2.79708e-06
6 *589:10 *7914:A 2.57709e-05
7 *7381:A0 *7937:A 9.90367e-05
8 *7828:A *7937:A 5.33334e-05
9 *7829:A *7937:A 3.34687e-05
10 *7829:A *589:10 2.84494e-05
11 *7831:A *7913:A 0.00012095
12 *7911:A *589:10 0
13 *7912:A *589:10 1.87618e-05
14 *125:16 *7937:A 0
15 *125:16 *589:10 0
*RES
1 *7912:Y *589:10 17.5054 
2 *589:10 *7913:A 16.4786 
3 *589:10 *7937:A 16.3893 
*END

*D_NET *590 0.00105064
*CONN
*I *7914:A I *D sky130_fd_sc_hd__inv_1
*I *7913:Y O *D sky130_fd_sc_hd__inv_1
*CAP
1 *7914:A 0.000366623
2 *7913:Y 0.000366623
3 *7914:A *7915:A 6.68806e-05
4 *7910:A *7914:A 5.58941e-05
5 *7911:A *7914:A 3.92757e-05
6 *7912:A *7914:A 0.000126778
7 *7913:A *7914:A 2.79708e-06
8 *589:10 *7914:A 2.57709e-05
*RES
1 *7913:Y *7914:A 34.2384 
*END

*D_NET *591 0.000306765
*CONN
*I *7915:A I *D sky130_fd_sc_hd__inv_1
*I *7914:Y O *D sky130_fd_sc_hd__inv_1
*CAP
1 *7915:A 0.000108407
2 *7914:Y 0.000108407
3 *7915:A *7916:A 2.30708e-05
4 *7914:A *7915:A 6.68806e-05
*RES
1 *7914:Y *7915:A 20.8277 
*END

*D_NET *592 0.00036503
*CONN
*I *7916:A I *D sky130_fd_sc_hd__inv_1
*I *7915:Y O *D sky130_fd_sc_hd__inv_1
*CAP
1 *7916:A 0.00015836
2 *7915:Y 0.00015836
3 *7916:A *7919:A 2.524e-05
4 *7910:A *7916:A 0
5 *7915:A *7916:A 2.30708e-05
6 *125:16 *7916:A 0
*RES
1 *7915:Y *7916:A 29.8098 
*END

*D_NET *593 0.000249131
*CONN
*I *7918:A I *D sky130_fd_sc_hd__inv_1
*I *7916:Y O *D sky130_fd_sc_hd__inv_1
*CAP
1 *7918:A 9.6488e-05
2 *7916:Y 9.6488e-05
3 *7918:A *7919:A 5.61551e-05
4 *7910:A *7918:A 0
*RES
1 *7916:Y *7918:A 20.3545 
*END

*D_NET *594 0.000881975
*CONN
*I *7928:A I *D sky130_fd_sc_hd__inv_1
*I *7917:Y O *D sky130_fd_sc_hd__inv_1
*CAP
1 *7928:A 0.000379078
2 *7917:Y 0.000379078
3 *7928:A *7930:A 5.47661e-05
4 *7928:A *7970:A 3.53719e-05
5 *7618:A *7928:A 3.36817e-05
*RES
1 *7917:Y *7928:A 33.167 
*END

*D_NET *595 0.000546961
*CONN
*I *7919:A I *D sky130_fd_sc_hd__inv_1
*I *7918:Y O *D sky130_fd_sc_hd__inv_1
*CAP
1 *7919:A 0.000223806
2 *7918:Y 0.000223806
3 *7919:A *7920:A 1.79539e-05
4 *7916:A *7919:A 2.524e-05
5 *7918:A *7919:A 5.61551e-05
*RES
1 *7918:Y *7919:A 22.8813 
*END

*D_NET *596 0.000470417
*CONN
*I *7920:A I *D sky130_fd_sc_hd__inv_1
*I *7919:Y O *D sky130_fd_sc_hd__inv_1
*CAP
1 *7920:A 0.000182489
2 *7919:Y 0.000182489
3 *7920:A *7921:A 1.14548e-05
4 *7919:A *7920:A 1.79539e-05
5 *125:16 *7920:A 7.60306e-05
6 *211:89 *7920:A 0
*RES
1 *7919:Y *7920:A 30.5241 
*END

*D_NET *597 0.000332451
*CONN
*I *7921:A I *D sky130_fd_sc_hd__inv_1
*I *7920:Y O *D sky130_fd_sc_hd__inv_1
*CAP
1 *7921:A 0.000134927
2 *7920:Y 0.000134927
3 *7921:A *7922:A 5.11426e-05
4 *7920:A *7921:A 1.14548e-05
*RES
1 *7920:Y *7921:A 21.1313 
*END

*D_NET *598 0.000367923
*CONN
*I *7922:A I *D sky130_fd_sc_hd__inv_1
*I *7921:Y O *D sky130_fd_sc_hd__inv_1
*CAP
1 *7922:A 0.000125012
2 *7921:Y 0.000125012
3 *7922:A *7923:A 6.67576e-05
4 *7921:A *7922:A 5.11426e-05
*RES
1 *7921:Y *7922:A 21.2563 
*END

*D_NET *599 0.00043682
*CONN
*I *7923:A I *D sky130_fd_sc_hd__inv_1
*I *7922:Y O *D sky130_fd_sc_hd__inv_1
*CAP
1 *7923:A 0.000150133
2 *7922:Y 0.000150133
3 *7922:A *7923:A 6.67576e-05
4 *125:16 *7923:A 0
5 *211:89 *7923:A 6.97972e-05
*RES
1 *7922:Y *7923:A 30.2652 
*END

*D_NET *600 0.000106793
*CONN
*I *7924:A I *D sky130_fd_sc_hd__inv_1
*I *7923:Y O *D sky130_fd_sc_hd__inv_1
*CAP
1 *7924:A 5.33963e-05
2 *7923:Y 5.33963e-05
*RES
1 *7923:Y *7924:A 19.4973 
*END

*D_NET *601 0.000123347
*CONN
*I *7925:A I *D sky130_fd_sc_hd__inv_1
*I *7924:Y O *D sky130_fd_sc_hd__inv_1
*CAP
1 *7925:A 6.16736e-05
2 *7924:Y 6.16736e-05
*RES
1 *7924:Y *7925:A 19.4973 
*END

*D_NET *602 0.000380398
*CONN
*I *7926:A I *D sky130_fd_sc_hd__inv_1
*I *7925:Y O *D sky130_fd_sc_hd__inv_1
*CAP
1 *7926:A 0.00011361
2 *7925:Y 0.00011361
3 *7926:A *7931:A 3.92757e-05
4 *7618:A *7926:A 3.00023e-05
5 *125:16 *7926:A 8.39e-05
*RES
1 *7925:Y *7926:A 30.158 
*END

*D_NET *603 0.00016138
*CONN
*I *7927:A I *D sky130_fd_sc_hd__inv_1
*I *7926:Y O *D sky130_fd_sc_hd__inv_1
*CAP
1 *7927:A 1.81418e-05
2 *7926:Y 1.81418e-05
3 *7927:A *7931:A 2.93746e-05
4 *7618:A *7927:A 9.57215e-05
*RES
1 *7926:Y *7927:A 19.4973 
*END

*D_NET *604 0.000557372
*CONN
*I *7929:A I *D sky130_fd_sc_hd__inv_1
*I *7927:Y O *D sky130_fd_sc_hd__inv_1
*CAP
1 *7929:A 0.000198515
2 *7927:Y 0.000198515
3 *7929:A *7970:A 1.00442e-05
4 *7618:A *7929:A 0.00012095
5 *7917:A *7929:A 2.3541e-05
6 *7938:A *7929:A 5.80706e-06
7 *125:16 *7929:A 0
*RES
1 *7927:Y *7929:A 30.6313 
*END

*D_NET *605 0.000373921
*CONN
*I *7930:A I *D sky130_fd_sc_hd__inv_1
*I *7928:Y O *D sky130_fd_sc_hd__inv_1
*CAP
1 *7930:A 5.82492e-05
2 *7928:Y 5.82492e-05
3 *7930:A *7931:A 1.87618e-05
4 *7618:A *7930:A 0.000183895
5 *7928:A *7930:A 5.47661e-05
*RES
1 *7928:Y *7930:A 20.8277 
*END

*D_NET *606 0.000537044
*CONN
*I *7938:B I *D sky130_fd_sc_hd__nand2_1
*I *7929:Y O *D sky130_fd_sc_hd__inv_1
*CAP
1 *7938:B 0.000184747
2 *7929:Y 0.000184747
3 *7938:B *7970:A 3.81416e-06
4 *7917:A *7938:B 0.000163737
*RES
1 *7929:Y *7938:B 21.3054 
*END

*D_NET *607 0.000715966
*CONN
*I *7931:A I *D sky130_fd_sc_hd__inv_1
*I *7930:Y O *D sky130_fd_sc_hd__inv_1
*CAP
1 *7931:A 0.000294106
2 *7930:Y 0.000294106
3 *7618:A *7931:A 4.0342e-05
4 *7926:A *7931:A 3.92757e-05
5 *7927:A *7931:A 2.93746e-05
6 *7930:A *7931:A 1.87618e-05
7 *125:16 *7931:A 0
*RES
1 *7930:Y *7931:A 32.2116 
*END

*D_NET *608 0.000106793
*CONN
*I *7932:A I *D sky130_fd_sc_hd__inv_1
*I *7931:Y O *D sky130_fd_sc_hd__inv_1
*CAP
1 *7932:A 5.33963e-05
2 *7931:Y 5.33963e-05
*RES
1 *7931:Y *7932:A 19.4973 
*END

*D_NET *609 0.000106793
*CONN
*I *7933:A I *D sky130_fd_sc_hd__inv_1
*I *7932:Y O *D sky130_fd_sc_hd__inv_1
*CAP
1 *7933:A 5.33963e-05
2 *7932:Y 5.33963e-05
*RES
1 *7932:Y *7933:A 19.4973 
*END

*D_NET *610 0.000551086
*CONN
*I *7934:A I *D sky130_fd_sc_hd__inv_1
*I *7933:Y O *D sky130_fd_sc_hd__inv_1
*CAP
1 *7934:A 0.000229517
2 *7933:Y 0.000229517
3 *7934:A *7907:A 8.71761e-06
4 *7934:A *7935:A 7.0443e-05
5 *7934:A *7936:A 1.28919e-05
*RES
1 *7933:Y *7934:A 31.8098 
*END

*D_NET *611 0.0005059
*CONN
*I *7935:A I *D sky130_fd_sc_hd__inv_1
*I *7934:Y O *D sky130_fd_sc_hd__inv_1
*CAP
1 *7935:A 9.22192e-05
2 *7934:Y 9.22192e-05
3 *7935:A *7907:A 8.07313e-05
4 *7935:A *7936:A 0.000170287
5 *7934:A *7935:A 7.0443e-05
*RES
1 *7934:Y *7935:A 21.6938 
*END

*D_NET *612 0.000404644
*CONN
*I *7936:A I *D sky130_fd_sc_hd__inv_1
*I *7935:Y O *D sky130_fd_sc_hd__inv_1
*CAP
1 *7936:A 0.000110732
2 *7935:Y 0.000110732
3 *7934:A *7936:A 1.28919e-05
4 *7935:A *7936:A 0.000170287
*RES
1 *7935:Y *7936:A 21.2384 
*END

*D_NET *613 0.000585588
*CONN
*I *7907:A I *D sky130_fd_sc_hd__inv_1
*I *7936:Y O *D sky130_fd_sc_hd__inv_1
*CAP
1 *7907:A 0.00024807
2 *7936:Y 0.00024807
3 *7934:A *7907:A 8.71761e-06
4 *7935:A *7907:A 8.07313e-05
5 *125:16 *7907:A 0
*RES
1 *7936:Y *7907:A 31.3902 
*END

*D_NET *614 0.00129957
*CONN
*I *7387:A0 I *D sky130_fd_sc_hd__mux4_2
*I *7937:X O *D sky130_fd_sc_hd__buf_1
*CAP
1 *7387:A0 0.000463849
2 *7937:X 0.000463849
3 *7824:A *7387:A0 0
4 *7826:A *7387:A0 0
5 *7827:A *7387:A0 0
6 *7828:A *7387:A0 0.000162208
7 *125:16 *7387:A0 0.000209659
*RES
1 *7937:X *7387:A0 36.475 
*END

*D_NET *615 0.00289886
*CONN
*I *7970:A I *D sky130_fd_sc_hd__nand2_1
*I *7404:X O *D sky130_fd_sc_hd__and3_2
*CAP
1 *7970:A 0.00131025
2 *7404:X 0.00131025
3 *7970:A *7970:B 9.90367e-05
4 *7404:C *7970:A 6.03196e-05
5 *7917:A *7970:A 6.97734e-05
6 *7928:A *7970:A 3.53719e-05
7 *7929:A *7970:A 1.00442e-05
8 *7938:B *7970:A 3.81416e-06
*RES
1 *7404:X *7970:A 43.5464 
*END

*D_NET *616 0.000240558
*CONN
*I *7949:A I *D sky130_fd_sc_hd__inv_1
*I *7970:Y O *D sky130_fd_sc_hd__nand2_1
*CAP
1 *7949:A 9.07076e-05
2 *7970:Y 9.07076e-05
3 *7949:A *7960:A 0
4 *7949:A *7961:A 0
5 *7949:A *7970:B 5.91426e-05
*RES
1 *7970:Y *7949:A 20.6848 
*END

*D_NET *617 0.000547813
*CONN
*I *7940:A I *D sky130_fd_sc_hd__inv_1
*I *7939:Y O *D sky130_fd_sc_hd__inv_1
*CAP
1 *7940:A 0.000220212
2 *7939:Y 0.000220212
3 *7940:A *7939:A 5.47661e-05
4 *7940:A *7951:A 0
5 *7940:A *7967:A 1.76039e-05
6 *7940:A *7968:A 3.50194e-05
*RES
1 *7939:Y *7940:A 31.542 
*END

*D_NET *618 0.000368587
*CONN
*I *7941:A I *D sky130_fd_sc_hd__inv_1
*I *7940:Y O *D sky130_fd_sc_hd__inv_1
*CAP
1 *7941:A 0.000178566
2 *7940:Y 0.000178566
3 *7941:A *7942:A 1.14548e-05
4 *7941:A *7948:A 0
*RES
1 *7940:Y *7941:A 30.1134 
*END

*D_NET *619 0.000315935
*CONN
*I *7942:A I *D sky130_fd_sc_hd__inv_1
*I *7941:Y O *D sky130_fd_sc_hd__inv_1
*CAP
1 *7942:A 0.000142414
2 *7941:Y 0.000142414
3 *7942:A *7943:A 1.96517e-05
4 *7942:A *7947:A 0
5 *7617:A *7942:A 0
6 *7941:A *7942:A 1.14548e-05
*RES
1 *7941:Y *7942:A 21.1313 
*END

*D_NET *620 0.000364205
*CONN
*I *7943:A I *D sky130_fd_sc_hd__inv_1
*I *7942:Y O *D sky130_fd_sc_hd__inv_1
*CAP
1 *7943:A 0.000158234
2 *7942:Y 0.000158234
3 *7943:A *7944:A 2.80853e-05
4 *7942:A *7943:A 1.96517e-05
*RES
1 *7942:Y *7943:A 29.8545 
*END

*D_NET *621 0.000368242
*CONN
*I *7944:A I *D sky130_fd_sc_hd__inv_1
*I *7943:Y O *D sky130_fd_sc_hd__inv_1
*CAP
1 *7944:A 7.06412e-05
2 *7943:Y 7.06412e-05
3 *7944:A *622:10 2.62908e-05
4 *7381:A0 *7944:A 0.000172583
5 *7943:A *7944:A 2.80853e-05
*RES
1 *7943:Y *7944:A 20.8277 
*END

*D_NET *622 0.00106057
*CONN
*I *7945:A I *D sky130_fd_sc_hd__inv_1
*I *7969:A I *D sky130_fd_sc_hd__buf_1
*I *7944:Y O *D sky130_fd_sc_hd__inv_1
*CAP
1 *7945:A 0
2 *7969:A 0.000239936
3 *7944:Y 0.000124562
4 *622:10 0.000364498
5 *7381:A0 *7969:A 0.000249067
6 *7381:A0 *622:10 5.62176e-05
7 *7827:A *7969:A 0
8 *7944:A *622:10 2.62908e-05
*RES
1 *7944:Y *622:10 11.9741 
2 *622:10 *7969:A 23.492 
3 *622:10 *7945:A 9.3 
*END

*D_NET *623 0.000390739
*CONN
*I *7946:A I *D sky130_fd_sc_hd__inv_1
*I *7945:Y O *D sky130_fd_sc_hd__inv_1
*CAP
1 *7946:A 0.000169491
2 *7945:Y 0.000169491
3 *7946:A *7947:A 1.14548e-05
4 *7946:A *7948:A 6.98553e-06
5 *7381:A0 *7946:A 3.33174e-05
*RES
1 *7945:Y *7946:A 29.8098 
*END

*D_NET *624 0.000350307
*CONN
*I *7947:A I *D sky130_fd_sc_hd__inv_1
*I *7946:Y O *D sky130_fd_sc_hd__inv_1
*CAP
1 *7947:A 0.000155735
2 *7946:Y 0.000155735
3 *7947:A *7948:A 2.73825e-05
4 *7942:A *7947:A 0
5 *7946:A *7947:A 1.14548e-05
*RES
1 *7946:Y *7947:A 21.1313 
*END

*D_NET *625 0.000508996
*CONN
*I *7948:A I *D sky130_fd_sc_hd__inv_1
*I *7947:Y O *D sky130_fd_sc_hd__inv_1
*CAP
1 *7948:A 0.000222313
2 *7947:Y 0.000222313
3 *7948:A *7950:A 3.00023e-05
4 *7941:A *7948:A 0
5 *7946:A *7948:A 6.98553e-06
6 *7947:A *7948:A 2.73825e-05
*RES
1 *7947:Y *7948:A 30.9795 
*END

*D_NET *626 0.000316993
*CONN
*I *7950:A I *D sky130_fd_sc_hd__inv_1
*I *7948:Y O *D sky130_fd_sc_hd__inv_1
*CAP
1 *7950:A 0.00010493
2 *7948:Y 0.00010493
3 *7950:A *7951:A 7.71303e-05
4 *7948:A *7950:A 3.00023e-05
*RES
1 *7948:Y *7950:A 20.7027 
*END

*D_NET *627 0.00107854
*CONN
*I *7960:A I *D sky130_fd_sc_hd__inv_1
*I *7949:Y O *D sky130_fd_sc_hd__inv_1
*CAP
1 *7960:A 0.000378805
2 *7949:Y 0.000378805
3 *7960:A *7958:A 1.65822e-05
4 *7960:A *7959:A 6.00681e-05
5 *7960:A *7961:A 0.000175526
6 *7960:A *7962:A 2.99061e-05
7 *7960:A *7970:B 3.88502e-05
8 *7949:A *7960:A 0
*RES
1 *7949:Y *7960:A 33.8187 
*END

*D_NET *628 0.00042606
*CONN
*I *7951:A I *D sky130_fd_sc_hd__inv_1
*I *7950:Y O *D sky130_fd_sc_hd__inv_1
*CAP
1 *7951:A 0.000173052
2 *7950:Y 0.000173052
3 *7951:A *7967:A 2.8266e-06
4 *7940:A *7951:A 0
5 *7950:A *7951:A 7.71303e-05
*RES
1 *7950:Y *7951:A 30.2652 
*END

*D_NET *629 0.000406812
*CONN
*I *7952:A I *D sky130_fd_sc_hd__inv_1
*I *7951:Y O *D sky130_fd_sc_hd__inv_1
*CAP
1 *7952:A 0.000164857
2 *7951:Y 0.000164857
3 *7952:A *7953:A 2.3541e-05
4 *7952:A *7954:A 1.14548e-05
5 *7952:A *7965:A 2.8266e-06
6 *7952:A *7967:A 3.92757e-05
*RES
1 *7951:Y *7952:A 30.1134 
*END

*D_NET *630 0.000316338
*CONN
*I *7953:A I *D sky130_fd_sc_hd__inv_1
*I *7952:Y O *D sky130_fd_sc_hd__inv_1
*CAP
1 *7953:A 0.000127175
2 *7952:Y 0.000127175
3 *7953:A *7954:A 3.84463e-05
4 *7952:A *7953:A 2.3541e-05
*RES
1 *7952:Y *7953:A 21.1268 
*END

*D_NET *631 0.000532959
*CONN
*I *7954:A I *D sky130_fd_sc_hd__inv_1
*I *7953:Y O *D sky130_fd_sc_hd__inv_1
*CAP
1 *7954:A 0.000207769
2 *7953:Y 0.000207769
3 *7954:A *7955:A 2.80853e-05
4 *7954:A *7963:A 1.37743e-05
5 *7954:A *7965:A 2.56601e-05
6 *7952:A *7954:A 1.14548e-05
7 *7953:A *7954:A 3.84463e-05
*RES
1 *7953:Y *7954:A 30.6759 
*END

*D_NET *632 0.000297304
*CONN
*I *7955:A I *D sky130_fd_sc_hd__inv_1
*I *7954:Y O *D sky130_fd_sc_hd__inv_1
*CAP
1 *7955:A 0.000114096
2 *7954:Y 0.000114096
3 *7955:A *7956:A 2.1507e-05
4 *7955:A *7963:A 1.95199e-05
5 *7954:A *7955:A 2.80853e-05
*RES
1 *7954:Y *7955:A 20.8277 
*END

*D_NET *633 0.000631644
*CONN
*I *7956:A I *D sky130_fd_sc_hd__inv_1
*I *7955:Y O *D sky130_fd_sc_hd__inv_1
*CAP
1 *7956:A 0.000211052
2 *7955:Y 0.000211052
3 *7956:A *7957:A 2.80853e-05
4 *7956:A *7962:A 3.00023e-05
5 *7956:A *7963:A 0.000129944
6 *7955:A *7956:A 2.1507e-05
*RES
1 *7955:Y *7956:A 30.9795 
*END

*D_NET *634 0.000618836
*CONN
*I *7957:A I *D sky130_fd_sc_hd__inv_1
*I *7956:Y O *D sky130_fd_sc_hd__inv_1
*CAP
1 *7957:A 7.59502e-05
2 *7956:Y 7.59502e-05
3 *7957:A *7958:A 0.000253888
4 *7957:A *7962:A 0.000118131
5 *7618:A *7957:A 6.68313e-05
6 *7956:A *7957:A 2.80853e-05
*RES
1 *7956:Y *7957:A 22.0598 
*END

*D_NET *635 0.000880888
*CONN
*I *7958:A I *D sky130_fd_sc_hd__inv_1
*I *7957:Y O *D sky130_fd_sc_hd__inv_1
*CAP
1 *7958:A 0.000254464
2 *7957:Y 0.000254464
3 *7958:A *7962:A 3.52416e-05
4 *7958:A *7963:A 3.52408e-05
5 *7618:A *7958:A 3.10085e-05
6 *7957:A *7958:A 0.000253888
7 *7960:A *7958:A 1.65822e-05
*RES
1 *7957:Y *7958:A 23.9393 
*END

*D_NET *636 0.000622964
*CONN
*I *7959:A I *D sky130_fd_sc_hd__inv_1
*I *7958:Y O *D sky130_fd_sc_hd__inv_1
*CAP
1 *7959:A 0.000237403
2 *7958:Y 0.000237403
3 *7959:A *7961:A 5.47661e-05
4 *7618:A *7959:A 3.33238e-05
5 *7960:A *7959:A 6.00681e-05
*RES
1 *7958:Y *7959:A 31.9348 
*END

*D_NET *637 0.00037204
*CONN
*I *7961:A I *D sky130_fd_sc_hd__inv_1
*I *7959:Y O *D sky130_fd_sc_hd__inv_1
*CAP
1 *7961:A 5.77287e-05
2 *7959:Y 5.77287e-05
3 *7961:A *7970:B 2.62908e-05
4 *7949:A *7961:A 0
5 *7959:A *7961:A 5.47661e-05
6 *7960:A *7961:A 0.000175526
*RES
1 *7959:Y *7961:A 20.8277 
*END

*D_NET *638 0.000642395
*CONN
*I *7962:A I *D sky130_fd_sc_hd__inv_1
*I *7960:Y O *D sky130_fd_sc_hd__inv_1
*CAP
1 *7962:A 7.33403e-05
2 *7960:Y 7.33403e-05
3 *7618:A *7962:A 0.000282433
4 *7956:A *7962:A 3.00023e-05
5 *7957:A *7962:A 0.000118131
6 *7958:A *7962:A 3.52416e-05
7 *7960:A *7962:A 2.99061e-05
*RES
1 *7960:Y *7962:A 22.0598 
*END

*D_NET *639 0.000636357
*CONN
*I *7970:B I *D sky130_fd_sc_hd__nand2_1
*I *7961:Y O *D sky130_fd_sc_hd__inv_1
*CAP
1 *7970:B 0.000206518
2 *7961:Y 0.000206518
3 *7949:A *7970:B 5.91426e-05
4 *7960:A *7970:B 3.88502e-05
5 *7961:A *7970:B 2.62908e-05
6 *7970:A *7970:B 9.90367e-05
*RES
1 *7961:Y *7970:B 22.9482 
*END

*D_NET *640 0.000874933
*CONN
*I *7963:A I *D sky130_fd_sc_hd__inv_1
*I *7962:Y O *D sky130_fd_sc_hd__inv_1
*CAP
1 *7963:A 0.000287235
2 *7962:Y 0.000287235
3 *7963:A *7964:A 7.90745e-05
4 *7963:A *7965:A 2.29085e-05
5 *7954:A *7963:A 1.37743e-05
6 *7955:A *7963:A 1.95199e-05
7 *7956:A *7963:A 0.000129944
8 *7958:A *7963:A 3.52408e-05
*RES
1 *7962:Y *7963:A 33.1714 
*END

*D_NET *641 0.00028888
*CONN
*I *7964:A I *D sky130_fd_sc_hd__inv_1
*I *7963:Y O *D sky130_fd_sc_hd__inv_1
*CAP
1 *7964:A 9.17572e-05
2 *7963:Y 9.17572e-05
3 *7964:A *7965:A 2.62908e-05
4 *7963:A *7964:A 7.90745e-05
*RES
1 *7963:Y *7964:A 20.8277 
*END

*D_NET *642 0.000466108
*CONN
*I *7965:A I *D sky130_fd_sc_hd__inv_1
*I *7964:Y O *D sky130_fd_sc_hd__inv_1
*CAP
1 *7965:A 0.000189967
2 *7964:Y 0.000189967
3 *7965:A *7967:A 8.48822e-06
4 *7952:A *7965:A 2.8266e-06
5 *7954:A *7965:A 2.56601e-05
6 *7963:A *7965:A 2.29085e-05
7 *7964:A *7965:A 2.62908e-05
*RES
1 *7964:Y *7965:A 30.6759 
*END

*D_NET *643 0.000113128
*CONN
*I *7966:A I *D sky130_fd_sc_hd__inv_1
*I *7965:Y O *D sky130_fd_sc_hd__inv_1
*CAP
1 *7966:A 3.7518e-05
2 *7965:Y 3.7518e-05
3 *7966:A *7967:A 3.80922e-05
*RES
1 *7965:Y *7966:A 19.4973 
*END

*D_NET *644 0.000725285
*CONN
*I *7967:A I *D sky130_fd_sc_hd__inv_1
*I *7966:Y O *D sky130_fd_sc_hd__inv_1
*CAP
1 *7967:A 0.000309499
2 *7966:Y 0.000309499
3 *7940:A *7967:A 1.76039e-05
4 *7951:A *7967:A 2.8266e-06
5 *7952:A *7967:A 3.92757e-05
6 *7965:A *7967:A 8.48822e-06
7 *7966:A *7967:A 3.80922e-05
*RES
1 *7966:Y *7967:A 32.2116 
*END

*D_NET *645 0.000473836
*CONN
*I *7968:A I *D sky130_fd_sc_hd__inv_1
*I *7967:Y O *D sky130_fd_sc_hd__inv_1
*CAP
1 *7968:A 0.000140856
2 *7967:Y 0.000140856
3 *7968:A *7939:A 0.000157104
4 *7940:A *7968:A 3.50194e-05
*RES
1 *7967:Y *7968:A 21.7205 
*END

*D_NET *646 0.000366566
*CONN
*I *7939:A I *D sky130_fd_sc_hd__inv_1
*I *7968:Y O *D sky130_fd_sc_hd__inv_1
*CAP
1 *7939:A 7.73479e-05
2 *7968:Y 7.73479e-05
3 *7940:A *7939:A 5.47661e-05
4 *7968:A *7939:A 0.000157104
*RES
1 *7968:Y *7939:A 20.8991 
*END

*D_NET *647 0.00232569
*CONN
*I *7387:A1 I *D sky130_fd_sc_hd__mux4_2
*I *7969:X O *D sky130_fd_sc_hd__buf_1
*CAP
1 *7387:A1 0.000831298
2 *7969:X 0.000831298
3 *7387:A1 *7387:A3 0.000157459
4 *7387:A1 *8010:A 1.66856e-05
5 *7387:A1 *8025:A 0.000139907
6 *7387:A1 *8033:A 0.000333749
7 *7387:A1 *688:12 1.52978e-05
8 *7824:A *7387:A1 0
*RES
1 *7969:X *7387:A1 42.1357 
*END

*D_NET *648 0.000541635
*CONN
*I *8002:A I *D sky130_fd_sc_hd__nand2_1
*I *7405:X O *D sky130_fd_sc_hd__and3_2
*CAP
1 *8002:A 7.54251e-05
2 *7405:X 7.54251e-05
3 *7394:A2 *8002:A 6.42095e-05
4 *7394:S0 *8002:A 0.00018372
5 *7405:C *8002:A 0.000142856
*RES
1 *7405:X *8002:A 21.1893 
*END

*D_NET *649 0.000649436
*CONN
*I *7981:A I *D sky130_fd_sc_hd__inv_1
*I *8002:Y O *D sky130_fd_sc_hd__nand2_1
*CAP
1 *7981:A 0.000211331
2 *8002:Y 0.000211331
3 *7981:A *7992:A 7.3719e-05
4 *101:59 *7981:A 0.000153054
*RES
1 *8002:Y *7981:A 31.8813 
*END

*D_NET *650 0.00068779
*CONN
*I *7972:A I *D sky130_fd_sc_hd__inv_1
*I *7971:Y O *D sky130_fd_sc_hd__inv_1
*CAP
1 *7972:A 0.000221641
2 *7971:Y 0.000221641
3 *7972:A *7971:A 2.56601e-05
4 *7972:A *8000:A 3.47641e-06
5 *7406:B *7972:A 1.98839e-05
6 *102:40 *7972:A 0.000123589
7 *102:44 *7972:A 7.18982e-05
8 *228:59 *7972:A 0
*RES
1 *7971:Y *7972:A 31.4973 
*END

*D_NET *651 0.000649243
*CONN
*I *7973:A I *D sky130_fd_sc_hd__inv_1
*I *7972:Y O *D sky130_fd_sc_hd__inv_1
*CAP
1 *7973:A 0.000144926
2 *7972:Y 0.000144926
3 *7395:A2 *7973:A 9.60875e-05
4 *7405:C *7973:A 0.000126439
5 *100:89 *7973:A 0.000128146
6 *102:44 *7973:A 8.71761e-06
*RES
1 *7972:Y *7973:A 30.6759 
*END

*D_NET *652 0.000323611
*CONN
*I *7974:A I *D sky130_fd_sc_hd__inv_1
*I *7973:Y O *D sky130_fd_sc_hd__inv_1
*CAP
1 *7974:A 0.000161805
2 *7973:Y 0.000161805
*RES
1 *7973:Y *7974:A 21.1402 
*END

*D_NET *653 0.000257553
*CONN
*I *7975:A I *D sky130_fd_sc_hd__inv_1
*I *7974:Y O *D sky130_fd_sc_hd__inv_1
*CAP
1 *7975:A 0.000128777
2 *7974:Y 0.000128777
*RES
1 *7974:Y *7975:A 20.7295 
*END

*D_NET *654 0.000107065
*CONN
*I *7976:A I *D sky130_fd_sc_hd__inv_1
*I *7975:Y O *D sky130_fd_sc_hd__inv_1
*CAP
1 *7976:A 5.35325e-05
2 *7975:Y 5.35325e-05
*RES
1 *7975:Y *7976:A 19.4973 
*END

*D_NET *655 0.000700332
*CONN
*I *7977:A I *D sky130_fd_sc_hd__inv_1
*I *8001:A I *D sky130_fd_sc_hd__buf_1
*I *7976:Y O *D sky130_fd_sc_hd__inv_1
*CAP
1 *7977:A 0.000133655
2 *8001:A 0
3 *7976:Y 4.95801e-05
4 *655:6 0.000183235
5 *7977:A *7980:A 0.000221411
6 *99:45 *7977:A 0.000112451
*RES
1 *7976:Y *655:6 10.0411 
2 *655:6 *8001:A 9.3 
3 *655:6 *7977:A 21.9741 
*END

*D_NET *656 0.000123347
*CONN
*I *7978:A I *D sky130_fd_sc_hd__inv_1
*I *7977:Y O *D sky130_fd_sc_hd__inv_1
*CAP
1 *7978:A 6.16736e-05
2 *7977:Y 6.16736e-05
*RES
1 *7977:Y *7978:A 19.4973 
*END

*D_NET *657 0.00121744
*CONN
*I *7979:A I *D sky130_fd_sc_hd__inv_1
*I *7978:Y O *D sky130_fd_sc_hd__inv_1
*CAP
1 *7979:A 0.000179976
2 *7978:Y 0.000179976
3 *7406:A *7979:A 8.33504e-05
4 *99:45 *7979:A 0.000167256
5 *102:44 *7979:A 0.000195235
6 *120:104 *7979:A 9.82025e-05
7 *214:120 *7979:A 0.000177941
8 *214:139 *7979:A 0.000135502
*RES
1 *7978:Y *7979:A 33.8812 
*END

*D_NET *658 0.00106098
*CONN
*I *7980:A I *D sky130_fd_sc_hd__inv_1
*I *7979:Y O *D sky130_fd_sc_hd__inv_1
*CAP
1 *7980:A 0.000331833
2 *7979:Y 0.000331833
3 *7980:A *7982:A 5.7269e-05
4 *7977:A *7980:A 0.000221411
5 *99:45 *7980:A 4.19241e-05
6 *120:104 *7980:A 7.67146e-05
*RES
1 *7979:Y *7980:A 34.167 
*END

*D_NET *659 0.000291085
*CONN
*I *7982:A I *D sky130_fd_sc_hd__inv_1
*I *7980:Y O *D sky130_fd_sc_hd__inv_1
*CAP
1 *7982:A 0.000102924
2 *7980:Y 0.000102924
3 *7982:A *7983:A 2.79671e-05
4 *7980:A *7982:A 5.7269e-05
*RES
1 *7980:Y *7982:A 20.8277 
*END

*D_NET *660 0.000954125
*CONN
*I *7992:A I *D sky130_fd_sc_hd__inv_1
*I *7981:Y O *D sky130_fd_sc_hd__inv_1
*CAP
1 *7992:A 0.000270983
2 *7981:Y 0.000270983
3 *7992:A *7993:A 0
4 *7992:A *8002:B 1.37743e-05
5 *7981:A *7992:A 7.3719e-05
6 *101:59 *7992:A 6.39262e-05
7 *204:31 *7992:A 6.5185e-05
8 *221:55 *7992:A 0.000195555
*RES
1 *7981:Y *7992:A 33.7116 
*END

*D_NET *661 0.000415038
*CONN
*I *7983:A I *D sky130_fd_sc_hd__inv_1
*I *7982:Y O *D sky130_fd_sc_hd__inv_1
*CAP
1 *7983:A 0.000185246
2 *7982:Y 0.000185246
3 *7983:A *7984:A 1.65787e-05
4 *7982:A *7983:A 2.79671e-05
*RES
1 *7982:Y *7983:A 21.542 
*END

*D_NET *662 0.000325637
*CONN
*I *7984:A I *D sky130_fd_sc_hd__inv_1
*I *7983:Y O *D sky130_fd_sc_hd__inv_1
*CAP
1 *7984:A 0.000146736
2 *7983:Y 0.000146736
3 *7984:A *7985:A 1.14548e-05
4 *7395:B1 *7984:A 0
5 *7815:A *7984:A 4.13122e-06
6 *7983:A *7984:A 1.65787e-05
*RES
1 *7983:Y *7984:A 29.8098 
*END

*D_NET *663 0.000366671
*CONN
*I *7985:A I *D sky130_fd_sc_hd__inv_1
*I *7984:Y O *D sky130_fd_sc_hd__inv_1
*CAP
1 *7985:A 0.000163168
2 *7984:Y 0.000163168
3 *7985:A *7986:A 2.888e-05
4 *7984:A *7985:A 1.14548e-05
*RES
1 *7984:Y *7985:A 21.1313 
*END

*D_NET *664 0.000308931
*CONN
*I *7986:A I *D sky130_fd_sc_hd__inv_1
*I *7985:Y O *D sky130_fd_sc_hd__inv_1
*CAP
1 *7986:A 0.00013145
2 *7985:Y 0.00013145
3 *7986:A *7987:A 1.715e-05
4 *7985:A *7986:A 2.888e-05
*RES
1 *7985:Y *7986:A 21.1313 
*END

*D_NET *665 0.000686057
*CONN
*I *7987:A I *D sky130_fd_sc_hd__inv_1
*I *7986:Y O *D sky130_fd_sc_hd__inv_1
*CAP
1 *7987:A 0.000313384
2 *7986:Y 0.000313384
3 *7987:A *7988:A 1.32276e-05
4 *7381:A2 *7987:A 2.89114e-05
5 *7815:A *7987:A 0
6 *7986:A *7987:A 1.715e-05
7 *100:89 *7987:A 0
*RES
1 *7986:Y *7987:A 32.5777 
*END

*D_NET *666 0.000525663
*CONN
*I *7988:A I *D sky130_fd_sc_hd__inv_1
*I *7987:Y O *D sky130_fd_sc_hd__inv_1
*CAP
1 *7988:A 0.000124995
2 *7987:Y 0.000124995
3 *7988:A *7989:A 7.18982e-05
4 *7395:B1 *7988:A 3.82062e-05
5 *7987:A *7988:A 1.32276e-05
6 *100:89 *7988:A 0.00015234
*RES
1 *7987:Y *7988:A 30.5688 
*END

*D_NET *667 0.00101153
*CONN
*I *7989:A I *D sky130_fd_sc_hd__inv_1
*I *7988:Y O *D sky130_fd_sc_hd__inv_1
*CAP
1 *7989:A 0.000316106
2 *7988:Y 0.000316106
3 *7989:A *7990:A 5.47661e-05
4 *7394:A0 *7989:A 3.69047e-06
5 *7395:B1 *7989:A 3.16457e-05
6 *7988:A *7989:A 7.18982e-05
7 *100:89 *7989:A 0.000107503
8 *102:40 *7989:A 0.000109809
*RES
1 *7988:Y *7989:A 34.4884 
*END

*D_NET *668 0.000333198
*CONN
*I *7990:A I *D sky130_fd_sc_hd__inv_1
*I *7989:Y O *D sky130_fd_sc_hd__inv_1
*CAP
1 *7990:A 0.000126071
2 *7989:Y 0.000126071
3 *7990:A *7991:A 2.62908e-05
4 *7989:A *7990:A 5.47661e-05
*RES
1 *7989:Y *7990:A 21.2384 
*END

*D_NET *669 0.000484829
*CONN
*I *7991:A I *D sky130_fd_sc_hd__inv_1
*I *7990:Y O *D sky130_fd_sc_hd__inv_1
*CAP
1 *7991:A 0.000222335
2 *7990:Y 0.000222335
3 *7991:A *7993:A 1.38679e-05
4 *7990:A *7991:A 2.62908e-05
*RES
1 *7990:Y *7991:A 21.9527 
*END

*D_NET *670 0.000932764
*CONN
*I *7993:A I *D sky130_fd_sc_hd__inv_1
*I *7991:Y O *D sky130_fd_sc_hd__inv_1
*CAP
1 *7993:A 0.000297226
2 *7991:Y 0.000297226
3 *7993:A *8002:B 1.14548e-05
4 *7991:A *7993:A 1.38679e-05
5 *7992:A *7993:A 0
6 *204:18 *7993:A 0.000241205
7 *204:31 *7993:A 3.92757e-05
8 *210:41 *7993:A 3.25078e-05
*RES
1 *7991:Y *7993:A 33.0598 
*END

*D_NET *671 0.000364337
*CONN
*I *7994:A I *D sky130_fd_sc_hd__inv_1
*I *7992:Y O *D sky130_fd_sc_hd__inv_1
*CAP
1 *7994:A 0.000120174
2 *7992:Y 0.000120174
3 *7994:A *7995:A 1.14548e-05
4 *7994:A *8002:B 4.18134e-06
5 *193:15 *7994:A 1.14548e-05
6 *204:18 *7994:A 4.65355e-05
7 *221:55 *7994:A 5.03626e-05
*RES
1 *7992:Y *7994:A 30.1134 
*END

*D_NET *672 0.000993879
*CONN
*I *8002:B I *D sky130_fd_sc_hd__nand2_1
*I *7993:Y O *D sky130_fd_sc_hd__inv_1
*CAP
1 *8002:B 0.000450127
2 *7993:Y 0.000450127
3 *7992:A *8002:B 1.37743e-05
4 *7993:A *8002:B 1.14548e-05
5 *7994:A *8002:B 4.18134e-06
6 *101:59 *8002:B 3.71247e-05
7 *101:65 *8002:B 2.70899e-05
*RES
1 *7993:Y *8002:B 33.2696 
*END

*D_NET *673 0.000749028
*CONN
*I *7995:A I *D sky130_fd_sc_hd__inv_1
*I *7994:Y O *D sky130_fd_sc_hd__inv_1
*CAP
1 *7995:A 0.000212005
2 *7994:Y 0.000212005
3 *7994:A *7995:A 1.14548e-05
4 *101:65 *7995:A 0.000138172
5 *193:15 *7995:A 4.89533e-05
6 *221:55 *7995:A 0.000126439
*RES
1 *7994:Y *7995:A 31.4973 
*END

*D_NET *674 0.000115452
*CONN
*I *7996:A I *D sky130_fd_sc_hd__inv_1
*I *7995:Y O *D sky130_fd_sc_hd__inv_1
*CAP
1 *7996:A 3.90782e-05
2 *7995:Y 3.90782e-05
3 *101:65 *7996:A 3.72958e-05
*RES
1 *7995:Y *7996:A 19.4973 
*END

*D_NET *675 0.000113633
*CONN
*I *7997:A I *D sky130_fd_sc_hd__inv_1
*I *7996:Y O *D sky130_fd_sc_hd__inv_1
*CAP
1 *7997:A 3.78572e-05
2 *7996:Y 3.78572e-05
3 *7425:B *7997:A 2.38951e-05
4 *101:65 *7997:A 1.4024e-05
*RES
1 *7996:Y *7997:A 19.4973 
*END

*D_NET *676 0.000442544
*CONN
*I *7998:A I *D sky130_fd_sc_hd__inv_1
*I *7997:Y O *D sky130_fd_sc_hd__inv_1
*CAP
1 *7998:A 8.15063e-05
2 *7997:Y 8.15063e-05
3 *7406:B *7998:A 6.64265e-06
4 *193:15 *7998:A 1.65822e-05
5 *204:18 *7998:A 0.000129868
6 *210:41 *7998:A 0.000126439
*RES
1 *7997:Y *7998:A 29.8545 
*END

*D_NET *677 0.000890734
*CONN
*I *7999:A I *D sky130_fd_sc_hd__inv_1
*I *7998:Y O *D sky130_fd_sc_hd__inv_1
*CAP
1 *7999:A 0.00017465
2 *7998:Y 0.00017465
3 *7425:C *7999:A 1.0562e-05
4 *118:94 *7999:A 0.000115346
5 *165:14 *7999:A 2.80853e-05
6 *193:15 *7999:A 9.91229e-06
7 *210:33 *7999:A 0.000243627
8 *210:41 *7999:A 0.00010326
9 *228:59 *7999:A 3.06406e-05
*RES
1 *7998:Y *7999:A 32.5866 
*END

*D_NET *678 0.000725073
*CONN
*I *8000:A I *D sky130_fd_sc_hd__inv_1
*I *7999:Y O *D sky130_fd_sc_hd__inv_1
*CAP
1 *8000:A 0.00026187
2 *7999:Y 0.00026187
3 *8000:A *7971:A 1.67305e-05
4 *7406:B *8000:A 1.37743e-05
5 *7426:B *8000:A 3.84385e-05
6 *7972:A *8000:A 3.47641e-06
7 *102:40 *8000:A 8.45492e-06
8 *165:14 *8000:A 9.57291e-05
9 *228:59 *8000:A 2.47293e-05
*RES
1 *7999:Y *8000:A 31.8009 
*END

*D_NET *679 0.000468237
*CONN
*I *7971:A I *D sky130_fd_sc_hd__inv_1
*I *8000:Y O *D sky130_fd_sc_hd__inv_1
*CAP
1 *7971:A 0.000165981
2 *8000:Y 0.000165981
3 *7406:B *7971:A 2.4087e-05
4 *7972:A *7971:A 2.56601e-05
5 *8000:A *7971:A 1.67305e-05
6 *102:40 *7971:A 0
7 *228:59 *7971:A 6.97972e-05
*RES
1 *8000:Y *7971:A 30.6313 
*END

*D_NET *680 0.000664617
*CONN
*I *7387:A2 I *D sky130_fd_sc_hd__mux4_2
*I *8001:X O *D sky130_fd_sc_hd__buf_1
*CAP
1 *7387:A2 0.00026383
2 *8001:X 0.00026383
3 *7387:S1 *7387:A2 0.000136958
*RES
1 *8001:X *7387:A2 21.6 
*END

*D_NET *681 0.00107589
*CONN
*I *8034:A I *D sky130_fd_sc_hd__nand2_1
*I *7406:X O *D sky130_fd_sc_hd__and3_2
*CAP
1 *8034:A 0.000477043
2 *7406:X 0.000477043
3 *8034:A *8013:A 3.93346e-05
4 *8034:A *8034:B 2.13546e-05
5 *7406:A *8034:A 1.97695e-05
6 *102:59 *8034:A 2.89114e-05
7 *120:92 *8034:A 1.24368e-05
*RES
1 *7406:X *8034:A 26.1536 
*END

*D_NET *682 0.000259458
*CONN
*I *8013:A I *D sky130_fd_sc_hd__inv_1
*I *8034:Y O *D sky130_fd_sc_hd__nand2_1
*CAP
1 *8013:A 5.10403e-05
2 *8034:Y 5.10403e-05
3 *8013:A *8034:B 0.000118043
4 *8034:A *8013:A 3.93346e-05
*RES
1 *8034:Y *8013:A 20.2563 
*END

*D_NET *683 0.000349219
*CONN
*I *8004:A I *D sky130_fd_sc_hd__inv_1
*I *8003:Y O *D sky130_fd_sc_hd__inv_1
*CAP
1 *8004:A 0.000147551
2 *8003:Y 0.000147551
3 *8004:A *8003:A 1.14548e-05
4 *8004:A *8005:A 4.2662e-05
*RES
1 *8003:Y *8004:A 21.1313 
*END

*D_NET *684 0.000403115
*CONN
*I *8005:A I *D sky130_fd_sc_hd__inv_1
*I *8004:Y O *D sky130_fd_sc_hd__inv_1
*CAP
1 *8005:A 0.000146662
2 *8004:Y 0.000146662
3 *8005:A *8027:A 6.71295e-05
4 *8004:A *8005:A 4.2662e-05
*RES
1 *8004:Y *8005:A 21.1313 
*END

*D_NET *685 0.000538173
*CONN
*I *8006:A I *D sky130_fd_sc_hd__inv_1
*I *8005:Y O *D sky130_fd_sc_hd__inv_1
*CAP
1 *8006:A 0.00023058
2 *8005:Y 0.00023058
3 *8006:A *8007:A 1.14548e-05
4 *8006:A *8027:A 6.55592e-05
*RES
1 *8005:Y *8006:A 30.9348 
*END

*D_NET *686 0.000315634
*CONN
*I *8007:A I *D sky130_fd_sc_hd__inv_1
*I *8006:Y O *D sky130_fd_sc_hd__inv_1
*CAP
1 *8007:A 0.000130759
2 *8006:Y 0.000130759
3 *8007:A *8008:A 4.2662e-05
4 *8006:A *8007:A 1.14548e-05
*RES
1 *8006:Y *8007:A 21.1313 
*END

*D_NET *687 0.000357519
*CONN
*I *8008:A I *D sky130_fd_sc_hd__inv_1
*I *8007:Y O *D sky130_fd_sc_hd__inv_1
*CAP
1 *8008:A 0.000144283
2 *8007:Y 0.000144283
3 *8008:A *688:12 2.62908e-05
4 *8007:A *8008:A 4.2662e-05
*RES
1 *8007:Y *8008:A 21.542 
*END

*D_NET *688 0.00106086
*CONN
*I *8009:A I *D sky130_fd_sc_hd__inv_1
*I *8033:A I *D sky130_fd_sc_hd__buf_1
*I *8008:Y O *D sky130_fd_sc_hd__inv_1
*CAP
1 *8009:A 0
2 *8033:A 9.24607e-05
3 *8008:Y 0.000182969
4 *688:12 0.00027543
5 *8033:A *7387:A3 5.62995e-05
6 *688:12 *8025:A 7.83659e-05
7 *7387:A1 *8033:A 0.000333749
8 *7387:A1 *688:12 1.52978e-05
9 *8008:A *688:12 2.62908e-05
*RES
1 *8008:Y *688:12 21.0946 
2 *688:12 *8033:A 12.4563 
3 *688:12 *8009:A 9.3 
*END

*D_NET *689 0.000462491
*CONN
*I *8010:A I *D sky130_fd_sc_hd__inv_1
*I *8009:Y O *D sky130_fd_sc_hd__inv_1
*CAP
1 *8010:A 0.000126264
2 *8009:Y 0.000126264
3 *8010:A *8023:A 0.000170287
4 *8010:A *8025:A 2.2991e-05
5 *7387:A1 *8010:A 1.66856e-05
*RES
1 *8009:Y *8010:A 21.6938 
*END

*D_NET *690 0.000156494
*CONN
*I *8011:A I *D sky130_fd_sc_hd__inv_1
*I *8010:Y O *D sky130_fd_sc_hd__inv_1
*CAP
1 *8011:A 3.03862e-05
2 *8010:Y 3.03862e-05
3 *8011:A *8023:A 9.57215e-05
*RES
1 *8010:Y *8011:A 19.4973 
*END

*D_NET *691 0.00019672
*CONN
*I *8012:A I *D sky130_fd_sc_hd__inv_1
*I *8011:Y O *D sky130_fd_sc_hd__inv_1
*CAP
1 *8012:A 5.88331e-05
2 *8011:Y 5.88331e-05
3 *8012:A *8023:A 7.90536e-05
*RES
1 *8011:Y *8012:A 19.908 
*END

*D_NET *692 0.000550049
*CONN
*I *8014:A I *D sky130_fd_sc_hd__inv_1
*I *8012:Y O *D sky130_fd_sc_hd__inv_1
*CAP
1 *8014:A 0.000275025
2 *8012:Y 0.000275025
*RES
1 *8012:Y *8014:A 31.3902 
*END

*D_NET *693 0.000504283
*CONN
*I *8024:A I *D sky130_fd_sc_hd__inv_1
*I *8013:Y O *D sky130_fd_sc_hd__inv_1
*CAP
1 *8024:A 0.000234521
2 *8013:Y 0.000234521
3 *8024:A *8034:B 3.52408e-05
4 *7388:B2 *8024:A 0
5 *125:16 *8024:A 0
*RES
1 *8013:Y *8024:A 31.3902 
*END

*D_NET *694 0.000204553
*CONN
*I *8015:A I *D sky130_fd_sc_hd__inv_1
*I *8014:Y O *D sky130_fd_sc_hd__inv_1
*CAP
1 *8015:A 0.000102277
2 *8014:Y 0.000102277
*RES
1 *8014:Y *8015:A 20.3188 
*END

*D_NET *695 0.000204553
*CONN
*I *8016:A I *D sky130_fd_sc_hd__inv_1
*I *8015:Y O *D sky130_fd_sc_hd__inv_1
*CAP
1 *8016:A 0.000102277
2 *8015:Y 0.000102277
*RES
1 *8015:Y *8016:A 20.3188 
*END

*D_NET *696 0.000536997
*CONN
*I *8017:A I *D sky130_fd_sc_hd__inv_1
*I *8016:Y O *D sky130_fd_sc_hd__inv_1
*CAP
1 *8017:A 0.000254456
2 *8016:Y 0.000254456
3 *8017:A *8018:A 2.80853e-05
*RES
1 *8016:Y *8017:A 30.9795 
*END

*D_NET *697 0.000315063
*CONN
*I *8018:A I *D sky130_fd_sc_hd__inv_1
*I *8017:Y O *D sky130_fd_sc_hd__inv_1
*CAP
1 *8018:A 0.000116106
2 *8017:Y 0.000116106
3 *8018:A *8019:A 5.47661e-05
4 *8017:A *8018:A 2.80853e-05
*RES
1 *8017:Y *8018:A 20.8991 
*END

*D_NET *698 0.000465271
*CONN
*I *8019:A I *D sky130_fd_sc_hd__inv_1
*I *8018:Y O *D sky130_fd_sc_hd__inv_1
*CAP
1 *8019:A 0.000199525
2 *8018:Y 0.000199525
3 *8019:A *8020:A 1.14548e-05
4 *8018:A *8019:A 5.47661e-05
*RES
1 *8018:Y *8019:A 30.9348 
*END

*D_NET *699 0.000415798
*CONN
*I *8020:A I *D sky130_fd_sc_hd__inv_1
*I *8019:Y O *D sky130_fd_sc_hd__inv_1
*CAP
1 *8020:A 0.000189026
2 *8019:Y 0.000189026
3 *8020:A *8021:A 2.62908e-05
4 *8019:A *8020:A 1.14548e-05
*RES
1 *8019:Y *8020:A 21.9527 
*END

*D_NET *700 0.000408254
*CONN
*I *8021:A I *D sky130_fd_sc_hd__inv_1
*I *8020:Y O *D sky130_fd_sc_hd__inv_1
*CAP
1 *8021:A 0.000177836
2 *8020:Y 0.000177836
3 *8021:A *8022:A 2.62908e-05
4 *8020:A *8021:A 2.62908e-05
*RES
1 *8020:Y *8021:A 21.9527 
*END

*D_NET *701 0.000463434
*CONN
*I *8022:A I *D sky130_fd_sc_hd__inv_1
*I *8021:Y O *D sky130_fd_sc_hd__inv_1
*CAP
1 *8022:A 0.000210224
2 *8021:Y 0.000210224
3 *8022:A *8023:A 1.66955e-05
4 *8021:A *8022:A 2.62908e-05
*RES
1 *8021:Y *8022:A 22.3634 
*END

*D_NET *702 0.0010279
*CONN
*I *8023:A I *D sky130_fd_sc_hd__inv_1
*I *8022:Y O *D sky130_fd_sc_hd__inv_1
*CAP
1 *8023:A 0.000312133
2 *8022:Y 0.000312133
3 *8023:A *8025:A 4.18799e-05
4 *8010:A *8023:A 0.000170287
5 *8011:A *8023:A 9.57215e-05
6 *8012:A *8023:A 7.90536e-05
7 *8022:A *8023:A 1.66955e-05
*RES
1 *8022:Y *8023:A 33.7562 
*END

*D_NET *703 0.000934505
*CONN
*I *8025:A I *D sky130_fd_sc_hd__inv_1
*I *8023:Y O *D sky130_fd_sc_hd__inv_1
*CAP
1 *8025:A 0.000312535
2 *8023:Y 0.000312535
3 *8025:A *8034:B 2.62908e-05
4 *7387:A1 *8025:A 0.000139907
5 *7388:B2 *8025:A 0
6 *8010:A *8025:A 2.2991e-05
7 *8023:A *8025:A 4.18799e-05
8 *688:12 *8025:A 7.83659e-05
*RES
1 *8023:Y *8025:A 32.6848 
*END

*D_NET *704 0.000302314
*CONN
*I *8026:A I *D sky130_fd_sc_hd__inv_1
*I *8024:Y O *D sky130_fd_sc_hd__inv_1
*CAP
1 *8026:A 0.000151157
2 *8024:Y 0.000151157
*RES
1 *8024:Y *8026:A 21.1402 
*END

*D_NET *705 0.000601064
*CONN
*I *8034:B I *D sky130_fd_sc_hd__nand2_1
*I *8025:Y O *D sky130_fd_sc_hd__inv_1
*CAP
1 *8034:B 0.000200068
2 *8025:Y 0.000200068
3 *8013:A *8034:B 0.000118043
4 *8024:A *8034:B 3.52408e-05
5 *8025:A *8034:B 2.62908e-05
6 *8034:A *8034:B 2.13546e-05
*RES
1 *8025:Y *8034:B 22.5375 
*END

*D_NET *706 0.00081879
*CONN
*I *8027:A I *D sky130_fd_sc_hd__inv_1
*I *8026:Y O *D sky130_fd_sc_hd__inv_1
*CAP
1 *8027:A 0.000343051
2 *8026:Y 0.000343051
3 *8027:A *8003:A 0
4 *8027:A *8029:A 0
5 *8005:A *8027:A 6.71295e-05
6 *8006:A *8027:A 6.55592e-05
*RES
1 *8026:Y *8027:A 32.9661 
*END

*D_NET *707 0.000107955
*CONN
*I *8028:A I *D sky130_fd_sc_hd__inv_1
*I *8027:Y O *D sky130_fd_sc_hd__inv_1
*CAP
1 *8028:A 5.39773e-05
2 *8027:Y 5.39773e-05
*RES
1 *8027:Y *8028:A 19.4973 
*END

*D_NET *708 0.000339426
*CONN
*I *8029:A I *D sky130_fd_sc_hd__inv_1
*I *8028:Y O *D sky130_fd_sc_hd__inv_1
*CAP
1 *8029:A 0.000146078
2 *8028:Y 0.000146078
3 *8029:A *8003:A 1.79639e-05
4 *8029:A *8031:A 5.7661e-06
5 *8029:A *8032:A 2.3541e-05
6 *8027:A *8029:A 0
*RES
1 *8028:Y *8029:A 21.283 
*END

*D_NET *709 0.00016283
*CONN
*I *8030:A I *D sky130_fd_sc_hd__inv_1
*I *8029:Y O *D sky130_fd_sc_hd__inv_1
*CAP
1 *8030:A 3.3554e-05
2 *8029:Y 3.3554e-05
3 *8030:A *8031:A 9.57215e-05
*RES
1 *8029:Y *8030:A 19.4973 
*END

*D_NET *710 0.000757819
*CONN
*I *8031:A I *D sky130_fd_sc_hd__inv_1
*I *8030:Y O *D sky130_fd_sc_hd__inv_1
*CAP
1 *8031:A 0.000305031
2 *8030:Y 0.000305031
3 *8031:A *8032:A 4.62705e-05
4 *8029:A *8031:A 5.7661e-06
5 *8030:A *8031:A 9.57215e-05
*RES
1 *8030:Y *8031:A 33.3098 
*END

*D_NET *711 0.000379031
*CONN
*I *8032:A I *D sky130_fd_sc_hd__inv_1
*I *8031:Y O *D sky130_fd_sc_hd__inv_1
*CAP
1 *8032:A 0.000147572
2 *8031:Y 0.000147572
3 *8032:A *8003:A 1.40749e-05
4 *8029:A *8032:A 2.3541e-05
5 *8031:A *8032:A 4.62705e-05
*RES
1 *8031:Y *8032:A 30.1134 
*END

*D_NET *712 0.000398919
*CONN
*I *8003:A I *D sky130_fd_sc_hd__inv_1
*I *8032:Y O *D sky130_fd_sc_hd__inv_1
*CAP
1 *8003:A 0.000177713
2 *8032:Y 0.000177713
3 *8004:A *8003:A 1.14548e-05
4 *8027:A *8003:A 0
5 *8029:A *8003:A 1.79639e-05
6 *8032:A *8003:A 1.40749e-05
*RES
1 *8032:Y *8003:A 30.2205 
*END

*D_NET *713 0.000992475
*CONN
*I *7387:A3 I *D sky130_fd_sc_hd__mux4_2
*I *8033:X O *D sky130_fd_sc_hd__buf_1
*CAP
1 *7387:A3 0.000361747
2 *8033:X 0.000361747
3 *7387:A1 *7387:A3 0.000157459
4 *7387:S1 *7387:A3 5.52238e-05
5 *8033:A *7387:A3 5.62995e-05
*RES
1 *8033:X *7387:A3 25.7429 
*END

*D_NET *714 0.00131212
*CONN
*I *8066:A I *D sky130_fd_sc_hd__nand2_1
*I *7407:X O *D sky130_fd_sc_hd__and3_2
*CAP
1 *8066:A 0.000292695
2 *7407:X 0.000292695
3 *7407:A *8066:A 2.59355e-05
4 *98:105 *8066:A 0.000342495
5 *116:12 *8066:A 0.000342495
6 *205:61 *8066:A 1.58029e-05
*RES
1 *7407:X *8066:A 34.1536 
*END

*D_NET *715 0.000274088
*CONN
*I *8045:A I *D sky130_fd_sc_hd__inv_1
*I *8066:Y O *D sky130_fd_sc_hd__nand2_1
*CAP
1 *8045:A 8.61797e-05
2 *8066:Y 8.61797e-05
3 *8045:A *8047:A 0
4 *8045:A *8048:A 0
5 *8045:A *8049:A 0.000101729
*RES
1 *8066:Y *8045:A 20.2563 
*END

*D_NET *716 0.000325169
*CONN
*I *8036:A I *D sky130_fd_sc_hd__inv_1
*I *8035:Y O *D sky130_fd_sc_hd__inv_1
*CAP
1 *8036:A 7.8461e-05
2 *8035:Y 7.8461e-05
3 *8036:A *8035:A 0.000149485
4 *8036:A *8037:A 1.87618e-05
*RES
1 *8035:Y *8036:A 20.8277 
*END

*D_NET *717 0.000425705
*CONN
*I *8037:A I *D sky130_fd_sc_hd__inv_1
*I *8036:Y O *D sky130_fd_sc_hd__inv_1
*CAP
1 *8037:A 0.000194541
2 *8036:Y 0.000194541
3 *8037:A *8035:A 6.40534e-06
4 *8037:A *8038:A 1.14548e-05
5 *8036:A *8037:A 1.87618e-05
*RES
1 *8036:Y *8037:A 30.5241 
*END

*D_NET *718 0.000365336
*CONN
*I *8038:A I *D sky130_fd_sc_hd__inv_1
*I *8037:Y O *D sky130_fd_sc_hd__inv_1
*CAP
1 *8038:A 0.000168605
2 *8037:Y 0.000168605
3 *8038:A *8039:A 1.66718e-05
4 *8037:A *8038:A 1.14548e-05
*RES
1 *8037:Y *8038:A 21.6625 
*END

*D_NET *719 0.000489096
*CONN
*I *8039:A I *D sky130_fd_sc_hd__inv_1
*I *8038:Y O *D sky130_fd_sc_hd__inv_1
*CAP
1 *8039:A 0.000201547
2 *8038:Y 0.000201547
3 *8039:A *8040:A 1.40749e-05
4 *7673:A *8039:A 5.52558e-05
5 *8038:A *8039:A 1.66718e-05
6 *124:36 *8039:A 0
*RES
1 *8038:Y *8039:A 30.6313 
*END

*D_NET *720 0.00034301
*CONN
*I *8040:A I *D sky130_fd_sc_hd__inv_1
*I *8039:Y O *D sky130_fd_sc_hd__inv_1
*CAP
1 *8040:A 0.000111575
2 *8039:Y 0.000111575
3 *7673:A *8040:A 0.000105785
4 *8039:A *8040:A 1.40749e-05
*RES
1 *8039:Y *8040:A 21.1313 
*END

*D_NET *721 0.0010467
*CONN
*I *8065:A I *D sky130_fd_sc_hd__buf_1
*I *8041:A I *D sky130_fd_sc_hd__inv_1
*I *8040:Y O *D sky130_fd_sc_hd__inv_1
*CAP
1 *8065:A 0.000130816
2 *8041:A 0
3 *8040:Y 0.00022072
4 *721:14 0.000351536
5 *721:14 *8042:A 1.89695e-05
6 *7673:A *721:14 0.000171189
7 *7682:B *8065:A 0
8 *7682:B *721:14 3.6092e-05
9 *124:36 *8065:A 0.000117378
10 *205:61 *8065:A 0
*RES
1 *8040:Y *721:14 13.3134 
2 *721:14 *8041:A 9.3 
3 *721:14 *8065:A 21.1571 
*END

*D_NET *722 0.000539214
*CONN
*I *8042:A I *D sky130_fd_sc_hd__inv_1
*I *8041:Y O *D sky130_fd_sc_hd__inv_1
*CAP
1 *8042:A 0.000165499
2 *8041:Y 0.000165499
3 *8042:A *8043:A 8.77009e-05
4 *124:36 *8042:A 0.000101545
5 *205:61 *8042:A 0
6 *721:14 *8042:A 1.89695e-05
*RES
1 *8041:Y *8042:A 30.9527 
*END

*D_NET *723 0.000316965
*CONN
*I *8043:A I *D sky130_fd_sc_hd__inv_1
*I *8042:Y O *D sky130_fd_sc_hd__inv_1
*CAP
1 *8043:A 0.00010762
2 *8042:Y 0.00010762
3 *8043:A *8044:A 1.4024e-05
4 *8042:A *8043:A 8.77009e-05
*RES
1 *8042:Y *8043:A 20.8277 
*END

*D_NET *724 0.000466301
*CONN
*I *8044:A I *D sky130_fd_sc_hd__inv_1
*I *8043:Y O *D sky130_fd_sc_hd__inv_1
*CAP
1 *8044:A 9.96801e-05
2 *8043:Y 9.96801e-05
3 *8044:A *8046:A 2.79827e-05
4 *8044:A *8059:A 7.60306e-05
5 *8043:A *8044:A 1.4024e-05
6 *124:36 *8044:A 0.000148903
*RES
1 *8043:Y *8044:A 30.158 
*END

*D_NET *725 0.000317073
*CONN
*I *8046:A I *D sky130_fd_sc_hd__inv_1
*I *8044:Y O *D sky130_fd_sc_hd__inv_1
*CAP
1 *8046:A 0.000133496
2 *8044:Y 0.000133496
3 *8046:A *8047:A 2.20987e-05
4 *8046:A *8048:A 0
5 *8044:A *8046:A 2.79827e-05
*RES
1 *8044:Y *8046:A 20.8277 
*END

*D_NET *726 0.000438919
*CONN
*I *8056:A I *D sky130_fd_sc_hd__inv_1
*I *8045:Y O *D sky130_fd_sc_hd__inv_1
*CAP
1 *8056:A 9.88732e-05
2 *8045:Y 9.88732e-05
3 *8056:A *8049:A 3.28686e-05
4 *102:74 *8056:A 0.000154762
5 *205:61 *8056:A 5.35423e-05
*RES
1 *8045:Y *8056:A 30.158 
*END

*D_NET *727 0.000322188
*CONN
*I *8047:A I *D sky130_fd_sc_hd__inv_1
*I *8046:Y O *D sky130_fd_sc_hd__inv_1
*CAP
1 *8047:A 0.000136941
2 *8046:Y 0.000136941
3 *8047:A *8048:A 2.6207e-05
4 *8045:A *8047:A 0
5 *8046:A *8047:A 2.20987e-05
*RES
1 *8046:Y *8047:A 20.9705 
*END

*D_NET *728 0.000288469
*CONN
*I *8048:A I *D sky130_fd_sc_hd__inv_1
*I *8047:Y O *D sky130_fd_sc_hd__inv_1
*CAP
1 *8048:A 0.000118331
2 *8047:Y 0.000118331
3 *8048:A *8049:A 2.55987e-05
4 *8045:A *8048:A 0
5 *8046:A *8048:A 0
6 *8047:A *8048:A 2.6207e-05
*RES
1 *8047:Y *8048:A 20.8277 
*END

*D_NET *729 0.00123162
*CONN
*I *8049:A I *D sky130_fd_sc_hd__inv_1
*I *8048:Y O *D sky130_fd_sc_hd__inv_1
*CAP
1 *8049:A 0.000331268
2 *8048:Y 0.000331268
3 *8049:A *8050:A 5.10796e-05
4 *8049:A *8066:B 6.05161e-06
5 *7382:S1 *8049:A 0.000175519
6 *8045:A *8049:A 0.000101729
7 *8048:A *8049:A 2.55987e-05
8 *8056:A *8049:A 3.28686e-05
9 *98:105 *8049:A 0.000176234
*RES
1 *8048:Y *8049:A 34.1848 
*END

*D_NET *730 0.000472349
*CONN
*I *8050:A I *D sky130_fd_sc_hd__inv_1
*I *8049:Y O *D sky130_fd_sc_hd__inv_1
*CAP
1 *8050:A 0.000202587
2 *8049:Y 0.000202587
3 *8050:A *8051:A 1.60947e-05
4 *8049:A *8050:A 5.10796e-05
*RES
1 *8049:Y *8050:A 22.1313 
*END

*D_NET *731 0.00035966
*CONN
*I *8051:A I *D sky130_fd_sc_hd__inv_1
*I *8050:Y O *D sky130_fd_sc_hd__inv_1
*CAP
1 *8051:A 0.000160012
2 *8050:Y 0.000160012
3 *8051:A *8057:A 2.3541e-05
4 *8050:A *8051:A 1.60947e-05
*RES
1 *8050:Y *8051:A 30.1134 
*END

*D_NET *732 0.000690125
*CONN
*I *8052:A I *D sky130_fd_sc_hd__inv_1
*I *8051:Y O *D sky130_fd_sc_hd__inv_1
*CAP
1 *8052:A 0.000222762
2 *8051:Y 0.000222762
3 *8052:A *8053:A 5.8485e-05
4 *8052:A *8055:A 4.27415e-05
5 *8052:A *8057:A 0.000143375
*RES
1 *8051:Y *8052:A 22.6848 
*END

*D_NET *733 0.000308761
*CONN
*I *8053:A I *D sky130_fd_sc_hd__inv_1
*I *8052:Y O *D sky130_fd_sc_hd__inv_1
*CAP
1 *8053:A 7.42999e-05
2 *8052:Y 7.42999e-05
3 *8053:A *8054:A 3.32746e-05
4 *8053:A *8055:A 6.84016e-05
5 *8052:A *8053:A 5.8485e-05
*RES
1 *8052:Y *8053:A 20.8277 
*END

*D_NET *734 0.000369818
*CONN
*I *8054:A I *D sky130_fd_sc_hd__inv_1
*I *8053:Y O *D sky130_fd_sc_hd__inv_1
*CAP
1 *8054:A 0.000104093
2 *8053:Y 0.000104093
3 *8054:A *8055:A 0.000128357
4 *8054:A *8079:A 0
5 *8053:A *8054:A 3.32746e-05
*RES
1 *8053:Y *8054:A 21.1313 
*END

*D_NET *735 0.000808638
*CONN
*I *8055:A I *D sky130_fd_sc_hd__inv_1
*I *8054:Y O *D sky130_fd_sc_hd__inv_1
*CAP
1 *8055:A 0.000284569
2 *8054:Y 0.000284569
3 *8052:A *8055:A 4.27415e-05
4 *8053:A *8055:A 6.84016e-05
5 *8054:A *8055:A 0.000128357
*RES
1 *8054:Y *8055:A 23.0866 
*END

*D_NET *736 0.00039762
*CONN
*I *8057:A I *D sky130_fd_sc_hd__inv_1
*I *8055:Y O *D sky130_fd_sc_hd__inv_1
*CAP
1 *8057:A 0.000115352
2 *8055:Y 0.000115352
3 *8051:A *8057:A 2.3541e-05
4 *8052:A *8057:A 0.000143375
*RES
1 *8055:Y *8057:A 21.283 
*END

*D_NET *737 0.000221108
*CONN
*I *8058:A I *D sky130_fd_sc_hd__inv_1
*I *8056:Y O *D sky130_fd_sc_hd__inv_1
*CAP
1 *8058:A 0.000110554
2 *8056:Y 0.000110554
*RES
1 *8056:Y *8058:A 20.3188 
*END

*D_NET *738 0.000292451
*CONN
*I *8066:B I *D sky130_fd_sc_hd__nand2_1
*I *8057:Y O *D sky130_fd_sc_hd__inv_1
*CAP
1 *8066:B 0.0001432
2 *8057:Y 0.0001432
3 *8049:A *8066:B 6.05161e-06
*RES
1 *8057:Y *8066:B 20.5732 
*END

*D_NET *739 0.000777267
*CONN
*I *8059:A I *D sky130_fd_sc_hd__inv_1
*I *8058:Y O *D sky130_fd_sc_hd__inv_1
*CAP
1 *8059:A 0.000320237
2 *8058:Y 0.000320237
3 *8044:A *8059:A 7.60306e-05
4 *124:36 *8059:A 6.07626e-05
5 *205:61 *8059:A 0
*RES
1 *8058:Y *8059:A 33.5152 
*END

*D_NET *740 0.000158162
*CONN
*I *8060:A I *D sky130_fd_sc_hd__inv_1
*I *8059:Y O *D sky130_fd_sc_hd__inv_1
*CAP
1 *8060:A 7.90808e-05
2 *8059:Y 7.90808e-05
*RES
1 *8059:Y *8060:A 19.908 
*END

*D_NET *741 0.000155673
*CONN
*I *8061:A I *D sky130_fd_sc_hd__inv_1
*I *8060:Y O *D sky130_fd_sc_hd__inv_1
*CAP
1 *8061:A 7.78365e-05
2 *8060:Y 7.78365e-05
*RES
1 *8060:Y *8061:A 19.908 
*END

*D_NET *742 0.00021546
*CONN
*I *8062:A I *D sky130_fd_sc_hd__inv_1
*I *8061:Y O *D sky130_fd_sc_hd__inv_1
*CAP
1 *8062:A 0.000100843
2 *8061:Y 0.000100843
3 *8062:A *8063:A 1.37743e-05
*RES
1 *8061:Y *8062:A 20.3188 
*END

*D_NET *743 0.000748583
*CONN
*I *8063:A I *D sky130_fd_sc_hd__inv_1
*I *8062:Y O *D sky130_fd_sc_hd__inv_1
*CAP
1 *8063:A 0.000311201
2 *8062:Y 0.000311201
3 *8063:A *8035:A 1.66856e-05
4 *8063:A *8064:A 9.57215e-05
5 *8062:A *8063:A 1.37743e-05
*RES
1 *8062:Y *8063:A 32.9125 
*END

*D_NET *744 0.00016283
*CONN
*I *8064:A I *D sky130_fd_sc_hd__inv_1
*I *8063:Y O *D sky130_fd_sc_hd__inv_1
*CAP
1 *8064:A 3.3554e-05
2 *8063:Y 3.3554e-05
3 *8063:A *8064:A 9.57215e-05
*RES
1 *8063:Y *8064:A 19.4973 
*END

*D_NET *745 0.000471936
*CONN
*I *8035:A I *D sky130_fd_sc_hd__inv_1
*I *8064:Y O *D sky130_fd_sc_hd__inv_1
*CAP
1 *8035:A 0.00014968
2 *8064:Y 0.00014968
3 *8036:A *8035:A 0.000149485
4 *8037:A *8035:A 6.40534e-06
5 *8063:A *8035:A 1.66856e-05
*RES
1 *8064:Y *8035:A 21.7205 
*END

*D_NET *746 0.00111941
*CONN
*I *7385:A0 I *D sky130_fd_sc_hd__mux4_2
*I *8065:X O *D sky130_fd_sc_hd__buf_1
*CAP
1 *7385:A0 0.00049564
2 *8065:X 0.00049564
3 *7385:A0 *7385:A1 0
4 *7674:A *7385:A0 3.82062e-05
5 *7675:A *7385:A0 8.99249e-05
6 *7681:A *7385:A0 0
7 *102:59 *7385:A0 0
8 *124:36 *7385:A0 0
9 *325:10 *7385:A0 0
*RES
1 *8065:X *7385:A0 35.2786 
*END

*D_NET *747 0.000536417
*CONN
*I *8098:A I *D sky130_fd_sc_hd__nand2_1
*I *7408:X O *D sky130_fd_sc_hd__and3_2
*CAP
1 *8098:A 0.000147667
2 *7408:X 0.000147667
3 *7408:B *8098:A 5.71472e-05
4 *101:80 *8098:A 6.6593e-05
5 *221:55 *8098:A 0.000117342
*RES
1 *7408:X *8098:A 30.7429 
*END

*D_NET *748 0.000206092
*CONN
*I *8077:A I *D sky130_fd_sc_hd__inv_1
*I *8098:Y O *D sky130_fd_sc_hd__nand2_1
*CAP
1 *8077:A 0.000103046
2 *8098:Y 0.000103046
*RES
1 *8098:Y *8077:A 20.2563 
*END

*D_NET *749 0.000676004
*CONN
*I *8068:A I *D sky130_fd_sc_hd__inv_1
*I *8067:Y O *D sky130_fd_sc_hd__inv_1
*CAP
1 *8068:A 0.000248725
2 *8067:Y 0.000248725
3 *8068:A *8067:A 0
4 *8068:A *8070:A 3.34783e-05
5 *7395:A2 *8068:A 0
6 *7408:B *8068:A 2.05652e-05
7 *7623:A *8068:A 1.14548e-05
8 *7624:A *8068:A 3.86189e-06
9 *100:114 *8068:A 0.000109195
*RES
1 *8067:Y *8068:A 31.4973 
*END

*D_NET *750 0.000127269
*CONN
*I *8069:A I *D sky130_fd_sc_hd__inv_1
*I *8068:Y O *D sky130_fd_sc_hd__inv_1
*CAP
1 *8069:A 2.06567e-05
2 *8068:Y 2.06567e-05
3 *8069:A *8070:A 5.11359e-05
4 *7408:B *8069:A 3.48196e-05
*RES
1 *8068:Y *8069:A 19.4973 
*END

*D_NET *751 0.000557031
*CONN
*I *8070:A I *D sky130_fd_sc_hd__inv_1
*I *8069:Y O *D sky130_fd_sc_hd__inv_1
*CAP
1 *8070:A 0.000226727
2 *8069:Y 0.000226727
3 *8070:A *8067:A 0
4 *7408:B *8070:A 6.10177e-06
5 *7623:A *8070:A 2.8266e-06
6 *8068:A *8070:A 3.34783e-05
7 *8069:A *8070:A 5.11359e-05
8 *100:114 *8070:A 1.00332e-05
*RES
1 *8069:Y *8070:A 31.042 
*END

*D_NET *752 0.000609031
*CONN
*I *8071:A I *D sky130_fd_sc_hd__inv_1
*I *8070:Y O *D sky130_fd_sc_hd__inv_1
*CAP
1 *8071:A 0.000262247
2 *8070:Y 0.000262247
3 *8071:A *8073:A 2.39441e-05
4 *8071:A *8097:A 3.6337e-05
5 *7408:B *8071:A 2.42557e-05
*RES
1 *8070:Y *8071:A 31.4973 
*END

*D_NET *753 0.00012949
*CONN
*I *8072:A I *D sky130_fd_sc_hd__inv_1
*I *8071:Y O *D sky130_fd_sc_hd__inv_1
*CAP
1 *8072:A 2.27283e-05
2 *8071:Y 2.27283e-05
3 *8072:A *754:8 4.97821e-05
4 *7408:B *8072:A 3.42511e-05
*RES
1 *8071:Y *8072:A 19.4973 
*END

*D_NET *754 0.00161733
*CONN
*I *8073:A I *D sky130_fd_sc_hd__inv_1
*I *8097:A I *D sky130_fd_sc_hd__buf_1
*I *8072:Y O *D sky130_fd_sc_hd__inv_1
*CAP
1 *8073:A 0.000301818
2 *8097:A 0.000220748
3 *8072:Y 0.000124298
4 *754:8 0.000646863
5 *8073:A *8074:A 5.42373e-05
6 *7408:B *754:8 5.78736e-06
7 *7626:A *8097:A 0.000153519
8 *8071:A *8073:A 2.39441e-05
9 *8071:A *8097:A 3.6337e-05
10 *8072:A *754:8 4.97821e-05
11 *100:114 *8073:A 0
*RES
1 *8072:Y *754:8 15.3625 
2 *754:8 *8097:A 17.8714 
3 *754:8 *8073:A 19.2152 
*END

*D_NET *755 0.000446334
*CONN
*I *8074:A I *D sky130_fd_sc_hd__inv_1
*I *8073:Y O *D sky130_fd_sc_hd__inv_1
*CAP
1 *8074:A 0.00016889
2 *8073:Y 0.00016889
3 *8074:A *8075:A 5.43173e-05
4 *8073:A *8074:A 5.42373e-05
*RES
1 *8073:Y *8074:A 21.7205 
*END

*D_NET *756 0.000568713
*CONN
*I *8075:A I *D sky130_fd_sc_hd__inv_1
*I *8074:Y O *D sky130_fd_sc_hd__inv_1
*CAP
1 *8075:A 0.000180948
2 *8074:Y 0.000180948
3 *8075:A *8076:A 5.87622e-05
4 *7395:A2 *8075:A 4.79842e-05
5 *8074:A *8075:A 5.43173e-05
6 *100:114 *8075:A 4.57538e-05
*RES
1 *8074:Y *8075:A 31.542 
*END

*D_NET *757 0.000305218
*CONN
*I *8076:A I *D sky130_fd_sc_hd__inv_1
*I *8075:Y O *D sky130_fd_sc_hd__inv_1
*CAP
1 *8076:A 0.000105337
2 *8075:Y 0.000105337
3 *8076:A *8078:A 3.57823e-05
4 *8075:A *8076:A 5.87622e-05
*RES
1 *8075:Y *8076:A 20.8277 
*END

*D_NET *758 0.000539798
*CONN
*I *8078:A I *D sky130_fd_sc_hd__inv_1
*I *8076:Y O *D sky130_fd_sc_hd__inv_1
*CAP
1 *8078:A 0.000163514
2 *8076:Y 0.000163514
3 *8078:A *8079:A 2.80853e-05
4 *7395:A2 *8078:A 0.000148903
5 *8076:A *8078:A 3.57823e-05
6 *100:114 *8078:A 0
*RES
1 *8076:Y *8078:A 30.5688 
*END

*D_NET *759 0.000535611
*CONN
*I *8088:A I *D sky130_fd_sc_hd__inv_1
*I *8077:Y O *D sky130_fd_sc_hd__inv_1
*CAP
1 *8088:A 0.000145419
2 *8077:Y 0.000145419
3 *7408:A *8088:A 3.00023e-05
4 *7408:B *8088:A 1.37743e-05
5 *101:80 *8088:A 0.000150618
6 *113:25 *8088:A 5.03787e-05
*RES
1 *8077:Y *8088:A 30.5688 
*END

*D_NET *760 0.000299823
*CONN
*I *8079:A I *D sky130_fd_sc_hd__inv_1
*I *8078:Y O *D sky130_fd_sc_hd__inv_1
*CAP
1 *8079:A 0.000126892
2 *8078:Y 0.000126892
3 *8079:A *8080:A 1.79539e-05
4 *8079:A *8082:A 0
5 *8054:A *8079:A 0
6 *8078:A *8079:A 2.80853e-05
*RES
1 *8078:Y *8079:A 20.8277 
*END

*D_NET *761 0.00077238
*CONN
*I *8080:A I *D sky130_fd_sc_hd__inv_1
*I *8079:Y O *D sky130_fd_sc_hd__inv_1
*CAP
1 *8080:A 0.000310455
2 *8079:Y 0.000310455
3 *8080:A *8081:A 9.23899e-05
4 *8080:A *8082:A 4.11274e-05
5 *7395:A2 *8080:A 0
6 *8079:A *8080:A 1.79539e-05
7 *228:59 *8080:A 0
*RES
1 *8079:Y *8080:A 32.5777 
*END

*D_NET *762 0.000486972
*CONN
*I *8081:A I *D sky130_fd_sc_hd__inv_1
*I *8080:Y O *D sky130_fd_sc_hd__inv_1
*CAP
1 *8081:A 0.000133913
2 *8080:Y 0.000133913
3 *8081:A *8082:A 7.18982e-05
4 *7395:A2 *8081:A 0
5 *8080:A *8081:A 9.23899e-05
6 *228:59 *8081:A 5.48581e-05
*RES
1 *8080:Y *8081:A 30.5688 
*END

*D_NET *763 0.000343186
*CONN
*I *8082:A I *D sky130_fd_sc_hd__inv_1
*I *8081:Y O *D sky130_fd_sc_hd__inv_1
*CAP
1 *8082:A 8.57626e-05
2 *8081:Y 8.57626e-05
3 *8082:A *8083:A 5.86349e-05
4 *8079:A *8082:A 0
5 *8080:A *8082:A 4.11274e-05
6 *8081:A *8082:A 7.18982e-05
*RES
1 *8081:Y *8082:A 20.6982 
*END

*D_NET *764 0.000372181
*CONN
*I *8083:A I *D sky130_fd_sc_hd__inv_1
*I *8082:Y O *D sky130_fd_sc_hd__inv_1
*CAP
1 *8083:A 0.000128424
2 *8082:Y 0.000128424
3 *8083:A *8084:A 5.66984e-05
4 *8083:A *8086:A 0
5 *8082:A *8083:A 5.86349e-05
*RES
1 *8082:Y *8083:A 21.0643 
*END

*D_NET *765 0.000886109
*CONN
*I *8084:A I *D sky130_fd_sc_hd__inv_1
*I *8083:Y O *D sky130_fd_sc_hd__inv_1
*CAP
1 *8084:A 0.000268627
2 *8083:Y 0.000268627
3 *8084:A *8085:A 0.000100693
4 *8084:A *8086:A 1.00171e-05
5 *8083:A *8084:A 5.66984e-05
6 *101:80 *8084:A 3.01126e-05
7 *113:25 *8084:A 0.000151333
*RES
1 *8083:Y *8084:A 32.5777 
*END

*D_NET *766 0.000513159
*CONN
*I *8085:A I *D sky130_fd_sc_hd__inv_1
*I *8084:Y O *D sky130_fd_sc_hd__inv_1
*CAP
1 *8085:A 0.000110009
2 *8084:Y 0.000110009
3 *8085:A *8086:A 7.1802e-05
4 *8084:A *8085:A 0.000100693
5 *101:80 *8085:A 8.06427e-05
6 *113:25 *8085:A 4.00025e-05
*RES
1 *8084:Y *8085:A 30.5688 
*END

*D_NET *767 0.000337573
*CONN
*I *8086:A I *D sky130_fd_sc_hd__inv_1
*I *8085:Y O *D sky130_fd_sc_hd__inv_1
*CAP
1 *8086:A 0.000116885
2 *8085:Y 0.000116885
3 *8086:A *8087:A 2.19845e-05
4 *8083:A *8086:A 0
5 *8084:A *8086:A 1.00171e-05
6 *8085:A *8086:A 7.1802e-05
*RES
1 *8085:Y *8086:A 20.8277 
*END

*D_NET *768 0.000629753
*CONN
*I *8087:A I *D sky130_fd_sc_hd__inv_1
*I *8086:Y O *D sky130_fd_sc_hd__inv_1
*CAP
1 *8087:A 0.000198558
2 *8086:Y 0.000198558
3 *8087:A *8089:A 4.88402e-05
4 *8087:A *8098:B 0.000161813
5 *8086:A *8087:A 2.19845e-05
*RES
1 *8086:Y *8087:A 22.8188 
*END

*D_NET *769 0.000139675
*CONN
*I *8089:A I *D sky130_fd_sc_hd__inv_1
*I *8087:Y O *D sky130_fd_sc_hd__inv_1
*CAP
1 *8089:A 4.54174e-05
2 *8087:Y 4.54174e-05
3 *8087:A *8089:A 4.88402e-05
*RES
1 *8087:Y *8089:A 19.4973 
*END

*D_NET *770 0.000186857
*CONN
*I *8090:A I *D sky130_fd_sc_hd__inv_1
*I *8088:Y O *D sky130_fd_sc_hd__inv_1
*CAP
1 *8090:A 2.26192e-05
2 *8088:Y 2.26192e-05
3 *7408:A *8090:A 9.27788e-05
4 *7408:B *8090:A 4.88402e-05
*RES
1 *8088:Y *8090:A 19.4973 
*END

*D_NET *771 0.00102585
*CONN
*I *8098:B I *D sky130_fd_sc_hd__nand2_1
*I *8089:Y O *D sky130_fd_sc_hd__inv_1
*CAP
1 *8098:B 0.000209824
2 *8089:Y 0.000209824
3 *8087:A *8098:B 0.000161813
4 *210:16 *8098:B 0.000121948
5 *221:55 *8098:B 0.000322446
*RES
1 *8089:Y *8098:B 33.2339 
*END

*D_NET *772 0.000170398
*CONN
*I *8091:A I *D sky130_fd_sc_hd__inv_1
*I *8090:Y O *D sky130_fd_sc_hd__inv_1
*CAP
1 *8091:A 1.38636e-05
2 *8090:Y 1.38636e-05
3 *7408:A *8091:A 9.56254e-05
4 *7408:B *8091:A 4.70451e-05
*RES
1 *8090:Y *8091:A 19.4973 
*END

*D_NET *773 0.000164775
*CONN
*I *8092:A I *D sky130_fd_sc_hd__inv_1
*I *8091:Y O *D sky130_fd_sc_hd__inv_1
*CAP
1 *8092:A 1.61e-05
2 *8091:Y 1.61e-05
3 *7408:A *8092:A 9.52792e-05
4 *7408:B *8092:A 3.72958e-05
*RES
1 *8091:Y *8092:A 19.4973 
*END

*D_NET *774 0.000442018
*CONN
*I *8093:A I *D sky130_fd_sc_hd__inv_1
*I *8092:Y O *D sky130_fd_sc_hd__inv_1
*CAP
1 *8093:A 0.000128129
2 *8092:Y 0.000128129
3 *8093:A *8094:A 3.92757e-05
4 *7395:A2 *8093:A 0
5 *7408:A *8093:A 7.66879e-05
6 *228:59 *8093:A 6.97972e-05
*RES
1 *8092:Y *8093:A 30.2205 
*END

*D_NET *775 0.000636874
*CONN
*I *8094:A I *D sky130_fd_sc_hd__inv_1
*I *8093:Y O *D sky130_fd_sc_hd__inv_1
*CAP
1 *8094:A 0.00018864
2 *8093:Y 0.00018864
3 *7395:A2 *8094:A 0
4 *7408:A *8094:A 0.000159524
5 *7408:B *8094:A 6.07939e-05
6 *8093:A *8094:A 3.92757e-05
7 *228:59 *8094:A 0
*RES
1 *8093:Y *8094:A 31.4973 
*END

*D_NET *776 0.000190573
*CONN
*I *8095:A I *D sky130_fd_sc_hd__inv_1
*I *8094:Y O *D sky130_fd_sc_hd__inv_1
*CAP
1 *8095:A 2.58329e-05
2 *8094:Y 2.58329e-05
3 *7408:A *8095:A 7.61109e-05
4 *7408:B *8095:A 3.27943e-05
5 *100:114 *8095:A 3.00023e-05
*RES
1 *8094:Y *8095:A 19.4973 
*END

*D_NET *777 0.00016283
*CONN
*I *8096:A I *D sky130_fd_sc_hd__inv_1
*I *8095:Y O *D sky130_fd_sc_hd__inv_1
*CAP
1 *8096:A 1.45079e-05
2 *8095:Y 1.45079e-05
3 *7408:B *8096:A 3.80922e-05
4 *100:114 *8096:A 9.57215e-05
*RES
1 *8095:Y *8096:A 19.4973 
*END

*D_NET *778 0.00067549
*CONN
*I *8067:A I *D sky130_fd_sc_hd__inv_1
*I *8096:Y O *D sky130_fd_sc_hd__inv_1
*CAP
1 *8067:A 0.000189241
2 *8096:Y 0.000189241
3 *7623:A *8067:A 2.8266e-06
4 *8068:A *8067:A 0
5 *8070:A *8067:A 0
6 *100:89 *8067:A 0.000129868
7 *100:114 *8067:A 0.000164314
*RES
1 *8096:Y *8067:A 31.042 
*END

*D_NET *779 0.00111876
*CONN
*I *7385:A1 I *D sky130_fd_sc_hd__mux4_2
*I *8097:X O *D sky130_fd_sc_hd__buf_1
*CAP
1 *7385:A1 0.000361774
2 *8097:X 0.000361774
3 *7385:A0 *7385:A1 0
4 *7385:A3 *7385:A1 0.000219711
5 *102:59 *7385:A1 0.000175505
*RES
1 *8097:X *7385:A1 34.0821 
*END

*D_NET *780 0.0228147
*CONN
*I *7513:CLK I *D sky130_fd_sc_hd__dfrtp_2
*I *7397:X O *D sky130_fd_sc_hd__a22o_2
*CAP
1 *7513:CLK 0.001043
2 *7397:X 0.00685926
3 *780:16 0.00421824
4 *780:14 0.0100345
5 *7390:A1 *7513:CLK 0
6 *7510:RESET_B *7513:CLK 0
7 *7567:A *7513:CLK 9.47456e-05
8 *100:89 *780:14 9.59532e-06
9 *217:28 *780:16 0
10 *230:10 *7513:CLK 0.000555314
11 *230:10 *780:16 0
*RES
1 *7397:X *780:14 41.4107 
2 *780:14 *780:16 64.4821 
3 *780:16 *7513:CLK 38.9295 
*END

*D_NET *781 0.00516357
*CONN
*I *7440:B I *D sky130_fd_sc_hd__and3_2
*I *7445:B I *D sky130_fd_sc_hd__and4_2
*I *7372:B I *D sky130_fd_sc_hd__or4b_2
*I *7438:A1 I *D sky130_fd_sc_hd__o21a_2
*I *7439:A1 I *D sky130_fd_sc_hd__a21oi_2
*I *7437:A1 I *D sky130_fd_sc_hd__a21oi_2
*I *7518:Q O *D sky130_fd_sc_hd__dfrtp_2
*CAP
1 *7440:B 5.33487e-05
2 *7445:B 0.000153875
3 *7372:B 0
4 *7438:A1 5.84367e-05
5 *7439:A1 0.000116397
6 *7437:A1 0.000445161
7 *7518:Q 5.80065e-05
8 *781:62 0.000332604
9 *781:53 0.000557207
10 *781:27 0.000187192
11 *781:25 0.000696095
12 *781:10 0.000755079
13 *7440:B *788:14 2.28428e-05
14 *7445:B *7372:C 5.71472e-05
15 *7445:B *788:14 2.8699e-05
16 *781:53 *7439:B1 8.78006e-05
17 *7375:B *7438:A1 2.79421e-05
18 *7375:B *781:53 2.13481e-06
19 *7438:B1 *7439:A1 1.02504e-05
20 *7438:B1 *781:25 9.0573e-05
21 *7438:B1 *781:27 4.97876e-05
22 *7441:A *781:25 2.89016e-05
23 *7443:B1 *7440:B 0
24 *7446:B *7445:B 0
25 *7518:D *781:10 3.92854e-05
26 *7545:A *7437:A1 7.77888e-05
27 *108:10 *7439:A1 5.52238e-05
28 *154:30 *7439:A1 0.000126044
29 *196:71 *7439:A1 0
30 *206:8 *7437:A1 5.7661e-06
31 *206:89 *7439:A1 2.26824e-05
32 *206:89 *781:25 7.6644e-05
33 *206:89 *781:27 5.66157e-05
34 *206:91 *7439:A1 0.000167586
35 *206:134 *781:25 9.40167e-05
36 *208:54 *7437:A1 2.95726e-05
37 *208:61 *7437:A1 0.000132099
38 *208:61 *781:25 5.38273e-05
39 *208:88 *781:53 0.000186669
40 *208:88 *781:62 0.000170385
41 *218:28 *7438:A1 0
42 *218:28 *781:25 4.98872e-05
*RES
1 *7518:Q *781:10 19.3357 
2 *781:10 *7437:A1 15.4964 
3 *781:10 *781:25 9.23214 
4 *781:25 *781:27 0.732143 
5 *781:27 *7439:A1 16.8893 
6 *781:27 *7438:A1 15.175 
7 *781:25 *781:53 10.375 
8 *781:53 *7372:B 9.3 
9 *781:53 *781:62 6.26786 
10 *781:62 *7445:B 16.2107 
11 *781:62 *7440:B 14.8357 
*END

*D_NET *782 0.003636
*CONN
*I *7469:D I *D sky130_fd_sc_hd__and4_2
*I *7373:C I *D sky130_fd_sc_hd__or4b_2
*I *7466:A I *D sky130_fd_sc_hd__nor2_2
*I *7467:A I *D sky130_fd_sc_hd__and2_2
*I *7528:Q O *D sky130_fd_sc_hd__dfrtp_2
*CAP
1 *7469:D 3.75301e-05
2 *7373:C 0.000168085
3 *7466:A 0.000104198
4 *7467:A 9.83276e-05
5 *7528:Q 0.000164741
6 *782:25 0.000514892
7 *782:12 0.000706256
8 *782:6 0.000567589
9 *7373:C *7373:A 4.6025e-06
10 *7469:D *7469:C 1.02504e-05
11 *782:12 *7469:C 0
12 *782:25 *7469:C 0
13 *7465:A *7469:D 2.56694e-05
14 *7466:B *7373:C 1.21258e-05
15 *7466:B *7466:A 3.69047e-06
16 *7467:B *782:12 3.34295e-05
17 *7467:B *782:25 0.000355545
18 *7527:RESET_B *782:6 0.00013324
19 *7528:D *782:12 6.1684e-05
20 *7528:RESET_B *782:12 0.000138106
21 *103:51 *782:25 0
22 *150:12 *7373:C 2.73185e-05
23 *150:12 *7466:A 2.18485e-05
24 *152:18 *782:25 0.000100823
25 *155:24 *7466:A 6.31066e-05
26 *196:39 *782:25 5.99538e-05
27 *196:55 *7373:C 0
28 *196:55 *782:25 1.19402e-05
29 *199:22 *782:6 9.60578e-06
30 *199:22 *782:12 3.19816e-05
31 *207:23 *7373:C 0.000146002
32 *207:23 *782:25 2.34637e-05
*RES
1 *7528:Q *782:6 11.4786 
2 *782:6 *782:12 10.2679 
3 *782:12 *7467:A 15.1571 
4 *782:12 *782:25 10.0893 
5 *782:25 *7466:A 11.4071 
6 *782:25 *7373:C 21.1929 
7 *782:6 *7469:D 19.3357 
*END

*D_NET *783 0.00360357
*CONN
*I *7469:C I *D sky130_fd_sc_hd__and4_2
*I *7373:B I *D sky130_fd_sc_hd__or4b_2
*I *7559:A I *D sky130_fd_sc_hd__dlygate4sd3_1
*I *7529:Q O *D sky130_fd_sc_hd__dfrtp_2
*CAP
1 *7469:C 0.000795931
2 *7373:B 0
3 *7559:A 0.000276968
4 *7529:Q 0
5 *783:23 0.00102521
6 *783:4 0.000506246
7 *7469:C *7373:D_N 8.6838e-05
8 *7469:C *791:20 8.07397e-06
9 *783:23 *7373:D_N 7.88246e-05
10 *7465:A *7469:C 2.09826e-05
11 *7465:C *7469:C 0
12 *7469:D *7469:C 1.02504e-05
13 *7470:A *7469:C 5.33005e-05
14 *7470:D *7469:C 0.00014699
15 *7528:RESET_B *7559:A 5.14962e-05
16 *7529:D *7559:A 0
17 *108:10 *7559:A 2.52796e-05
18 *108:10 *783:23 8.0786e-06
19 *145:8 *7469:C 0
20 *153:10 *7469:C 0.000314805
21 *155:24 *7559:A 9.54798e-06
22 *199:51 *7559:A 0.000184745
23 *782:12 *7469:C 0
24 *782:25 *7469:C 0
*RES
1 *7529:Q *783:4 9.3 
2 *783:4 *7559:A 23.6929 
3 *783:4 *783:23 3 
4 *783:23 *7373:B 9.3 
5 *783:23 *7469:C 31.425 
*END

*D_NET *784 0.00702354
*CONN
*I *7473:A1 I *D sky130_fd_sc_hd__a31o_2
*I *7341:A I *D sky130_fd_sc_hd__inv_2
*I *7477:A1 I *D sky130_fd_sc_hd__a21o_2
*I *7475:B I *D sky130_fd_sc_hd__and2_2
*I *7374:B I *D sky130_fd_sc_hd__or4_2
*I *7530:Q O *D sky130_fd_sc_hd__dfrtp_2
*CAP
1 *7473:A1 0.000249426
2 *7341:A 0
3 *7477:A1 0.000409887
4 *7475:B 4.23736e-05
5 *7374:B 0.000254083
6 *7530:Q 0.000646728
7 *784:47 0.000432982
8 *784:12 0.000672867
9 *784:8 0.00156298
10 *784:6 0.00160696
11 *7374:B *7374:A 1.66679e-05
12 *7374:B *7475:A 0.000101349
13 *7475:B *7475:A 5.40901e-06
14 *7376:B1 *7477:A1 0
15 *7378:A *7374:B 1.59373e-05
16 *7390:A3 *7477:A1 0
17 *7473:A2 *7473:A1 0
18 *7473:B1 *7473:A1 1.59312e-05
19 *7474:A1 *7473:A1 5.52302e-05
20 *7474:A2 *7473:A1 7.32955e-05
21 *7474:B1 *7473:A1 0
22 *7474:B1 *784:47 8.6229e-06
23 *7476:B *7374:B 2.82375e-05
24 *7478:D *7477:A1 2.56694e-05
25 *7530:CLK *784:6 6.05161e-06
26 *7530:CLK *784:8 0.00027322
27 *7530:D *784:6 3.80385e-05
28 *7530:D *784:47 4.21078e-05
29 *7530:RESET_B *784:6 1.52723e-05
30 *7536:A *784:12 3.41649e-05
31 *3:30 *7477:A1 0
32 *154:18 *7473:A1 1.85762e-05
33 *157:20 *7374:B 9.90367e-05
34 *157:20 *784:12 3.08664e-05
35 *196:33 *7473:A1 9.92409e-05
36 *208:54 *7477:A1 0.000142327
*RES
1 *7530:Q *784:6 17.2286 
2 *784:6 *784:8 9.98214 
3 *784:8 *784:12 4.96429 
4 *784:12 *7374:B 14.675 
5 *784:12 *7475:B 10.2643 
6 *784:8 *7477:A1 25.7107 
7 *784:6 *784:47 12.1607 
8 *784:47 *7341:A 9.3 
9 *784:47 *7473:A1 23.5321 
*END

*D_NET *785 0.00542775
*CONN
*I *7477:B1 I *D sky130_fd_sc_hd__a21o_2
*I *7558:A I *D sky130_fd_sc_hd__dlygate4sd3_1
*I *7475:A I *D sky130_fd_sc_hd__and2_2
*I *7374:A I *D sky130_fd_sc_hd__or4_2
*I *7531:Q O *D sky130_fd_sc_hd__dfrtp_2
*CAP
1 *7477:B1 0.000463399
2 *7558:A 5.81925e-05
3 *7475:A 0.000184265
4 *7374:A 2.70618e-05
5 *7531:Q 4.70928e-05
6 *785:10 0.000569632
7 *785:8 0.000416498
8 *785:6 0.000510491
9 *785:10 *7374:D 0
10 *7374:B *7374:A 1.66679e-05
11 *7374:B *7475:A 0.000101349
12 *7376:A4 *785:10 1.80611e-05
13 *7378:A *7475:A 7.11278e-06
14 *7390:A3 *7475:A 0.000341318
15 *7475:B *7475:A 5.40901e-06
16 *7476:B *7374:A 7.56452e-06
17 *7476:B *785:10 2.32292e-05
18 *7479:A1 *7477:B1 0
19 *7480:A1 *785:10 0.000145116
20 *7481:B *7475:A 0.000204774
21 *7481:B *785:10 6.25005e-05
22 *7481:C *785:10 9.56375e-05
23 *7481:D *785:10 7.14469e-05
24 *7531:D *7477:B1 5.03772e-05
25 *7531:D *7558:A 0.00012653
26 *7531:D *785:6 2.59355e-05
27 *7531:D *785:10 7.62707e-05
28 *3:30 *7475:A 1.07049e-06
29 *112:12 *7558:A 6.8646e-06
30 *112:12 *785:10 4.04691e-06
31 *154:38 *7477:B1 6.8646e-06
32 *157:20 *7374:A 1.89507e-06
33 *158:12 *7558:A 7.15521e-05
34 *158:12 *785:10 0.000308174
35 *197:47 *785:10 9.23802e-05
36 *202:35 *7475:A 1.00609e-05
37 *206:20 *7477:B1 0.00035746
38 *219:100 *7477:B1 0.000727318
39 *219:100 *7558:A 0.000140933
40 *235:18 *7475:A 4.31981e-05
*RES
1 *7531:Q *785:6 9.83571 
2 *785:6 *785:8 4.5 
3 *785:8 *785:10 8.77679 
4 *785:10 *7374:A 14.233 
5 *785:10 *7475:A 22.7875 
6 *785:8 *7558:A 16.1929 
7 *785:6 *7477:B1 29.2286 
*END

*D_NET *786 0.00119993
*CONN
*I *7481:A I *D sky130_fd_sc_hd__and4_2
*I *7374:D I *D sky130_fd_sc_hd__or4_2
*I *7480:B1_N I *D sky130_fd_sc_hd__o21ba_2
*I *7532:Q O *D sky130_fd_sc_hd__dfrtp_2
*CAP
1 *7481:A 0
2 *7374:D 0.000132793
3 *7480:B1_N 0
4 *7532:Q 5.60487e-05
5 *786:17 0.000211911
6 *786:6 0.000135166
7 *7374:D *7374:C 3.18676e-05
8 *7476:B *7374:D 0.000165141
9 *7476:B *786:17 0.000148189
10 *7482:B *7374:D 7.79574e-05
11 *7482:B *786:17 0.000143211
12 *110:14 *786:6 7.77652e-05
13 *110:14 *786:17 1.98839e-05
14 *785:10 *7374:D 0
*RES
1 *7532:Q *786:6 10.6571 
2 *786:6 *7480:B1_N 9.3 
3 *786:6 *786:17 6.98214 
4 *786:17 *7374:D 16.8893 
5 *786:17 *7481:A 13.8 
*END

*D_NET *787 0.0032513
*CONN
*I *7555:A I *D sky130_fd_sc_hd__dlygate4sd3_1
*I *7374:C I *D sky130_fd_sc_hd__or4_2
*I *7533:Q O *D sky130_fd_sc_hd__dfrtp_2
*CAP
1 *7555:A 8.20603e-05
2 *7374:C 0.000984362
3 *7533:Q 0.00106642
4 *7374:D *7374:C 3.18676e-05
5 *7390:A3 *7374:C 0.000125793
6 *7476:B *7374:C 5.30637e-06
7 *7482:C *7374:C 7.97314e-05
8 *7531:RESET_B *7555:A 8.06331e-05
9 *7532:CLK *7374:C 0
10 *7532:D *7374:C 0
11 *7533:D *7555:A 0.000126439
12 *7547:A *7555:A 0
13 *162:25 *7374:C 0.000251551
14 *197:12 *7374:C 0.000361914
15 *198:26 *7555:A 5.52238e-05
*RES
1 *7533:Q *7374:C 44.5107 
2 *7533:Q *7555:A 30.0821 
*END

*D_NET *788 0.00297063
*CONN
*I *7440:A I *D sky130_fd_sc_hd__and3_2
*I *7445:A I *D sky130_fd_sc_hd__and4_2
*I *7372:A I *D sky130_fd_sc_hd__or4b_2
*I *7439:B1 I *D sky130_fd_sc_hd__a21oi_2
*I *7519:Q O *D sky130_fd_sc_hd__dfrtp_2
*CAP
1 *7440:A 4.5651e-05
2 *7445:A 6.35091e-05
3 *7372:A 2.37855e-05
4 *7439:B1 0.000206126
5 *7519:Q 0.000329013
6 *788:16 0.00025384
7 *788:14 0.000292997
8 *788:10 0.000580223
9 *7439:B1 *7372:D_N 0.000102207
10 *7445:A *7372:C 5.52238e-05
11 *7445:A *7372:D_N 4.59075e-05
12 *788:16 *7372:D_N 2.89016e-05
13 *7375:B *7439:B1 0.00040279
14 *7440:B *788:14 2.28428e-05
15 *7441:B *7439:B1 0.000101341
16 *7445:B *788:14 2.8699e-05
17 *7473:A2 *7439:B1 5.48248e-05
18 *7473:B1 *7439:B1 0
19 *7473:B1 *788:14 0
20 *7520:CLK *788:10 8.63782e-05
21 *7520:D *7440:A 0
22 *7520:D *788:10 0
23 *7520:D *788:14 0
24 *206:91 *7439:B1 2.04644e-05
25 *208:69 *788:14 0
26 *218:56 *788:10 0.000138106
27 *781:53 *7439:B1 8.78006e-05
*RES
1 *7519:Q *788:10 18.7018 
2 *788:10 *788:14 7.8125 
3 *788:14 *788:16 0.535714 
4 *788:16 *7439:B1 24.8893 
5 *788:16 *7372:A 9.72857 
6 *788:14 *7445:A 10.6571 
7 *788:10 *7440:A 14.6125 
*END

*D_NET *789 0.00372333
*CONN
*I *7560:A I *D sky130_fd_sc_hd__dlygate4sd3_1
*I *7442:A1 I *D sky130_fd_sc_hd__a21oi_2
*I *7444:A1 I *D sky130_fd_sc_hd__a21o_2
*I *7372:C I *D sky130_fd_sc_hd__or4b_2
*I *7445:C I *D sky130_fd_sc_hd__and4_2
*I *7520:Q O *D sky130_fd_sc_hd__dfrtp_2
*CAP
1 *7560:A 0
2 *7442:A1 0
3 *7444:A1 0
4 *7372:C 6.05201e-05
5 *7445:C 0
6 *7520:Q 0.000520957
7 *789:26 0.000364548
8 *789:20 0.000496963
9 *789:16 0.000404102
10 *789:10 0.000732124
11 *7372:C *7372:D_N 0.000195716
12 *789:20 *790:16 9.90367e-05
13 *789:26 *7372:D_N 1.54142e-05
14 *789:26 *790:16 0.00010096
15 *789:26 *790:18 0.000151347
16 *7442:A2 *789:20 1.98839e-05
17 *7445:A *7372:C 5.52238e-05
18 *7445:B *7372:C 5.71472e-05
19 *7447:B *789:26 9.60939e-05
20 *7520:RESET_B *789:10 4.85631e-05
21 *7521:RESET_B *789:10 0
22 *7521:RESET_B *789:16 0
23 *7522:D *789:10 5.52302e-05
24 *103:33 *789:10 0
25 *103:33 *789:16 0
26 *208:88 *789:16 0.00014285
27 *208:88 *789:20 2.77289e-05
28 *218:103 *789:10 5.04589e-05
29 *219:117 *789:10 2.84677e-05
*RES
1 *7520:Q *789:10 20.8 
2 *789:10 *789:16 8.41071 
3 *789:16 *789:20 2.91071 
4 *789:20 *789:26 4.78571 
5 *789:26 *7445:C 9.3 
6 *789:26 *7372:C 11.4964 
7 *789:20 *7444:A1 9.3 
8 *789:16 *7442:A1 9.3 
9 *789:10 *7560:A 13.8 
*END

*D_NET *790 0.00331437
*CONN
*I *7444:B1 I *D sky130_fd_sc_hd__a21o_2
*I *7372:D_N I *D sky130_fd_sc_hd__or4b_2
*I *7445:D I *D sky130_fd_sc_hd__and4_2
*I *7521:Q O *D sky130_fd_sc_hd__dfrtp_2
*CAP
1 *7444:B1 0
2 *7372:D_N 0.000137622
3 *7445:D 0
4 *7521:Q 0.000374986
5 *790:18 0.000202851
6 *790:16 0.000440215
7 *7372:C *7372:D_N 0.000195716
8 *7439:B1 *7372:D_N 0.000102207
9 *7442:A2 *790:16 5.52238e-05
10 *7445:A *7372:D_N 4.59075e-05
11 *7446:A *790:16 0
12 *7447:B *790:18 9.60939e-05
13 *7521:CLK *790:16 9.60771e-05
14 *7521:RESET_B *790:16 0.000278493
15 *208:88 *7372:D_N 0.000541709
16 *208:88 *790:16 6.58597e-05
17 *208:88 *790:18 0.00028575
18 *788:16 *7372:D_N 2.89016e-05
19 *789:20 *790:16 9.90367e-05
20 *789:26 *7372:D_N 1.54142e-05
21 *789:26 *790:16 0.00010096
22 *789:26 *790:18 0.000151347
*RES
1 *7521:Q *790:16 26.0321 
2 *790:16 *790:18 3 
3 *790:18 *7445:D 9.3 
4 *790:18 *7372:D_N 15.2107 
5 *790:16 *7444:B1 9.3 
*END

*D_NET *791 0.00329784
*CONN
*I *7451:A I *D sky130_fd_sc_hd__and2_2
*I *7449:A I *D sky130_fd_sc_hd__and3_2
*I *7448:B1 I *D sky130_fd_sc_hd__a21oi_2
*I *7373:A I *D sky130_fd_sc_hd__or4b_2
*I *7522:Q O *D sky130_fd_sc_hd__dfrtp_2
*CAP
1 *7451:A 0
2 *7449:A 0
3 *7448:B1 0.000124226
4 *7373:A 5.36249e-05
5 *7522:Q 0.000273158
6 *791:20 0.000562022
7 *791:12 0.000516681
8 *791:10 0.000405668
9 *791:10 *792:45 1.02504e-05
10 *791:12 *7373:D_N 1.46624e-05
11 *791:12 *792:45 0.000197991
12 *791:20 *7373:D_N 0.000389588
13 *7373:C *7373:A 4.6025e-06
14 *7448:A1 *7448:B1 0.000263269
15 *7450:C *7448:B1 6.87476e-05
16 *7469:C *791:20 8.07397e-06
17 *7470:B *791:12 1.02504e-05
18 *7470:B *791:20 0.000100831
19 *7470:C *791:12 7.79781e-06
20 *7470:D *791:20 5.52302e-05
21 *7522:RESET_B *791:10 1.59338e-05
22 *7523:RESET_B *791:10 1.81945e-05
23 *7541:A *791:12 0
24 *7546:A *7448:B1 9.90431e-05
25 *141:8 *791:12 4.038e-06
26 *196:55 *7373:A 1.49698e-05
27 *196:55 *7448:B1 2.74584e-05
28 *207:23 *7373:A 1.14671e-05
29 *207:23 *7448:B1 2.34204e-05
30 *218:103 *791:10 1.66373e-05
*RES
1 *7522:Q *791:10 17.6214 
2 *791:10 *791:12 3.16071 
3 *791:12 *791:20 14.9821 
4 *791:20 *7373:A 14.5321 
5 *791:20 *7448:B1 17.7464 
6 *791:12 *7449:A 13.8 
7 *791:10 *7451:A 13.8 
*END

*D_NET *792 0.0064021
*CONN
*I *7455:A I *D sky130_fd_sc_hd__and3_2
*I *7453:A1 I *D sky130_fd_sc_hd__o21a_2
*I *7454:A1 I *D sky130_fd_sc_hd__a21oi_2
*I *7452:A1 I *D sky130_fd_sc_hd__a21oi_2
*I *7451:B I *D sky130_fd_sc_hd__and2_2
*I *7373:D_N I *D sky130_fd_sc_hd__or4b_2
*I *7523:Q O *D sky130_fd_sc_hd__dfrtp_2
*CAP
1 *7455:A 3.96227e-05
2 *7453:A1 0
3 *7454:A1 0
4 *7452:A1 4.91347e-05
5 *7451:B 0
6 *7373:D_N 0.00034775
7 *7523:Q 0.000630514
8 *792:66 6.16173e-05
9 *792:45 0.000130505
10 *792:20 0.000644518
11 *792:14 0.000408294
12 *792:10 0.000845405
13 *792:14 *793:33 1.6271e-05
14 *7449:B *7373:D_N 9.46929e-05
15 *7449:B *792:20 2.89114e-05
16 *7452:A2 *792:45 1.18927e-05
17 *7453:B1 *7455:A 3.99614e-06
18 *7454:A2 *792:20 9.77274e-05
19 *7455:C *7455:A 4.21252e-05
20 *7455:C *792:66 5.49544e-05
21 *7457:A *7373:D_N 0
22 *7457:B *792:20 1.54142e-05
23 *7457:C *792:20 0.000227539
24 *7469:C *7373:D_N 8.6838e-05
25 *7470:D *7373:D_N 3.47641e-06
26 *7523:D *792:10 5.49544e-05
27 *7523:RESET_B *792:10 2.27357e-05
28 *7541:A *7373:D_N 1.99099e-05
29 *108:10 *7373:D_N 5.17614e-05
30 *137:50 *7373:D_N 0.000183726
31 *137:50 *792:20 4.38128e-05
32 *140:24 *792:20 0.000401764
33 *140:32 *792:14 0
34 *141:8 *792:45 6.42338e-05
35 *200:48 *7452:A1 0.000274294
36 *200:48 *792:10 5.33978e-05
37 *200:59 *792:10 9.31415e-05
38 *207:23 *7373:D_N 0
39 *208:105 *7452:A1 0.000146533
40 *208:117 *792:14 0
41 *208:117 *792:20 0.000321843
42 *218:131 *792:10 0.000137472
43 *783:23 *7373:D_N 7.88246e-05
44 *791:10 *792:45 1.02504e-05
45 *791:12 *7373:D_N 1.46624e-05
46 *791:12 *792:45 0.000197991
47 *791:20 *7373:D_N 0.000389588
*RES
1 *7523:Q *792:10 22.55 
2 *792:10 *792:14 7.35714 
3 *792:14 *792:20 8.07143 
4 *792:20 *7373:D_N 27.925 
5 *792:20 *792:45 11.5536 
6 *792:45 *7451:B 9.3 
7 *792:45 *7452:A1 11.8893 
8 *792:14 *7454:A1 9.3 
9 *792:10 *792:66 5.03571 
10 *792:66 *7453:A1 9.3 
11 *792:66 *7455:A 10.2643 
*END

*D_NET *793 0.004253
*CONN
*I *7454:B1 I *D sky130_fd_sc_hd__a21oi_2
*I *7370:B I *D sky130_fd_sc_hd__and2_2
*I *7371:B I *D sky130_fd_sc_hd__nand4_2
*I *7455:B I *D sky130_fd_sc_hd__and3_2
*I *7524:Q O *D sky130_fd_sc_hd__dfrtp_2
*CAP
1 *7454:B1 0
2 *7370:B 0
3 *7371:B 0.000214022
4 *7455:B 0.000268772
5 *7524:Q 0.00078283
6 *793:33 0.000415344
7 *793:25 0.000467945
8 *793:6 0.00131822
9 *7371:B *7370:A 0.000165546
10 *7371:B *796:40 1.02504e-05
11 *7455:C *7455:B 3.46695e-05
12 *7456:B *793:25 4.22431e-05
13 *7459:A *7371:B 0
14 *7524:CLK *7455:B 3.17684e-05
15 *7524:CLK *793:6 4.64978e-05
16 *7525:CLK *793:25 8.33056e-05
17 *105:6 *7371:B 7.1959e-05
18 *106:18 *7371:B 5.26291e-05
19 *144:10 *7455:B 3.5479e-06
20 *144:10 *793:6 3.47702e-06
21 *145:8 *7371:B 0
22 *200:59 *793:25 4.02151e-05
23 *208:117 *793:25 8.51331e-05
24 *208:117 *793:33 9.83442e-05
25 *792:14 *793:33 1.6271e-05
*RES
1 *7524:Q *793:6 18.4607 
2 *793:6 *7455:B 13.2464 
3 *793:6 *793:25 14.3393 
4 *793:25 *793:33 12.5 
5 *793:33 *7371:B 23.05 
6 *793:33 *7370:B 9.3 
7 *793:25 *7454:B1 9.3 
*END

*D_NET *794 0.00281522
*CONN
*I *7557:A I *D sky130_fd_sc_hd__dlygate4sd3_1
*I *7370:A I *D sky130_fd_sc_hd__and2_2
*I *7371:A I *D sky130_fd_sc_hd__nand4_2
*I *7525:Q O *D sky130_fd_sc_hd__dfrtp_2
*CAP
1 *7557:A 0
2 *7370:A 0.000222875
3 *7371:A 0
4 *7525:Q 0.000248201
5 *794:18 0.000684767
6 *794:12 0.000710093
7 *794:18 *7464:A 0
8 *7371:B *7370:A 0.000165546
9 *7460:A1 *794:12 0.000320024
10 *7460:A1 *794:18 0.000171023
11 *7460:A2 *794:18 2.07878e-05
12 *7460:B1 *794:18 0.000271904
*RES
1 *7525:Q *794:12 23.6571 
2 *794:12 *794:18 8.78571 
3 *794:18 *7371:A 9.3 
4 *794:18 *7370:A 22.8714 
5 *794:12 *7557:A 9.3 
*END

*D_NET *795 0.00597952
*CONN
*I *7462:A1 I *D sky130_fd_sc_hd__o21a_2
*I *7461:A1 I *D sky130_fd_sc_hd__a21oi_2
*I *7371:D I *D sky130_fd_sc_hd__nand4_2
*I *7464:B I *D sky130_fd_sc_hd__and4_2
*I *7463:A1 I *D sky130_fd_sc_hd__a21oi_2
*I *7469:B I *D sky130_fd_sc_hd__and4_2
*I *7526:Q O *D sky130_fd_sc_hd__dfrtp_2
*CAP
1 *7462:A1 0
2 *7461:A1 0
3 *7371:D 4.76016e-05
4 *7464:B 0.00029756
5 *7463:A1 0
6 *7469:B 8.60502e-05
7 *7526:Q 0.000685887
8 *795:52 0.000551426
9 *795:36 0.000281023
10 *795:22 0.00043002
11 *795:20 0.000270617
12 *795:14 0.000927721
13 *7371:D *796:40 3.43988e-06
14 *7464:B *7464:A 0.000441731
15 *7469:B *7469:A 0.000356028
16 *795:20 *796:18 5.33005e-05
17 *795:22 *796:18 6.42778e-05
18 *795:36 *7469:A 0.000130419
19 *795:36 *796:18 0.000135494
20 *798:DIODE *795:52 2.65551e-05
21 *7458:B *7371:D 0
22 *7458:B *795:52 0
23 *7461:A2 *795:22 5.52302e-05
24 *7461:A2 *795:36 0.000173328
25 *7461:B1 *7469:B 1.5424e-05
26 *7461:B1 *795:20 0.00012765
27 *7461:B1 *795:22 4.58976e-05
28 *7462:B1 *795:20 9.46571e-05
29 *7463:A2 *7469:B 9.90367e-05
30 *7463:A2 *795:36 0.000196163
31 *7465:C *795:36 6.2589e-06
32 *7465:C *795:52 0
33 *7526:D *795:20 0.000141729
34 *7526:RESET_B *795:14 3.60109e-06
35 *103:51 *7469:B 7.77652e-05
36 *146:10 *795:52 0
37 *202:35 *7371:D 1.83776e-05
38 *202:35 *795:52 0.000135256
*RES
1 *7526:Q *795:14 29.8 
2 *795:14 *795:20 5.5 
3 *795:20 *795:22 1.35714 
4 *795:22 *795:36 14.0357 
5 *795:36 *7469:B 12.7107 
6 *795:36 *7463:A1 9.3 
7 *795:22 *795:52 8.875 
8 *795:52 *7464:B 18.0321 
9 *795:52 *7371:D 14.5321 
10 *795:20 *7461:A1 9.3 
11 *795:14 *7462:A1 9.3 
*END

*D_NET *796 0.00501824
*CONN
*I *7371:C I *D sky130_fd_sc_hd__nand4_2
*I *7464:A I *D sky130_fd_sc_hd__and4_2
*I *7463:B1 I *D sky130_fd_sc_hd__a21oi_2
*I *7469:A I *D sky130_fd_sc_hd__and4_2
*I *7527:Q O *D sky130_fd_sc_hd__dfrtp_2
*CAP
1 *7371:C 0
2 *7464:A 0.000270078
3 *7463:B1 2.50531e-05
4 *7469:A 0.000286428
5 *7527:Q 0.000277583
6 *796:40 0.000555317
7 *796:18 0.00061608
8 *796:10 0.000867421
9 *798:DIODE *796:10 7.83587e-05
10 *798:DIODE *796:40 0.000128428
11 *7371:B *796:40 1.02504e-05
12 *7371:D *796:40 3.43988e-06
13 *7459:A *796:40 0
14 *7459:B *796:40 0
15 *7462:A2 *796:40 0
16 *7463:A2 *7469:A 2.44318e-05
17 *7463:A2 *796:18 2.44318e-05
18 *7464:B *7464:A 0.000441731
19 *7465:B *7469:A 5.33005e-05
20 *7469:B *7469:A 0.000356028
21 *7471:B *7464:A 1.5424e-05
22 *145:23 *7464:A 0.000186662
23 *202:35 *796:40 0.000274398
24 *207:38 *7464:A 0.0001399
25 *794:18 *7464:A 0
26 *795:20 *796:18 5.33005e-05
27 *795:22 *796:18 6.42778e-05
28 *795:36 *7469:A 0.000130419
29 *795:36 *796:18 0.000135494
*RES
1 *7527:Q *796:10 17.425 
2 *796:10 *796:18 9.28571 
3 *796:18 *7469:A 15.175 
4 *796:18 *7463:B1 9.72857 
5 *796:10 *796:40 10.75 
6 *796:40 *7464:A 16.0143 
7 *796:40 *7371:C 9.3 
*END
