*SPEF "ieee 1481-1999"
*DESIGN "tt_um_nikodemetrashvili20_ro_puf"
*DATE "11:35:10 Monday July 27, 2026"
*VENDOR "The OpenROAD Project"
*PROGRAM "OpenROAD"
*VERSION "dcf36133a369abc8f3c5e5738cd4d82e4903c0e0"
*DESIGN_FLOW "NAME_SCOPE LOCAL" "PIN_CAP NONE"
*DIVIDER /
*DELIMITER :
*BUS_DELIMITER []
*T_UNIT 1 NS
*C_UNIT 1 PF
*R_UNIT 1 OHM
*L_UNIT 1 HENRY

*NAME_MAP
*3 clk
*4 ena
*5 rst_n
*6 ui_in[0]
*7 ui_in[1]
*8 ui_in[2]
*9 ui_in[3]
*10 ui_in[4]
*11 ui_in[5]
*12 ui_in[6]
*13 ui_in[7]
*14 uio_in[0]
*15 uio_in[1]
*16 uio_in[2]
*17 uio_in[3]
*18 uio_in[4]
*19 uio_in[5]
*20 uio_in[6]
*21 uio_in[7]
*22 net72
*23 net
*24 net58
*25 net59
*26 net60
*27 net61
*28 net62
*29 net63
*30 uio_out[0]
*31 net64
*32 net65
*33 net66
*34 net67
*35 net68
*36 net69
*37 net70
*38 uo_out[0]
*39 uo_out[1]
*40 uo_out[2]
*41 uo_out[3]
*42 uo_out[4]
*43 uo_out[5]
*44 uo_out[6]
*45 uo_out[7]
*46 _000_
*47 _001_
*48 _002_
*49 _003_
*50 _004_
*51 _005_
*52 _006_
*53 _007_
*54 _008_
*55 _009_
*56 _010_
*57 _011_
*58 _012_
*59 _013_
*60 _014_
*61 _015_
*62 _016_
*63 _017_
*64 _018_
*65 _019_
*66 _020_
*67 _021_
*68 _022_
*69 _023_
*70 _024_
*71 _025_
*72 _026_
*73 _027_
*74 _028_
*75 _029_
*76 _030_
*77 _031_
*78 _032_
*79 _033_
*80 _034_
*81 _035_
*82 _036_
*83 _037_
*84 _038_
*85 _039_
*86 _040_
*87 _041_
*88 _042_
*89 _043_
*90 _044_
*91 _045_
*92 _046_
*93 _047_
*94 _048_
*95 _049_
*96 _050_
*97 _051_
*98 _052_
*99 _053_
*100 _054_
*101 _055_
*102 _056_
*103 _057_
*104 _058_
*105 _059_
*106 _060_
*107 _061_
*108 _062_
*109 _063_
*110 _064_
*111 _065_
*112 _066_
*113 _067_
*114 _068_
*115 _069_
*116 _070_
*117 _071_
*118 _072_
*119 _073_
*120 _074_
*121 _075_
*122 _076_
*123 _077_
*124 _078_
*125 _079_
*126 _080_
*127 _081_
*128 _082_
*129 _083_
*130 _084_
*131 _085_
*132 _086_
*133 _087_
*134 _088_
*135 _089_
*136 _090_
*137 _091_
*138 _092_
*139 _093_
*140 _094_
*141 _095_
*142 _096_
*143 _097_
*144 _098_
*145 _099_
*146 _100_
*147 _101_
*148 _102_
*149 _103_
*150 _104_
*151 _105_
*152 _106_
*153 _107_
*154 _108_
*155 _109_
*156 _110_
*157 _111_
*158 _112_
*159 _113_
*160 _114_
*161 _115_
*162 _116_
*163 _117_
*164 _118_
*165 _119_
*166 _120_
*167 _121_
*168 _122_
*169 _123_
*170 _124_
*171 _125_
*172 _126_
*173 _127_
*174 _128_
*175 _129_
*176 _130_
*177 _131_
*178 _132_
*179 _133_
*180 _134_
*181 _135_
*182 _136_
*183 _137_
*184 _138_
*185 _139_
*186 _140_
*187 _141_
*188 _142_
*189 _143_
*190 _144_
*191 _145_
*192 _146_
*193 _147_
*194 _148_
*195 _149_
*196 _150_
*197 _151_
*198 _152_
*199 _153_
*200 _154_
*201 _155_
*202 _156_
*203 _157_
*204 _158_
*205 _159_
*206 _160_
*207 _161_
*208 _162_
*209 _163_
*210 _164_
*211 _165_
*212 _166_
*213 _167_
*214 _168_
*215 _169_
*216 _170_
*217 _171_
*218 _172_
*219 _173_
*220 _174_
*221 _175_
*222 _176_
*223 _177_
*224 _178_
*225 _179_
*226 _180_
*227 _181_
*228 _182_
*229 _183_
*230 _184_
*231 _185_
*232 _186_
*233 _187_
*234 _188_
*235 _189_
*236 _190_
*237 _191_
*238 _192_
*239 _193_
*240 _194_
*241 _195_
*242 _196_
*243 _197_
*244 _198_
*245 _199_
*246 _200_
*247 _201_
*248 _202_
*249 _203_
*250 _204_
*251 _205_
*252 _206_
*253 _207_
*254 _208_
*255 _209_
*256 _210_
*257 _211_
*258 _212_
*259 _213_
*260 _214_
*261 _215_
*262 _216_
*263 _217_
*264 _218_
*265 _219_
*266 _220_
*267 arm
*268 armb_en\[0\]
*269 armb_en\[10\]
*270 armb_en\[11\]
*271 armb_en\[12\]
*272 armb_en\[13\]
*273 armb_en\[14\]
*274 armb_en\[15\]
*275 armb_en\[1\]
*276 armb_en\[2\]
*277 armb_en\[3\]
*278 armb_en\[4\]
*279 armb_en\[5\]
*280 armb_en\[6\]
*281 armb_en\[7\]
*282 armb_en\[8\]
*283 armb_en\[9\]
*284 armb_out\[0\]
*285 armb_out\[10\]
*286 armb_out\[11\]
*287 armb_out\[12\]
*288 armb_out\[13\]
*289 armb_out\[14\]
*290 armb_out\[15\]
*291 armb_out\[1\]
*292 armb_out\[2\]
*293 armb_out\[3\]
*294 armb_out\[4\]
*295 armb_out\[5\]
*296 armb_out\[6\]
*297 armb_out\[7\]
*298 armb_out\[8\]
*299 armb_out\[9\]
*300 async_project_rst_n
*301 byte_sel
*302 clknet_0_clk
*303 clknet_4_0_0_clk
*304 clknet_4_10_0_clk
*305 clknet_4_11_0_clk
*306 clknet_4_12_0_clk
*307 clknet_4_13_0_clk
*308 clknet_4_14_0_clk
*309 clknet_4_15_0_clk
*310 clknet_4_1_0_clk
*311 clknet_4_2_0_clk
*312 clknet_4_3_0_clk
*313 clknet_4_4_0_clk
*314 clknet_4_5_0_clk
*315 clknet_4_6_0_clk
*316 clknet_4_7_0_clk
*317 clknet_4_8_0_clk
*318 clknet_4_9_0_clk
*319 count\[0\]
*320 count\[10\]
*321 count\[11\]
*322 count\[12\]
*323 count\[13\]
*324 count\[14\]
*325 count\[15\]
*326 count\[1\]
*327 count\[2\]
*328 count\[3\]
*329 count\[4\]
*330 count\[5\]
*331 count\[6\]
*332 count\[7\]
*333 count\[8\]
*334 count\[9\]
*335 done
*336 net1
*337 net10
*338 net100
*339 net101
*340 net102
*341 net103
*342 net104
*343 net105
*344 net106
*345 net107
*346 net108
*347 net109
*348 net11
*349 net110
*350 net111
*351 net112
*352 net113
*353 net114
*354 net115
*355 net116
*356 net117
*357 net118
*358 net119
*359 net12
*360 net120
*361 net121
*362 net122
*363 net123
*364 net124
*365 net125
*366 net126
*367 net127
*368 net128
*369 net129
*370 net13
*371 net130
*372 net131
*373 net132
*374 net133
*375 net134
*376 net135
*377 net136
*378 net137
*379 net138
*380 net139
*381 net14
*382 net140
*383 net141
*384 net142
*385 net143
*386 net144
*387 net145
*388 net146
*389 net147
*390 net148
*391 net149
*392 net15
*393 net150
*394 net151
*395 net16
*396 net17
*397 net18
*398 net19
*399 net2
*400 net20
*401 net21
*402 net22
*403 net23
*404 net24
*405 net25
*406 net26
*407 net27
*408 net28
*409 net29
*410 net3
*411 net30
*412 net31
*413 net32
*414 net33
*415 net34
*416 net35
*417 net36
*418 net37
*419 net38
*420 net39
*421 net4
*422 net40
*423 net41
*424 net42
*425 net43
*426 net44
*427 net45
*428 net46
*429 net47
*430 net48
*431 net49
*432 net5
*433 net50
*434 net51
*435 net52
*436 net53
*437 net54
*438 net55
*439 net56
*440 net57
*441 net6
*442 net7
*443 net71
*444 net73
*445 net74
*446 net75
*447 net76
*448 net77
*449 net78
*450 net79
*451 net8
*452 net80
*453 net81
*454 net82
*455 net83
*456 net84
*457 net85
*458 net86
*459 net87
*460 net88
*461 net89
*462 net9
*463 net90
*464 net91
*465 net92
*466 net93
*467 net94
*468 net95
*469 net96
*470 net97
*471 net98
*472 net99
*473 project_rst_n
*474 reset_sync\[0\]
*475 start_pulse
*476 start_sync_d
*477 u_puf\.u_core\.active_sel\[0\]
*478 u_puf\.u_core\.active_sel\[1\]
*479 u_puf\.u_core\.active_sel\[2\]
*480 u_puf\.u_core\.active_sel\[3\]
*481 u_puf\.u_core\.active_sel\[4\]
*482 u_puf\.u_core\.cnt_meta\[0\]
*483 u_puf\.u_core\.cnt_meta\[10\]
*484 u_puf\.u_core\.cnt_meta\[11\]
*485 u_puf\.u_core\.cnt_meta\[12\]
*486 u_puf\.u_core\.cnt_meta\[13\]
*487 u_puf\.u_core\.cnt_meta\[14\]
*488 u_puf\.u_core\.cnt_meta\[15\]
*489 u_puf\.u_core\.cnt_meta\[1\]
*490 u_puf\.u_core\.cnt_meta\[2\]
*491 u_puf\.u_core\.cnt_meta\[3\]
*492 u_puf\.u_core\.cnt_meta\[4\]
*493 u_puf\.u_core\.cnt_meta\[5\]
*494 u_puf\.u_core\.cnt_meta\[6\]
*495 u_puf\.u_core\.cnt_meta\[7\]
*496 u_puf\.u_core\.cnt_meta\[8\]
*497 u_puf\.u_core\.cnt_meta\[9\]
*498 u_puf\.u_core\.cnt_rst_n
*499 u_puf\.u_core\.cnt_sync\[0\]
*500 u_puf\.u_core\.cnt_sync\[10\]
*501 u_puf\.u_core\.cnt_sync\[11\]
*502 u_puf\.u_core\.cnt_sync\[12\]
*503 u_puf\.u_core\.cnt_sync\[13\]
*504 u_puf\.u_core\.cnt_sync\[14\]
*505 u_puf\.u_core\.cnt_sync\[15\]
*506 u_puf\.u_core\.cnt_sync\[1\]
*507 u_puf\.u_core\.cnt_sync\[2\]
*508 u_puf\.u_core\.cnt_sync\[3\]
*509 u_puf\.u_core\.cnt_sync\[4\]
*510 u_puf\.u_core\.cnt_sync\[5\]
*511 u_puf\.u_core\.cnt_sync\[6\]
*512 u_puf\.u_core\.cnt_sync\[7\]
*513 u_puf\.u_core\.cnt_sync\[8\]
*514 u_puf\.u_core\.cnt_sync\[9\]
*515 u_puf\.u_core\.cnt_sync_prev\[0\]
*516 u_puf\.u_core\.cnt_sync_prev\[10\]
*517 u_puf\.u_core\.cnt_sync_prev\[11\]
*518 u_puf\.u_core\.cnt_sync_prev\[12\]
*519 u_puf\.u_core\.cnt_sync_prev\[13\]
*520 u_puf\.u_core\.cnt_sync_prev\[14\]
*521 u_puf\.u_core\.cnt_sync_prev\[15\]
*522 u_puf\.u_core\.cnt_sync_prev\[1\]
*523 u_puf\.u_core\.cnt_sync_prev\[2\]
*524 u_puf\.u_core\.cnt_sync_prev\[3\]
*525 u_puf\.u_core\.cnt_sync_prev\[4\]
*526 u_puf\.u_core\.cnt_sync_prev\[5\]
*527 u_puf\.u_core\.cnt_sync_prev\[6\]
*528 u_puf\.u_core\.cnt_sync_prev\[7\]
*529 u_puf\.u_core\.cnt_sync_prev\[8\]
*530 u_puf\.u_core\.cnt_sync_prev\[9\]
*531 u_puf\.u_core\.en_window
*532 u_puf\.u_core\.g_ripple\[0\]\.q
*533 u_puf\.u_core\.g_ripple\[10\]\.q
*534 u_puf\.u_core\.g_ripple\[11\]\.q
*535 u_puf\.u_core\.g_ripple\[12\]\.q
*536 u_puf\.u_core\.g_ripple\[13\]\.q
*537 u_puf\.u_core\.g_ripple\[14\]\.q
*538 u_puf\.u_core\.g_ripple\[15\]\.q
*539 u_puf\.u_core\.g_ripple\[1\]\.q
*540 u_puf\.u_core\.g_ripple\[2\]\.q
*541 u_puf\.u_core\.g_ripple\[3\]\.q
*542 u_puf\.u_core\.g_ripple\[4\]\.q
*543 u_puf\.u_core\.g_ripple\[5\]\.q
*544 u_puf\.u_core\.g_ripple\[6\]\.q
*545 u_puf\.u_core\.g_ripple\[7\]\.q
*546 u_puf\.u_core\.g_ripple\[8\]\.q
*547 u_puf\.u_core\.g_ripple\[9\]\.q
*548 u_puf\.u_core\.g_ro_bank\[0\]\.u_ro\.en
*549 u_puf\.u_core\.g_ro_bank\[0\]\.u_ro\.n\[0\]
*550 u_puf\.u_core\.g_ro_bank\[0\]\.u_ro\.n\[10\]
*551 u_puf\.u_core\.g_ro_bank\[0\]\.u_ro\.n\[11\]
*552 u_puf\.u_core\.g_ro_bank\[0\]\.u_ro\.n\[12\]
*553 u_puf\.u_core\.g_ro_bank\[0\]\.u_ro\.n\[13\]
*554 u_puf\.u_core\.g_ro_bank\[0\]\.u_ro\.n\[14\]
*555 u_puf\.u_core\.g_ro_bank\[0\]\.u_ro\.n\[15\]
*556 u_puf\.u_core\.g_ro_bank\[0\]\.u_ro\.n\[16\]
*557 u_puf\.u_core\.g_ro_bank\[0\]\.u_ro\.n\[17\]
*558 u_puf\.u_core\.g_ro_bank\[0\]\.u_ro\.n\[18\]
*559 u_puf\.u_core\.g_ro_bank\[0\]\.u_ro\.n\[19\]
*560 u_puf\.u_core\.g_ro_bank\[0\]\.u_ro\.n\[1\]
*561 u_puf\.u_core\.g_ro_bank\[0\]\.u_ro\.n\[20\]
*562 u_puf\.u_core\.g_ro_bank\[0\]\.u_ro\.n\[21\]
*563 u_puf\.u_core\.g_ro_bank\[0\]\.u_ro\.n\[22\]
*564 u_puf\.u_core\.g_ro_bank\[0\]\.u_ro\.n\[23\]
*565 u_puf\.u_core\.g_ro_bank\[0\]\.u_ro\.n\[24\]
*566 u_puf\.u_core\.g_ro_bank\[0\]\.u_ro\.n\[25\]
*567 u_puf\.u_core\.g_ro_bank\[0\]\.u_ro\.n\[26\]
*568 u_puf\.u_core\.g_ro_bank\[0\]\.u_ro\.n\[27\]
*569 u_puf\.u_core\.g_ro_bank\[0\]\.u_ro\.n\[28\]
*570 u_puf\.u_core\.g_ro_bank\[0\]\.u_ro\.n\[29\]
*571 u_puf\.u_core\.g_ro_bank\[0\]\.u_ro\.n\[2\]
*572 u_puf\.u_core\.g_ro_bank\[0\]\.u_ro\.n\[30\]
*573 u_puf\.u_core\.g_ro_bank\[0\]\.u_ro\.n\[3\]
*574 u_puf\.u_core\.g_ro_bank\[0\]\.u_ro\.n\[4\]
*575 u_puf\.u_core\.g_ro_bank\[0\]\.u_ro\.n\[5\]
*576 u_puf\.u_core\.g_ro_bank\[0\]\.u_ro\.n\[6\]
*577 u_puf\.u_core\.g_ro_bank\[0\]\.u_ro\.n\[7\]
*578 u_puf\.u_core\.g_ro_bank\[0\]\.u_ro\.n\[8\]
*579 u_puf\.u_core\.g_ro_bank\[0\]\.u_ro\.n\[9\]
*580 u_puf\.u_core\.g_ro_bank\[0\]\.u_ro\.out
*581 u_puf\.u_core\.g_ro_bank\[10\]\.u_ro\.en
*582 u_puf\.u_core\.g_ro_bank\[10\]\.u_ro\.n\[0\]
*583 u_puf\.u_core\.g_ro_bank\[10\]\.u_ro\.n\[10\]
*584 u_puf\.u_core\.g_ro_bank\[10\]\.u_ro\.n\[11\]
*585 u_puf\.u_core\.g_ro_bank\[10\]\.u_ro\.n\[12\]
*586 u_puf\.u_core\.g_ro_bank\[10\]\.u_ro\.n\[13\]
*587 u_puf\.u_core\.g_ro_bank\[10\]\.u_ro\.n\[14\]
*588 u_puf\.u_core\.g_ro_bank\[10\]\.u_ro\.n\[15\]
*589 u_puf\.u_core\.g_ro_bank\[10\]\.u_ro\.n\[16\]
*590 u_puf\.u_core\.g_ro_bank\[10\]\.u_ro\.n\[17\]
*591 u_puf\.u_core\.g_ro_bank\[10\]\.u_ro\.n\[18\]
*592 u_puf\.u_core\.g_ro_bank\[10\]\.u_ro\.n\[19\]
*593 u_puf\.u_core\.g_ro_bank\[10\]\.u_ro\.n\[1\]
*594 u_puf\.u_core\.g_ro_bank\[10\]\.u_ro\.n\[20\]
*595 u_puf\.u_core\.g_ro_bank\[10\]\.u_ro\.n\[21\]
*596 u_puf\.u_core\.g_ro_bank\[10\]\.u_ro\.n\[22\]
*597 u_puf\.u_core\.g_ro_bank\[10\]\.u_ro\.n\[23\]
*598 u_puf\.u_core\.g_ro_bank\[10\]\.u_ro\.n\[24\]
*599 u_puf\.u_core\.g_ro_bank\[10\]\.u_ro\.n\[25\]
*600 u_puf\.u_core\.g_ro_bank\[10\]\.u_ro\.n\[26\]
*601 u_puf\.u_core\.g_ro_bank\[10\]\.u_ro\.n\[27\]
*602 u_puf\.u_core\.g_ro_bank\[10\]\.u_ro\.n\[28\]
*603 u_puf\.u_core\.g_ro_bank\[10\]\.u_ro\.n\[29\]
*604 u_puf\.u_core\.g_ro_bank\[10\]\.u_ro\.n\[2\]
*605 u_puf\.u_core\.g_ro_bank\[10\]\.u_ro\.n\[30\]
*606 u_puf\.u_core\.g_ro_bank\[10\]\.u_ro\.n\[3\]
*607 u_puf\.u_core\.g_ro_bank\[10\]\.u_ro\.n\[4\]
*608 u_puf\.u_core\.g_ro_bank\[10\]\.u_ro\.n\[5\]
*609 u_puf\.u_core\.g_ro_bank\[10\]\.u_ro\.n\[6\]
*610 u_puf\.u_core\.g_ro_bank\[10\]\.u_ro\.n\[7\]
*611 u_puf\.u_core\.g_ro_bank\[10\]\.u_ro\.n\[8\]
*612 u_puf\.u_core\.g_ro_bank\[10\]\.u_ro\.n\[9\]
*613 u_puf\.u_core\.g_ro_bank\[10\]\.u_ro\.out
*614 u_puf\.u_core\.g_ro_bank\[11\]\.u_ro\.en
*615 u_puf\.u_core\.g_ro_bank\[11\]\.u_ro\.n\[0\]
*616 u_puf\.u_core\.g_ro_bank\[11\]\.u_ro\.n\[10\]
*617 u_puf\.u_core\.g_ro_bank\[11\]\.u_ro\.n\[11\]
*618 u_puf\.u_core\.g_ro_bank\[11\]\.u_ro\.n\[12\]
*619 u_puf\.u_core\.g_ro_bank\[11\]\.u_ro\.n\[13\]
*620 u_puf\.u_core\.g_ro_bank\[11\]\.u_ro\.n\[14\]
*621 u_puf\.u_core\.g_ro_bank\[11\]\.u_ro\.n\[15\]
*622 u_puf\.u_core\.g_ro_bank\[11\]\.u_ro\.n\[16\]
*623 u_puf\.u_core\.g_ro_bank\[11\]\.u_ro\.n\[17\]
*624 u_puf\.u_core\.g_ro_bank\[11\]\.u_ro\.n\[18\]
*625 u_puf\.u_core\.g_ro_bank\[11\]\.u_ro\.n\[19\]
*626 u_puf\.u_core\.g_ro_bank\[11\]\.u_ro\.n\[1\]
*627 u_puf\.u_core\.g_ro_bank\[11\]\.u_ro\.n\[20\]
*628 u_puf\.u_core\.g_ro_bank\[11\]\.u_ro\.n\[21\]
*629 u_puf\.u_core\.g_ro_bank\[11\]\.u_ro\.n\[22\]
*630 u_puf\.u_core\.g_ro_bank\[11\]\.u_ro\.n\[23\]
*631 u_puf\.u_core\.g_ro_bank\[11\]\.u_ro\.n\[24\]
*632 u_puf\.u_core\.g_ro_bank\[11\]\.u_ro\.n\[25\]
*633 u_puf\.u_core\.g_ro_bank\[11\]\.u_ro\.n\[26\]
*634 u_puf\.u_core\.g_ro_bank\[11\]\.u_ro\.n\[27\]
*635 u_puf\.u_core\.g_ro_bank\[11\]\.u_ro\.n\[28\]
*636 u_puf\.u_core\.g_ro_bank\[11\]\.u_ro\.n\[29\]
*637 u_puf\.u_core\.g_ro_bank\[11\]\.u_ro\.n\[2\]
*638 u_puf\.u_core\.g_ro_bank\[11\]\.u_ro\.n\[30\]
*639 u_puf\.u_core\.g_ro_bank\[11\]\.u_ro\.n\[3\]
*640 u_puf\.u_core\.g_ro_bank\[11\]\.u_ro\.n\[4\]
*641 u_puf\.u_core\.g_ro_bank\[11\]\.u_ro\.n\[5\]
*642 u_puf\.u_core\.g_ro_bank\[11\]\.u_ro\.n\[6\]
*643 u_puf\.u_core\.g_ro_bank\[11\]\.u_ro\.n\[7\]
*644 u_puf\.u_core\.g_ro_bank\[11\]\.u_ro\.n\[8\]
*645 u_puf\.u_core\.g_ro_bank\[11\]\.u_ro\.n\[9\]
*646 u_puf\.u_core\.g_ro_bank\[11\]\.u_ro\.out
*647 u_puf\.u_core\.g_ro_bank\[12\]\.u_ro\.en
*648 u_puf\.u_core\.g_ro_bank\[12\]\.u_ro\.n\[0\]
*649 u_puf\.u_core\.g_ro_bank\[12\]\.u_ro\.n\[10\]
*650 u_puf\.u_core\.g_ro_bank\[12\]\.u_ro\.n\[11\]
*651 u_puf\.u_core\.g_ro_bank\[12\]\.u_ro\.n\[12\]
*652 u_puf\.u_core\.g_ro_bank\[12\]\.u_ro\.n\[13\]
*653 u_puf\.u_core\.g_ro_bank\[12\]\.u_ro\.n\[14\]
*654 u_puf\.u_core\.g_ro_bank\[12\]\.u_ro\.n\[15\]
*655 u_puf\.u_core\.g_ro_bank\[12\]\.u_ro\.n\[16\]
*656 u_puf\.u_core\.g_ro_bank\[12\]\.u_ro\.n\[17\]
*657 u_puf\.u_core\.g_ro_bank\[12\]\.u_ro\.n\[18\]
*658 u_puf\.u_core\.g_ro_bank\[12\]\.u_ro\.n\[19\]
*659 u_puf\.u_core\.g_ro_bank\[12\]\.u_ro\.n\[1\]
*660 u_puf\.u_core\.g_ro_bank\[12\]\.u_ro\.n\[20\]
*661 u_puf\.u_core\.g_ro_bank\[12\]\.u_ro\.n\[21\]
*662 u_puf\.u_core\.g_ro_bank\[12\]\.u_ro\.n\[22\]
*663 u_puf\.u_core\.g_ro_bank\[12\]\.u_ro\.n\[23\]
*664 u_puf\.u_core\.g_ro_bank\[12\]\.u_ro\.n\[24\]
*665 u_puf\.u_core\.g_ro_bank\[12\]\.u_ro\.n\[25\]
*666 u_puf\.u_core\.g_ro_bank\[12\]\.u_ro\.n\[26\]
*667 u_puf\.u_core\.g_ro_bank\[12\]\.u_ro\.n\[27\]
*668 u_puf\.u_core\.g_ro_bank\[12\]\.u_ro\.n\[28\]
*669 u_puf\.u_core\.g_ro_bank\[12\]\.u_ro\.n\[29\]
*670 u_puf\.u_core\.g_ro_bank\[12\]\.u_ro\.n\[2\]
*671 u_puf\.u_core\.g_ro_bank\[12\]\.u_ro\.n\[30\]
*672 u_puf\.u_core\.g_ro_bank\[12\]\.u_ro\.n\[3\]
*673 u_puf\.u_core\.g_ro_bank\[12\]\.u_ro\.n\[4\]
*674 u_puf\.u_core\.g_ro_bank\[12\]\.u_ro\.n\[5\]
*675 u_puf\.u_core\.g_ro_bank\[12\]\.u_ro\.n\[6\]
*676 u_puf\.u_core\.g_ro_bank\[12\]\.u_ro\.n\[7\]
*677 u_puf\.u_core\.g_ro_bank\[12\]\.u_ro\.n\[8\]
*678 u_puf\.u_core\.g_ro_bank\[12\]\.u_ro\.n\[9\]
*679 u_puf\.u_core\.g_ro_bank\[12\]\.u_ro\.out
*680 u_puf\.u_core\.g_ro_bank\[13\]\.u_ro\.en
*681 u_puf\.u_core\.g_ro_bank\[13\]\.u_ro\.n\[0\]
*682 u_puf\.u_core\.g_ro_bank\[13\]\.u_ro\.n\[10\]
*683 u_puf\.u_core\.g_ro_bank\[13\]\.u_ro\.n\[11\]
*684 u_puf\.u_core\.g_ro_bank\[13\]\.u_ro\.n\[12\]
*685 u_puf\.u_core\.g_ro_bank\[13\]\.u_ro\.n\[13\]
*686 u_puf\.u_core\.g_ro_bank\[13\]\.u_ro\.n\[14\]
*687 u_puf\.u_core\.g_ro_bank\[13\]\.u_ro\.n\[15\]
*688 u_puf\.u_core\.g_ro_bank\[13\]\.u_ro\.n\[16\]
*689 u_puf\.u_core\.g_ro_bank\[13\]\.u_ro\.n\[17\]
*690 u_puf\.u_core\.g_ro_bank\[13\]\.u_ro\.n\[18\]
*691 u_puf\.u_core\.g_ro_bank\[13\]\.u_ro\.n\[19\]
*692 u_puf\.u_core\.g_ro_bank\[13\]\.u_ro\.n\[1\]
*693 u_puf\.u_core\.g_ro_bank\[13\]\.u_ro\.n\[20\]
*694 u_puf\.u_core\.g_ro_bank\[13\]\.u_ro\.n\[21\]
*695 u_puf\.u_core\.g_ro_bank\[13\]\.u_ro\.n\[22\]
*696 u_puf\.u_core\.g_ro_bank\[13\]\.u_ro\.n\[23\]
*697 u_puf\.u_core\.g_ro_bank\[13\]\.u_ro\.n\[24\]
*698 u_puf\.u_core\.g_ro_bank\[13\]\.u_ro\.n\[25\]
*699 u_puf\.u_core\.g_ro_bank\[13\]\.u_ro\.n\[26\]
*700 u_puf\.u_core\.g_ro_bank\[13\]\.u_ro\.n\[27\]
*701 u_puf\.u_core\.g_ro_bank\[13\]\.u_ro\.n\[28\]
*702 u_puf\.u_core\.g_ro_bank\[13\]\.u_ro\.n\[29\]
*703 u_puf\.u_core\.g_ro_bank\[13\]\.u_ro\.n\[2\]
*704 u_puf\.u_core\.g_ro_bank\[13\]\.u_ro\.n\[30\]
*705 u_puf\.u_core\.g_ro_bank\[13\]\.u_ro\.n\[3\]
*706 u_puf\.u_core\.g_ro_bank\[13\]\.u_ro\.n\[4\]
*707 u_puf\.u_core\.g_ro_bank\[13\]\.u_ro\.n\[5\]
*708 u_puf\.u_core\.g_ro_bank\[13\]\.u_ro\.n\[6\]
*709 u_puf\.u_core\.g_ro_bank\[13\]\.u_ro\.n\[7\]
*710 u_puf\.u_core\.g_ro_bank\[13\]\.u_ro\.n\[8\]
*711 u_puf\.u_core\.g_ro_bank\[13\]\.u_ro\.n\[9\]
*712 u_puf\.u_core\.g_ro_bank\[13\]\.u_ro\.out
*713 u_puf\.u_core\.g_ro_bank\[14\]\.u_ro\.en
*714 u_puf\.u_core\.g_ro_bank\[14\]\.u_ro\.n\[0\]
*715 u_puf\.u_core\.g_ro_bank\[14\]\.u_ro\.n\[10\]
*716 u_puf\.u_core\.g_ro_bank\[14\]\.u_ro\.n\[11\]
*717 u_puf\.u_core\.g_ro_bank\[14\]\.u_ro\.n\[12\]
*718 u_puf\.u_core\.g_ro_bank\[14\]\.u_ro\.n\[13\]
*719 u_puf\.u_core\.g_ro_bank\[14\]\.u_ro\.n\[14\]
*720 u_puf\.u_core\.g_ro_bank\[14\]\.u_ro\.n\[15\]
*721 u_puf\.u_core\.g_ro_bank\[14\]\.u_ro\.n\[16\]
*722 u_puf\.u_core\.g_ro_bank\[14\]\.u_ro\.n\[17\]
*723 u_puf\.u_core\.g_ro_bank\[14\]\.u_ro\.n\[18\]
*724 u_puf\.u_core\.g_ro_bank\[14\]\.u_ro\.n\[19\]
*725 u_puf\.u_core\.g_ro_bank\[14\]\.u_ro\.n\[1\]
*726 u_puf\.u_core\.g_ro_bank\[14\]\.u_ro\.n\[20\]
*727 u_puf\.u_core\.g_ro_bank\[14\]\.u_ro\.n\[21\]
*728 u_puf\.u_core\.g_ro_bank\[14\]\.u_ro\.n\[22\]
*729 u_puf\.u_core\.g_ro_bank\[14\]\.u_ro\.n\[23\]
*730 u_puf\.u_core\.g_ro_bank\[14\]\.u_ro\.n\[24\]
*731 u_puf\.u_core\.g_ro_bank\[14\]\.u_ro\.n\[25\]
*732 u_puf\.u_core\.g_ro_bank\[14\]\.u_ro\.n\[26\]
*733 u_puf\.u_core\.g_ro_bank\[14\]\.u_ro\.n\[27\]
*734 u_puf\.u_core\.g_ro_bank\[14\]\.u_ro\.n\[28\]
*735 u_puf\.u_core\.g_ro_bank\[14\]\.u_ro\.n\[29\]
*736 u_puf\.u_core\.g_ro_bank\[14\]\.u_ro\.n\[2\]
*737 u_puf\.u_core\.g_ro_bank\[14\]\.u_ro\.n\[30\]
*738 u_puf\.u_core\.g_ro_bank\[14\]\.u_ro\.n\[3\]
*739 u_puf\.u_core\.g_ro_bank\[14\]\.u_ro\.n\[4\]
*740 u_puf\.u_core\.g_ro_bank\[14\]\.u_ro\.n\[5\]
*741 u_puf\.u_core\.g_ro_bank\[14\]\.u_ro\.n\[6\]
*742 u_puf\.u_core\.g_ro_bank\[14\]\.u_ro\.n\[7\]
*743 u_puf\.u_core\.g_ro_bank\[14\]\.u_ro\.n\[8\]
*744 u_puf\.u_core\.g_ro_bank\[14\]\.u_ro\.n\[9\]
*745 u_puf\.u_core\.g_ro_bank\[14\]\.u_ro\.out
*746 u_puf\.u_core\.g_ro_bank\[15\]\.u_ro\.en
*747 u_puf\.u_core\.g_ro_bank\[15\]\.u_ro\.n\[0\]
*748 u_puf\.u_core\.g_ro_bank\[15\]\.u_ro\.n\[10\]
*749 u_puf\.u_core\.g_ro_bank\[15\]\.u_ro\.n\[11\]
*750 u_puf\.u_core\.g_ro_bank\[15\]\.u_ro\.n\[12\]
*751 u_puf\.u_core\.g_ro_bank\[15\]\.u_ro\.n\[13\]
*752 u_puf\.u_core\.g_ro_bank\[15\]\.u_ro\.n\[14\]
*753 u_puf\.u_core\.g_ro_bank\[15\]\.u_ro\.n\[15\]
*754 u_puf\.u_core\.g_ro_bank\[15\]\.u_ro\.n\[16\]
*755 u_puf\.u_core\.g_ro_bank\[15\]\.u_ro\.n\[17\]
*756 u_puf\.u_core\.g_ro_bank\[15\]\.u_ro\.n\[18\]
*757 u_puf\.u_core\.g_ro_bank\[15\]\.u_ro\.n\[19\]
*758 u_puf\.u_core\.g_ro_bank\[15\]\.u_ro\.n\[1\]
*759 u_puf\.u_core\.g_ro_bank\[15\]\.u_ro\.n\[20\]
*760 u_puf\.u_core\.g_ro_bank\[15\]\.u_ro\.n\[21\]
*761 u_puf\.u_core\.g_ro_bank\[15\]\.u_ro\.n\[22\]
*762 u_puf\.u_core\.g_ro_bank\[15\]\.u_ro\.n\[23\]
*763 u_puf\.u_core\.g_ro_bank\[15\]\.u_ro\.n\[24\]
*764 u_puf\.u_core\.g_ro_bank\[15\]\.u_ro\.n\[25\]
*765 u_puf\.u_core\.g_ro_bank\[15\]\.u_ro\.n\[26\]
*766 u_puf\.u_core\.g_ro_bank\[15\]\.u_ro\.n\[27\]
*767 u_puf\.u_core\.g_ro_bank\[15\]\.u_ro\.n\[28\]
*768 u_puf\.u_core\.g_ro_bank\[15\]\.u_ro\.n\[29\]
*769 u_puf\.u_core\.g_ro_bank\[15\]\.u_ro\.n\[2\]
*770 u_puf\.u_core\.g_ro_bank\[15\]\.u_ro\.n\[30\]
*771 u_puf\.u_core\.g_ro_bank\[15\]\.u_ro\.n\[3\]
*772 u_puf\.u_core\.g_ro_bank\[15\]\.u_ro\.n\[4\]
*773 u_puf\.u_core\.g_ro_bank\[15\]\.u_ro\.n\[5\]
*774 u_puf\.u_core\.g_ro_bank\[15\]\.u_ro\.n\[6\]
*775 u_puf\.u_core\.g_ro_bank\[15\]\.u_ro\.n\[7\]
*776 u_puf\.u_core\.g_ro_bank\[15\]\.u_ro\.n\[8\]
*777 u_puf\.u_core\.g_ro_bank\[15\]\.u_ro\.n\[9\]
*778 u_puf\.u_core\.g_ro_bank\[15\]\.u_ro\.out
*779 u_puf\.u_core\.g_ro_bank\[1\]\.u_ro\.en
*780 u_puf\.u_core\.g_ro_bank\[1\]\.u_ro\.n\[0\]
*781 u_puf\.u_core\.g_ro_bank\[1\]\.u_ro\.n\[10\]
*782 u_puf\.u_core\.g_ro_bank\[1\]\.u_ro\.n\[11\]
*783 u_puf\.u_core\.g_ro_bank\[1\]\.u_ro\.n\[12\]
*784 u_puf\.u_core\.g_ro_bank\[1\]\.u_ro\.n\[13\]
*785 u_puf\.u_core\.g_ro_bank\[1\]\.u_ro\.n\[14\]
*786 u_puf\.u_core\.g_ro_bank\[1\]\.u_ro\.n\[15\]
*787 u_puf\.u_core\.g_ro_bank\[1\]\.u_ro\.n\[16\]
*788 u_puf\.u_core\.g_ro_bank\[1\]\.u_ro\.n\[17\]
*789 u_puf\.u_core\.g_ro_bank\[1\]\.u_ro\.n\[18\]
*790 u_puf\.u_core\.g_ro_bank\[1\]\.u_ro\.n\[19\]
*791 u_puf\.u_core\.g_ro_bank\[1\]\.u_ro\.n\[1\]
*792 u_puf\.u_core\.g_ro_bank\[1\]\.u_ro\.n\[20\]
*793 u_puf\.u_core\.g_ro_bank\[1\]\.u_ro\.n\[21\]
*794 u_puf\.u_core\.g_ro_bank\[1\]\.u_ro\.n\[22\]
*795 u_puf\.u_core\.g_ro_bank\[1\]\.u_ro\.n\[23\]
*796 u_puf\.u_core\.g_ro_bank\[1\]\.u_ro\.n\[24\]
*797 u_puf\.u_core\.g_ro_bank\[1\]\.u_ro\.n\[25\]
*798 u_puf\.u_core\.g_ro_bank\[1\]\.u_ro\.n\[26\]
*799 u_puf\.u_core\.g_ro_bank\[1\]\.u_ro\.n\[27\]
*800 u_puf\.u_core\.g_ro_bank\[1\]\.u_ro\.n\[28\]
*801 u_puf\.u_core\.g_ro_bank\[1\]\.u_ro\.n\[29\]
*802 u_puf\.u_core\.g_ro_bank\[1\]\.u_ro\.n\[2\]
*803 u_puf\.u_core\.g_ro_bank\[1\]\.u_ro\.n\[30\]
*804 u_puf\.u_core\.g_ro_bank\[1\]\.u_ro\.n\[3\]
*805 u_puf\.u_core\.g_ro_bank\[1\]\.u_ro\.n\[4\]
*806 u_puf\.u_core\.g_ro_bank\[1\]\.u_ro\.n\[5\]
*807 u_puf\.u_core\.g_ro_bank\[1\]\.u_ro\.n\[6\]
*808 u_puf\.u_core\.g_ro_bank\[1\]\.u_ro\.n\[7\]
*809 u_puf\.u_core\.g_ro_bank\[1\]\.u_ro\.n\[8\]
*810 u_puf\.u_core\.g_ro_bank\[1\]\.u_ro\.n\[9\]
*811 u_puf\.u_core\.g_ro_bank\[1\]\.u_ro\.out
*812 u_puf\.u_core\.g_ro_bank\[2\]\.u_ro\.en
*813 u_puf\.u_core\.g_ro_bank\[2\]\.u_ro\.n\[0\]
*814 u_puf\.u_core\.g_ro_bank\[2\]\.u_ro\.n\[10\]
*815 u_puf\.u_core\.g_ro_bank\[2\]\.u_ro\.n\[11\]
*816 u_puf\.u_core\.g_ro_bank\[2\]\.u_ro\.n\[12\]
*817 u_puf\.u_core\.g_ro_bank\[2\]\.u_ro\.n\[13\]
*818 u_puf\.u_core\.g_ro_bank\[2\]\.u_ro\.n\[14\]
*819 u_puf\.u_core\.g_ro_bank\[2\]\.u_ro\.n\[15\]
*820 u_puf\.u_core\.g_ro_bank\[2\]\.u_ro\.n\[16\]
*821 u_puf\.u_core\.g_ro_bank\[2\]\.u_ro\.n\[17\]
*822 u_puf\.u_core\.g_ro_bank\[2\]\.u_ro\.n\[18\]
*823 u_puf\.u_core\.g_ro_bank\[2\]\.u_ro\.n\[19\]
*824 u_puf\.u_core\.g_ro_bank\[2\]\.u_ro\.n\[1\]
*825 u_puf\.u_core\.g_ro_bank\[2\]\.u_ro\.n\[20\]
*826 u_puf\.u_core\.g_ro_bank\[2\]\.u_ro\.n\[21\]
*827 u_puf\.u_core\.g_ro_bank\[2\]\.u_ro\.n\[22\]
*828 u_puf\.u_core\.g_ro_bank\[2\]\.u_ro\.n\[23\]
*829 u_puf\.u_core\.g_ro_bank\[2\]\.u_ro\.n\[24\]
*830 u_puf\.u_core\.g_ro_bank\[2\]\.u_ro\.n\[25\]
*831 u_puf\.u_core\.g_ro_bank\[2\]\.u_ro\.n\[26\]
*832 u_puf\.u_core\.g_ro_bank\[2\]\.u_ro\.n\[27\]
*833 u_puf\.u_core\.g_ro_bank\[2\]\.u_ro\.n\[28\]
*834 u_puf\.u_core\.g_ro_bank\[2\]\.u_ro\.n\[29\]
*835 u_puf\.u_core\.g_ro_bank\[2\]\.u_ro\.n\[2\]
*836 u_puf\.u_core\.g_ro_bank\[2\]\.u_ro\.n\[30\]
*837 u_puf\.u_core\.g_ro_bank\[2\]\.u_ro\.n\[3\]
*838 u_puf\.u_core\.g_ro_bank\[2\]\.u_ro\.n\[4\]
*839 u_puf\.u_core\.g_ro_bank\[2\]\.u_ro\.n\[5\]
*840 u_puf\.u_core\.g_ro_bank\[2\]\.u_ro\.n\[6\]
*841 u_puf\.u_core\.g_ro_bank\[2\]\.u_ro\.n\[7\]
*842 u_puf\.u_core\.g_ro_bank\[2\]\.u_ro\.n\[8\]
*843 u_puf\.u_core\.g_ro_bank\[2\]\.u_ro\.n\[9\]
*844 u_puf\.u_core\.g_ro_bank\[2\]\.u_ro\.out
*845 u_puf\.u_core\.g_ro_bank\[3\]\.u_ro\.en
*846 u_puf\.u_core\.g_ro_bank\[3\]\.u_ro\.n\[0\]
*847 u_puf\.u_core\.g_ro_bank\[3\]\.u_ro\.n\[10\]
*848 u_puf\.u_core\.g_ro_bank\[3\]\.u_ro\.n\[11\]
*849 u_puf\.u_core\.g_ro_bank\[3\]\.u_ro\.n\[12\]
*850 u_puf\.u_core\.g_ro_bank\[3\]\.u_ro\.n\[13\]
*851 u_puf\.u_core\.g_ro_bank\[3\]\.u_ro\.n\[14\]
*852 u_puf\.u_core\.g_ro_bank\[3\]\.u_ro\.n\[15\]
*853 u_puf\.u_core\.g_ro_bank\[3\]\.u_ro\.n\[16\]
*854 u_puf\.u_core\.g_ro_bank\[3\]\.u_ro\.n\[17\]
*855 u_puf\.u_core\.g_ro_bank\[3\]\.u_ro\.n\[18\]
*856 u_puf\.u_core\.g_ro_bank\[3\]\.u_ro\.n\[19\]
*857 u_puf\.u_core\.g_ro_bank\[3\]\.u_ro\.n\[1\]
*858 u_puf\.u_core\.g_ro_bank\[3\]\.u_ro\.n\[20\]
*859 u_puf\.u_core\.g_ro_bank\[3\]\.u_ro\.n\[21\]
*860 u_puf\.u_core\.g_ro_bank\[3\]\.u_ro\.n\[22\]
*861 u_puf\.u_core\.g_ro_bank\[3\]\.u_ro\.n\[23\]
*862 u_puf\.u_core\.g_ro_bank\[3\]\.u_ro\.n\[24\]
*863 u_puf\.u_core\.g_ro_bank\[3\]\.u_ro\.n\[25\]
*864 u_puf\.u_core\.g_ro_bank\[3\]\.u_ro\.n\[26\]
*865 u_puf\.u_core\.g_ro_bank\[3\]\.u_ro\.n\[27\]
*866 u_puf\.u_core\.g_ro_bank\[3\]\.u_ro\.n\[28\]
*867 u_puf\.u_core\.g_ro_bank\[3\]\.u_ro\.n\[29\]
*868 u_puf\.u_core\.g_ro_bank\[3\]\.u_ro\.n\[2\]
*869 u_puf\.u_core\.g_ro_bank\[3\]\.u_ro\.n\[30\]
*870 u_puf\.u_core\.g_ro_bank\[3\]\.u_ro\.n\[3\]
*871 u_puf\.u_core\.g_ro_bank\[3\]\.u_ro\.n\[4\]
*872 u_puf\.u_core\.g_ro_bank\[3\]\.u_ro\.n\[5\]
*873 u_puf\.u_core\.g_ro_bank\[3\]\.u_ro\.n\[6\]
*874 u_puf\.u_core\.g_ro_bank\[3\]\.u_ro\.n\[7\]
*875 u_puf\.u_core\.g_ro_bank\[3\]\.u_ro\.n\[8\]
*876 u_puf\.u_core\.g_ro_bank\[3\]\.u_ro\.n\[9\]
*877 u_puf\.u_core\.g_ro_bank\[3\]\.u_ro\.out
*878 u_puf\.u_core\.g_ro_bank\[4\]\.u_ro\.en
*879 u_puf\.u_core\.g_ro_bank\[4\]\.u_ro\.n\[0\]
*880 u_puf\.u_core\.g_ro_bank\[4\]\.u_ro\.n\[10\]
*881 u_puf\.u_core\.g_ro_bank\[4\]\.u_ro\.n\[11\]
*882 u_puf\.u_core\.g_ro_bank\[4\]\.u_ro\.n\[12\]
*883 u_puf\.u_core\.g_ro_bank\[4\]\.u_ro\.n\[13\]
*884 u_puf\.u_core\.g_ro_bank\[4\]\.u_ro\.n\[14\]
*885 u_puf\.u_core\.g_ro_bank\[4\]\.u_ro\.n\[15\]
*886 u_puf\.u_core\.g_ro_bank\[4\]\.u_ro\.n\[16\]
*887 u_puf\.u_core\.g_ro_bank\[4\]\.u_ro\.n\[17\]
*888 u_puf\.u_core\.g_ro_bank\[4\]\.u_ro\.n\[18\]
*889 u_puf\.u_core\.g_ro_bank\[4\]\.u_ro\.n\[19\]
*890 u_puf\.u_core\.g_ro_bank\[4\]\.u_ro\.n\[1\]
*891 u_puf\.u_core\.g_ro_bank\[4\]\.u_ro\.n\[20\]
*892 u_puf\.u_core\.g_ro_bank\[4\]\.u_ro\.n\[21\]
*893 u_puf\.u_core\.g_ro_bank\[4\]\.u_ro\.n\[22\]
*894 u_puf\.u_core\.g_ro_bank\[4\]\.u_ro\.n\[23\]
*895 u_puf\.u_core\.g_ro_bank\[4\]\.u_ro\.n\[24\]
*896 u_puf\.u_core\.g_ro_bank\[4\]\.u_ro\.n\[25\]
*897 u_puf\.u_core\.g_ro_bank\[4\]\.u_ro\.n\[26\]
*898 u_puf\.u_core\.g_ro_bank\[4\]\.u_ro\.n\[27\]
*899 u_puf\.u_core\.g_ro_bank\[4\]\.u_ro\.n\[28\]
*900 u_puf\.u_core\.g_ro_bank\[4\]\.u_ro\.n\[29\]
*901 u_puf\.u_core\.g_ro_bank\[4\]\.u_ro\.n\[2\]
*902 u_puf\.u_core\.g_ro_bank\[4\]\.u_ro\.n\[30\]
*903 u_puf\.u_core\.g_ro_bank\[4\]\.u_ro\.n\[3\]
*904 u_puf\.u_core\.g_ro_bank\[4\]\.u_ro\.n\[4\]
*905 u_puf\.u_core\.g_ro_bank\[4\]\.u_ro\.n\[5\]
*906 u_puf\.u_core\.g_ro_bank\[4\]\.u_ro\.n\[6\]
*907 u_puf\.u_core\.g_ro_bank\[4\]\.u_ro\.n\[7\]
*908 u_puf\.u_core\.g_ro_bank\[4\]\.u_ro\.n\[8\]
*909 u_puf\.u_core\.g_ro_bank\[4\]\.u_ro\.n\[9\]
*910 u_puf\.u_core\.g_ro_bank\[4\]\.u_ro\.out
*911 u_puf\.u_core\.g_ro_bank\[5\]\.u_ro\.en
*912 u_puf\.u_core\.g_ro_bank\[5\]\.u_ro\.n\[0\]
*913 u_puf\.u_core\.g_ro_bank\[5\]\.u_ro\.n\[10\]
*914 u_puf\.u_core\.g_ro_bank\[5\]\.u_ro\.n\[11\]
*915 u_puf\.u_core\.g_ro_bank\[5\]\.u_ro\.n\[12\]
*916 u_puf\.u_core\.g_ro_bank\[5\]\.u_ro\.n\[13\]
*917 u_puf\.u_core\.g_ro_bank\[5\]\.u_ro\.n\[14\]
*918 u_puf\.u_core\.g_ro_bank\[5\]\.u_ro\.n\[15\]
*919 u_puf\.u_core\.g_ro_bank\[5\]\.u_ro\.n\[16\]
*920 u_puf\.u_core\.g_ro_bank\[5\]\.u_ro\.n\[17\]
*921 u_puf\.u_core\.g_ro_bank\[5\]\.u_ro\.n\[18\]
*922 u_puf\.u_core\.g_ro_bank\[5\]\.u_ro\.n\[19\]
*923 u_puf\.u_core\.g_ro_bank\[5\]\.u_ro\.n\[1\]
*924 u_puf\.u_core\.g_ro_bank\[5\]\.u_ro\.n\[20\]
*925 u_puf\.u_core\.g_ro_bank\[5\]\.u_ro\.n\[21\]
*926 u_puf\.u_core\.g_ro_bank\[5\]\.u_ro\.n\[22\]
*927 u_puf\.u_core\.g_ro_bank\[5\]\.u_ro\.n\[23\]
*928 u_puf\.u_core\.g_ro_bank\[5\]\.u_ro\.n\[24\]
*929 u_puf\.u_core\.g_ro_bank\[5\]\.u_ro\.n\[25\]
*930 u_puf\.u_core\.g_ro_bank\[5\]\.u_ro\.n\[26\]
*931 u_puf\.u_core\.g_ro_bank\[5\]\.u_ro\.n\[27\]
*932 u_puf\.u_core\.g_ro_bank\[5\]\.u_ro\.n\[28\]
*933 u_puf\.u_core\.g_ro_bank\[5\]\.u_ro\.n\[29\]
*934 u_puf\.u_core\.g_ro_bank\[5\]\.u_ro\.n\[2\]
*935 u_puf\.u_core\.g_ro_bank\[5\]\.u_ro\.n\[30\]
*936 u_puf\.u_core\.g_ro_bank\[5\]\.u_ro\.n\[3\]
*937 u_puf\.u_core\.g_ro_bank\[5\]\.u_ro\.n\[4\]
*938 u_puf\.u_core\.g_ro_bank\[5\]\.u_ro\.n\[5\]
*939 u_puf\.u_core\.g_ro_bank\[5\]\.u_ro\.n\[6\]
*940 u_puf\.u_core\.g_ro_bank\[5\]\.u_ro\.n\[7\]
*941 u_puf\.u_core\.g_ro_bank\[5\]\.u_ro\.n\[8\]
*942 u_puf\.u_core\.g_ro_bank\[5\]\.u_ro\.n\[9\]
*943 u_puf\.u_core\.g_ro_bank\[5\]\.u_ro\.out
*944 u_puf\.u_core\.g_ro_bank\[6\]\.u_ro\.en
*945 u_puf\.u_core\.g_ro_bank\[6\]\.u_ro\.n\[0\]
*946 u_puf\.u_core\.g_ro_bank\[6\]\.u_ro\.n\[10\]
*947 u_puf\.u_core\.g_ro_bank\[6\]\.u_ro\.n\[11\]
*948 u_puf\.u_core\.g_ro_bank\[6\]\.u_ro\.n\[12\]
*949 u_puf\.u_core\.g_ro_bank\[6\]\.u_ro\.n\[13\]
*950 u_puf\.u_core\.g_ro_bank\[6\]\.u_ro\.n\[14\]
*951 u_puf\.u_core\.g_ro_bank\[6\]\.u_ro\.n\[15\]
*952 u_puf\.u_core\.g_ro_bank\[6\]\.u_ro\.n\[16\]
*953 u_puf\.u_core\.g_ro_bank\[6\]\.u_ro\.n\[17\]
*954 u_puf\.u_core\.g_ro_bank\[6\]\.u_ro\.n\[18\]
*955 u_puf\.u_core\.g_ro_bank\[6\]\.u_ro\.n\[19\]
*956 u_puf\.u_core\.g_ro_bank\[6\]\.u_ro\.n\[1\]
*957 u_puf\.u_core\.g_ro_bank\[6\]\.u_ro\.n\[20\]
*958 u_puf\.u_core\.g_ro_bank\[6\]\.u_ro\.n\[21\]
*959 u_puf\.u_core\.g_ro_bank\[6\]\.u_ro\.n\[22\]
*960 u_puf\.u_core\.g_ro_bank\[6\]\.u_ro\.n\[23\]
*961 u_puf\.u_core\.g_ro_bank\[6\]\.u_ro\.n\[24\]
*962 u_puf\.u_core\.g_ro_bank\[6\]\.u_ro\.n\[25\]
*963 u_puf\.u_core\.g_ro_bank\[6\]\.u_ro\.n\[26\]
*964 u_puf\.u_core\.g_ro_bank\[6\]\.u_ro\.n\[27\]
*965 u_puf\.u_core\.g_ro_bank\[6\]\.u_ro\.n\[28\]
*966 u_puf\.u_core\.g_ro_bank\[6\]\.u_ro\.n\[29\]
*967 u_puf\.u_core\.g_ro_bank\[6\]\.u_ro\.n\[2\]
*968 u_puf\.u_core\.g_ro_bank\[6\]\.u_ro\.n\[30\]
*969 u_puf\.u_core\.g_ro_bank\[6\]\.u_ro\.n\[3\]
*970 u_puf\.u_core\.g_ro_bank\[6\]\.u_ro\.n\[4\]
*971 u_puf\.u_core\.g_ro_bank\[6\]\.u_ro\.n\[5\]
*972 u_puf\.u_core\.g_ro_bank\[6\]\.u_ro\.n\[6\]
*973 u_puf\.u_core\.g_ro_bank\[6\]\.u_ro\.n\[7\]
*974 u_puf\.u_core\.g_ro_bank\[6\]\.u_ro\.n\[8\]
*975 u_puf\.u_core\.g_ro_bank\[6\]\.u_ro\.n\[9\]
*976 u_puf\.u_core\.g_ro_bank\[6\]\.u_ro\.out
*977 u_puf\.u_core\.g_ro_bank\[7\]\.u_ro\.en
*978 u_puf\.u_core\.g_ro_bank\[7\]\.u_ro\.n\[0\]
*979 u_puf\.u_core\.g_ro_bank\[7\]\.u_ro\.n\[10\]
*980 u_puf\.u_core\.g_ro_bank\[7\]\.u_ro\.n\[11\]
*981 u_puf\.u_core\.g_ro_bank\[7\]\.u_ro\.n\[12\]
*982 u_puf\.u_core\.g_ro_bank\[7\]\.u_ro\.n\[13\]
*983 u_puf\.u_core\.g_ro_bank\[7\]\.u_ro\.n\[14\]
*984 u_puf\.u_core\.g_ro_bank\[7\]\.u_ro\.n\[15\]
*985 u_puf\.u_core\.g_ro_bank\[7\]\.u_ro\.n\[16\]
*986 u_puf\.u_core\.g_ro_bank\[7\]\.u_ro\.n\[17\]
*987 u_puf\.u_core\.g_ro_bank\[7\]\.u_ro\.n\[18\]
*988 u_puf\.u_core\.g_ro_bank\[7\]\.u_ro\.n\[19\]
*989 u_puf\.u_core\.g_ro_bank\[7\]\.u_ro\.n\[1\]
*990 u_puf\.u_core\.g_ro_bank\[7\]\.u_ro\.n\[20\]
*991 u_puf\.u_core\.g_ro_bank\[7\]\.u_ro\.n\[21\]
*992 u_puf\.u_core\.g_ro_bank\[7\]\.u_ro\.n\[22\]
*993 u_puf\.u_core\.g_ro_bank\[7\]\.u_ro\.n\[23\]
*994 u_puf\.u_core\.g_ro_bank\[7\]\.u_ro\.n\[24\]
*995 u_puf\.u_core\.g_ro_bank\[7\]\.u_ro\.n\[25\]
*996 u_puf\.u_core\.g_ro_bank\[7\]\.u_ro\.n\[26\]
*997 u_puf\.u_core\.g_ro_bank\[7\]\.u_ro\.n\[27\]
*998 u_puf\.u_core\.g_ro_bank\[7\]\.u_ro\.n\[28\]
*999 u_puf\.u_core\.g_ro_bank\[7\]\.u_ro\.n\[29\]
*1000 u_puf\.u_core\.g_ro_bank\[7\]\.u_ro\.n\[2\]
*1001 u_puf\.u_core\.g_ro_bank\[7\]\.u_ro\.n\[30\]
*1002 u_puf\.u_core\.g_ro_bank\[7\]\.u_ro\.n\[3\]
*1003 u_puf\.u_core\.g_ro_bank\[7\]\.u_ro\.n\[4\]
*1004 u_puf\.u_core\.g_ro_bank\[7\]\.u_ro\.n\[5\]
*1005 u_puf\.u_core\.g_ro_bank\[7\]\.u_ro\.n\[6\]
*1006 u_puf\.u_core\.g_ro_bank\[7\]\.u_ro\.n\[7\]
*1007 u_puf\.u_core\.g_ro_bank\[7\]\.u_ro\.n\[8\]
*1008 u_puf\.u_core\.g_ro_bank\[7\]\.u_ro\.n\[9\]
*1009 u_puf\.u_core\.g_ro_bank\[7\]\.u_ro\.out
*1010 u_puf\.u_core\.g_ro_bank\[8\]\.u_ro\.en
*1011 u_puf\.u_core\.g_ro_bank\[8\]\.u_ro\.n\[0\]
*1012 u_puf\.u_core\.g_ro_bank\[8\]\.u_ro\.n\[10\]
*1013 u_puf\.u_core\.g_ro_bank\[8\]\.u_ro\.n\[11\]
*1014 u_puf\.u_core\.g_ro_bank\[8\]\.u_ro\.n\[12\]
*1015 u_puf\.u_core\.g_ro_bank\[8\]\.u_ro\.n\[13\]
*1016 u_puf\.u_core\.g_ro_bank\[8\]\.u_ro\.n\[14\]
*1017 u_puf\.u_core\.g_ro_bank\[8\]\.u_ro\.n\[15\]
*1018 u_puf\.u_core\.g_ro_bank\[8\]\.u_ro\.n\[16\]
*1019 u_puf\.u_core\.g_ro_bank\[8\]\.u_ro\.n\[17\]
*1020 u_puf\.u_core\.g_ro_bank\[8\]\.u_ro\.n\[18\]
*1021 u_puf\.u_core\.g_ro_bank\[8\]\.u_ro\.n\[19\]
*1022 u_puf\.u_core\.g_ro_bank\[8\]\.u_ro\.n\[1\]
*1023 u_puf\.u_core\.g_ro_bank\[8\]\.u_ro\.n\[20\]
*1024 u_puf\.u_core\.g_ro_bank\[8\]\.u_ro\.n\[21\]
*1025 u_puf\.u_core\.g_ro_bank\[8\]\.u_ro\.n\[22\]
*1026 u_puf\.u_core\.g_ro_bank\[8\]\.u_ro\.n\[23\]
*1027 u_puf\.u_core\.g_ro_bank\[8\]\.u_ro\.n\[24\]
*1028 u_puf\.u_core\.g_ro_bank\[8\]\.u_ro\.n\[25\]
*1029 u_puf\.u_core\.g_ro_bank\[8\]\.u_ro\.n\[26\]
*1030 u_puf\.u_core\.g_ro_bank\[8\]\.u_ro\.n\[27\]
*1031 u_puf\.u_core\.g_ro_bank\[8\]\.u_ro\.n\[28\]
*1032 u_puf\.u_core\.g_ro_bank\[8\]\.u_ro\.n\[29\]
*1033 u_puf\.u_core\.g_ro_bank\[8\]\.u_ro\.n\[2\]
*1034 u_puf\.u_core\.g_ro_bank\[8\]\.u_ro\.n\[30\]
*1035 u_puf\.u_core\.g_ro_bank\[8\]\.u_ro\.n\[3\]
*1036 u_puf\.u_core\.g_ro_bank\[8\]\.u_ro\.n\[4\]
*1037 u_puf\.u_core\.g_ro_bank\[8\]\.u_ro\.n\[5\]
*1038 u_puf\.u_core\.g_ro_bank\[8\]\.u_ro\.n\[6\]
*1039 u_puf\.u_core\.g_ro_bank\[8\]\.u_ro\.n\[7\]
*1040 u_puf\.u_core\.g_ro_bank\[8\]\.u_ro\.n\[8\]
*1041 u_puf\.u_core\.g_ro_bank\[8\]\.u_ro\.n\[9\]
*1042 u_puf\.u_core\.g_ro_bank\[8\]\.u_ro\.out
*1043 u_puf\.u_core\.g_ro_bank\[9\]\.u_ro\.en
*1044 u_puf\.u_core\.g_ro_bank\[9\]\.u_ro\.n\[0\]
*1045 u_puf\.u_core\.g_ro_bank\[9\]\.u_ro\.n\[10\]
*1046 u_puf\.u_core\.g_ro_bank\[9\]\.u_ro\.n\[11\]
*1047 u_puf\.u_core\.g_ro_bank\[9\]\.u_ro\.n\[12\]
*1048 u_puf\.u_core\.g_ro_bank\[9\]\.u_ro\.n\[13\]
*1049 u_puf\.u_core\.g_ro_bank\[9\]\.u_ro\.n\[14\]
*1050 u_puf\.u_core\.g_ro_bank\[9\]\.u_ro\.n\[15\]
*1051 u_puf\.u_core\.g_ro_bank\[9\]\.u_ro\.n\[16\]
*1052 u_puf\.u_core\.g_ro_bank\[9\]\.u_ro\.n\[17\]
*1053 u_puf\.u_core\.g_ro_bank\[9\]\.u_ro\.n\[18\]
*1054 u_puf\.u_core\.g_ro_bank\[9\]\.u_ro\.n\[19\]
*1055 u_puf\.u_core\.g_ro_bank\[9\]\.u_ro\.n\[1\]
*1056 u_puf\.u_core\.g_ro_bank\[9\]\.u_ro\.n\[20\]
*1057 u_puf\.u_core\.g_ro_bank\[9\]\.u_ro\.n\[21\]
*1058 u_puf\.u_core\.g_ro_bank\[9\]\.u_ro\.n\[22\]
*1059 u_puf\.u_core\.g_ro_bank\[9\]\.u_ro\.n\[23\]
*1060 u_puf\.u_core\.g_ro_bank\[9\]\.u_ro\.n\[24\]
*1061 u_puf\.u_core\.g_ro_bank\[9\]\.u_ro\.n\[25\]
*1062 u_puf\.u_core\.g_ro_bank\[9\]\.u_ro\.n\[26\]
*1063 u_puf\.u_core\.g_ro_bank\[9\]\.u_ro\.n\[27\]
*1064 u_puf\.u_core\.g_ro_bank\[9\]\.u_ro\.n\[28\]
*1065 u_puf\.u_core\.g_ro_bank\[9\]\.u_ro\.n\[29\]
*1066 u_puf\.u_core\.g_ro_bank\[9\]\.u_ro\.n\[2\]
*1067 u_puf\.u_core\.g_ro_bank\[9\]\.u_ro\.n\[30\]
*1068 u_puf\.u_core\.g_ro_bank\[9\]\.u_ro\.n\[3\]
*1069 u_puf\.u_core\.g_ro_bank\[9\]\.u_ro\.n\[4\]
*1070 u_puf\.u_core\.g_ro_bank\[9\]\.u_ro\.n\[5\]
*1071 u_puf\.u_core\.g_ro_bank\[9\]\.u_ro\.n\[6\]
*1072 u_puf\.u_core\.g_ro_bank\[9\]\.u_ro\.n\[7\]
*1073 u_puf\.u_core\.g_ro_bank\[9\]\.u_ro\.n\[8\]
*1074 u_puf\.u_core\.g_ro_bank\[9\]\.u_ro\.n\[9\]
*1075 u_puf\.u_core\.g_ro_bank\[9\]\.u_ro\.out
*1076 u_puf\.u_core\.sel_ro
*1077 u_puf\.u_core\.settle_timer\[0\]
*1078 u_puf\.u_core\.settle_timer\[1\]
*1079 u_puf\.u_core\.settle_timer\[2\]
*1080 u_puf\.u_core\.stable_samples\[0\]
*1081 u_puf\.u_core\.stable_samples\[1\]
*1082 u_puf\.u_core\.state\[1\]
*1083 u_puf\.u_core\.state\[2\]
*1084 u_puf\.u_core\.state\[3\]
*1085 u_puf\.u_core\.wtimer\[0\]
*1086 u_puf\.u_core\.wtimer\[10\]
*1087 u_puf\.u_core\.wtimer\[11\]
*1088 u_puf\.u_core\.wtimer\[12\]
*1089 u_puf\.u_core\.wtimer\[13\]
*1090 u_puf\.u_core\.wtimer\[14\]
*1091 u_puf\.u_core\.wtimer\[15\]
*1092 u_puf\.u_core\.wtimer\[1\]
*1093 u_puf\.u_core\.wtimer\[2\]
*1094 u_puf\.u_core\.wtimer\[3\]
*1095 u_puf\.u_core\.wtimer\[4\]
*1096 u_puf\.u_core\.wtimer\[5\]
*1097 u_puf\.u_core\.wtimer\[6\]
*1098 u_puf\.u_core\.wtimer\[7\]
*1099 u_puf\.u_core\.wtimer\[8\]
*1100 u_puf\.u_core\.wtimer\[9\]
*1101 ui_meta\[0\]
*1102 ui_meta\[1\]
*1103 ui_meta\[2\]
*1104 ui_meta\[3\]
*1105 ui_meta\[4\]
*1106 ui_meta\[5\]
*1107 ui_meta\[6\]
*1108 ui_sync\[0\]
*1109 ui_sync\[2\]
*1110 ui_sync\[3\]
*1111 ui_sync\[4\]
*1112 ui_sync\[5\]
*1113 ANTENNA_1
*1114 ANTENNA_2
*1115 FILLER_0_100
*1116 FILLER_0_103
*1117 FILLER_0_106
*1118 FILLER_0_109
*1119 FILLER_0_113
*1120 FILLER_0_116
*1121 FILLER_0_119
*1122 FILLER_0_12
*1123 FILLER_0_122
*1124 FILLER_0_125
*1125 FILLER_0_128
*1126 FILLER_0_131
*1127 FILLER_0_134
*1128 FILLER_0_137
*1129 FILLER_0_141
*1130 FILLER_0_144
*1131 FILLER_0_147
*1132 FILLER_0_15
*1133 FILLER_0_150
*1134 FILLER_0_153
*1135 FILLER_0_156
*1136 FILLER_0_159
*1137 FILLER_0_162
*1138 FILLER_0_165
*1139 FILLER_0_169
*1140 FILLER_0_172
*1141 FILLER_0_175
*1142 FILLER_0_178
*1143 FILLER_0_18
*1144 FILLER_0_181
*1145 FILLER_0_184
*1146 FILLER_0_187
*1147 FILLER_0_190
*1148 FILLER_0_193
*1149 FILLER_0_197
*1150 FILLER_0_200
*1151 FILLER_0_203
*1152 FILLER_0_206
*1153 FILLER_0_209
*1154 FILLER_0_21
*1155 FILLER_0_212
*1156 FILLER_0_215
*1157 FILLER_0_218
*1158 FILLER_0_221
*1159 FILLER_0_225
*1160 FILLER_0_228
*1161 FILLER_0_231
*1162 FILLER_0_234
*1163 FILLER_0_237
*1164 FILLER_0_24
*1165 FILLER_0_240
*1166 FILLER_0_243
*1167 FILLER_0_246
*1168 FILLER_0_249
*1169 FILLER_0_253
*1170 FILLER_0_256
*1171 FILLER_0_259
*1172 FILLER_0_262
*1173 FILLER_0_265
*1174 FILLER_0_268
*1175 FILLER_0_27
*1176 FILLER_0_271
*1177 FILLER_0_274
*1178 FILLER_0_277
*1179 FILLER_0_281
*1180 FILLER_0_284
*1181 FILLER_0_287
*1182 FILLER_0_29
*1183 FILLER_0_290
*1184 FILLER_0_293
*1185 FILLER_0_296
*1186 FILLER_0_299
*1187 FILLER_0_3
*1188 FILLER_0_302
*1189 FILLER_0_305
*1190 FILLER_0_309
*1191 FILLER_0_312
*1192 FILLER_0_315
*1193 FILLER_0_318
*1194 FILLER_0_32
*1195 FILLER_0_321
*1196 FILLER_0_324
*1197 FILLER_0_327
*1198 FILLER_0_330
*1199 FILLER_0_333
*1200 FILLER_0_337
*1201 FILLER_0_340
*1202 FILLER_0_343
*1203 FILLER_0_346
*1204 FILLER_0_349
*1205 FILLER_0_35
*1206 FILLER_0_352
*1207 FILLER_0_355
*1208 FILLER_0_358
*1209 FILLER_0_361
*1210 FILLER_0_365
*1211 FILLER_0_368
*1212 FILLER_0_371
*1213 FILLER_0_374
*1214 FILLER_0_377
*1215 FILLER_0_38
*1216 FILLER_0_380
*1217 FILLER_0_383
*1218 FILLER_0_386
*1219 FILLER_0_389
*1220 FILLER_0_393
*1221 FILLER_0_396
*1222 FILLER_0_399
*1223 FILLER_0_402
*1224 FILLER_0_405
*1225 FILLER_0_408
*1226 FILLER_0_41
*1227 FILLER_0_411
*1228 FILLER_0_414
*1229 FILLER_0_417
*1230 FILLER_0_421
*1231 FILLER_0_424
*1232 FILLER_0_427
*1233 FILLER_0_430
*1234 FILLER_0_433
*1235 FILLER_0_436
*1236 FILLER_0_439
*1237 FILLER_0_44
*1238 FILLER_0_442
*1239 FILLER_0_445
*1240 FILLER_0_449
*1241 FILLER_0_452
*1242 FILLER_0_455
*1243 FILLER_0_458
*1244 FILLER_0_461
*1245 FILLER_0_464
*1246 FILLER_0_467
*1247 FILLER_0_47
*1248 FILLER_0_470
*1249 FILLER_0_473
*1250 FILLER_0_477
*1251 FILLER_0_480
*1252 FILLER_0_483
*1253 FILLER_0_486
*1254 FILLER_0_489
*1255 FILLER_0_492
*1256 FILLER_0_495
*1257 FILLER_0_498
*1258 FILLER_0_50
*1259 FILLER_0_501
*1260 FILLER_0_505
*1261 FILLER_0_508
*1262 FILLER_0_511
*1263 FILLER_0_514
*1264 FILLER_0_517
*1265 FILLER_0_520
*1266 FILLER_0_523
*1267 FILLER_0_526
*1268 FILLER_0_529
*1269 FILLER_0_53
*1270 FILLER_0_533
*1271 FILLER_0_536
*1272 FILLER_0_539
*1273 FILLER_0_542
*1274 FILLER_0_545
*1275 FILLER_0_548
*1276 FILLER_0_551
*1277 FILLER_0_554
*1278 FILLER_0_557
*1279 FILLER_0_561
*1280 FILLER_0_564
*1281 FILLER_0_567
*1282 FILLER_0_57
*1283 FILLER_0_570
*1284 FILLER_0_573
*1285 FILLER_0_576
*1286 FILLER_0_579
*1287 FILLER_0_582
*1288 FILLER_0_585
*1289 FILLER_0_589
*1290 FILLER_0_592
*1291 FILLER_0_595
*1292 FILLER_0_598
*1293 FILLER_0_6
*1294 FILLER_0_60
*1295 FILLER_0_601
*1296 FILLER_0_604
*1297 FILLER_0_607
*1298 FILLER_0_610
*1299 FILLER_0_613
*1300 FILLER_0_617
*1301 FILLER_0_620
*1302 FILLER_0_623
*1303 FILLER_0_626
*1304 FILLER_0_629
*1305 FILLER_0_63
*1306 FILLER_0_632
*1307 FILLER_0_635
*1308 FILLER_0_638
*1309 FILLER_0_641
*1310 FILLER_0_645
*1311 FILLER_0_648
*1312 FILLER_0_651
*1313 FILLER_0_654
*1314 FILLER_0_657
*1315 FILLER_0_66
*1316 FILLER_0_660
*1317 FILLER_0_663
*1318 FILLER_0_666
*1319 FILLER_0_669
*1320 FILLER_0_673
*1321 FILLER_0_676
*1322 FILLER_0_679
*1323 FILLER_0_682
*1324 FILLER_0_685
*1325 FILLER_0_688
*1326 FILLER_0_69
*1327 FILLER_0_691
*1328 FILLER_0_694
*1329 FILLER_0_697
*1330 FILLER_0_701
*1331 FILLER_0_704
*1332 FILLER_0_707
*1333 FILLER_0_710
*1334 FILLER_0_72
*1335 FILLER_0_75
*1336 FILLER_0_78
*1337 FILLER_0_81
*1338 FILLER_0_85
*1339 FILLER_0_88
*1340 FILLER_0_9
*1341 FILLER_0_91
*1342 FILLER_0_94
*1343 FILLER_0_97
*1344 FILLER_10_531
*1345 FILLER_10_534
*1346 FILLER_10_537
*1347 FILLER_10_540
*1348 FILLER_10_543
*1349 FILLER_10_546
*1350 FILLER_10_549
*1351 FILLER_10_552
*1352 FILLER_10_555
*1353 FILLER_10_557
*1354 FILLER_10_560
*1355 FILLER_10_563
*1356 FILLER_10_566
*1357 FILLER_10_569
*1358 FILLER_10_572
*1359 FILLER_10_575
*1360 FILLER_10_578
*1361 FILLER_10_581
*1362 FILLER_10_584
*1363 FILLER_10_587
*1364 FILLER_10_590
*1365 FILLER_10_593
*1366 FILLER_10_596
*1367 FILLER_10_599
*1368 FILLER_10_602
*1369 FILLER_10_605
*1370 FILLER_10_608
*1371 FILLER_10_611
*1372 FILLER_10_613
*1373 FILLER_10_616
*1374 FILLER_10_619
*1375 FILLER_10_622
*1376 FILLER_10_625
*1377 FILLER_10_628
*1378 FILLER_10_631
*1379 FILLER_10_634
*1380 FILLER_10_637
*1381 FILLER_10_640
*1382 FILLER_10_643
*1383 FILLER_10_646
*1384 FILLER_10_649
*1385 FILLER_10_652
*1386 FILLER_10_655
*1387 FILLER_10_658
*1388 FILLER_10_661
*1389 FILLER_10_664
*1390 FILLER_10_667
*1391 FILLER_10_669
*1392 FILLER_10_672
*1393 FILLER_10_675
*1394 FILLER_10_678
*1395 FILLER_10_681
*1396 FILLER_10_684
*1397 FILLER_10_687
*1398 FILLER_10_690
*1399 FILLER_10_693
*1400 FILLER_10_696
*1401 FILLER_10_699
*1402 FILLER_10_702
*1403 FILLER_10_705
*1404 FILLER_10_708
*1405 FILLER_10_711
*1406 FILLER_11_531
*1407 FILLER_11_534
*1408 FILLER_11_537
*1409 FILLER_11_540
*1410 FILLER_11_543
*1411 FILLER_11_546
*1412 FILLER_11_549
*1413 FILLER_11_552
*1414 FILLER_11_555
*1415 FILLER_11_558
*1416 FILLER_11_561
*1417 FILLER_11_564
*1418 FILLER_11_567
*1419 FILLER_11_570
*1420 FILLER_11_573
*1421 FILLER_11_576
*1422 FILLER_11_579
*1423 FILLER_11_582
*1424 FILLER_11_585
*1425 FILLER_11_588
*1426 FILLER_11_591
*1427 FILLER_11_594
*1428 FILLER_11_597
*1429 FILLER_11_600
*1430 FILLER_11_603
*1431 FILLER_11_606
*1432 FILLER_11_609
*1433 FILLER_11_612
*1434 FILLER_11_615
*1435 FILLER_11_618
*1436 FILLER_11_621
*1437 FILLER_11_624
*1438 FILLER_11_627
*1439 FILLER_11_630
*1440 FILLER_11_633
*1441 FILLER_11_636
*1442 FILLER_11_639
*1443 FILLER_11_641
*1444 FILLER_11_644
*1445 FILLER_11_647
*1446 FILLER_11_650
*1447 FILLER_11_653
*1448 FILLER_11_656
*1449 FILLER_11_659
*1450 FILLER_11_662
*1451 FILLER_11_665
*1452 FILLER_11_668
*1453 FILLER_11_671
*1454 FILLER_11_674
*1455 FILLER_11_677
*1456 FILLER_11_680
*1457 FILLER_11_683
*1458 FILLER_11_686
*1459 FILLER_11_689
*1460 FILLER_11_692
*1461 FILLER_11_695
*1462 FILLER_11_697
*1463 FILLER_11_700
*1464 FILLER_11_703
*1465 FILLER_11_706
*1466 FILLER_11_709
*1467 FILLER_11_712
*1468 FILLER_12_531
*1469 FILLER_12_534
*1470 FILLER_12_537
*1471 FILLER_12_540
*1472 FILLER_12_543
*1473 FILLER_12_546
*1474 FILLER_12_549
*1475 FILLER_12_552
*1476 FILLER_12_555
*1477 FILLER_12_557
*1478 FILLER_12_560
*1479 FILLER_12_563
*1480 FILLER_12_566
*1481 FILLER_12_569
*1482 FILLER_12_572
*1483 FILLER_12_575
*1484 FILLER_12_578
*1485 FILLER_12_581
*1486 FILLER_12_584
*1487 FILLER_12_587
*1488 FILLER_12_590
*1489 FILLER_12_593
*1490 FILLER_12_596
*1491 FILLER_12_599
*1492 FILLER_12_602
*1493 FILLER_12_605
*1494 FILLER_12_608
*1495 FILLER_12_611
*1496 FILLER_12_613
*1497 FILLER_12_616
*1498 FILLER_12_619
*1499 FILLER_12_622
*1500 FILLER_12_625
*1501 FILLER_12_628
*1502 FILLER_12_631
*1503 FILLER_12_634
*1504 FILLER_12_637
*1505 FILLER_12_640
*1506 FILLER_12_643
*1507 FILLER_12_646
*1508 FILLER_12_649
*1509 FILLER_12_652
*1510 FILLER_12_655
*1511 FILLER_12_658
*1512 FILLER_12_661
*1513 FILLER_12_664
*1514 FILLER_12_667
*1515 FILLER_12_669
*1516 FILLER_12_672
*1517 FILLER_12_675
*1518 FILLER_12_678
*1519 FILLER_12_681
*1520 FILLER_12_684
*1521 FILLER_12_687
*1522 FILLER_12_690
*1523 FILLER_12_693
*1524 FILLER_12_696
*1525 FILLER_12_699
*1526 FILLER_12_702
*1527 FILLER_12_705
*1528 FILLER_12_708
*1529 FILLER_12_711
*1530 FILLER_13_531
*1531 FILLER_13_534
*1532 FILLER_13_537
*1533 FILLER_13_540
*1534 FILLER_13_543
*1535 FILLER_13_546
*1536 FILLER_13_549
*1537 FILLER_13_552
*1538 FILLER_13_555
*1539 FILLER_13_558
*1540 FILLER_13_561
*1541 FILLER_13_564
*1542 FILLER_13_567
*1543 FILLER_13_570
*1544 FILLER_13_573
*1545 FILLER_13_576
*1546 FILLER_13_579
*1547 FILLER_13_582
*1548 FILLER_13_585
*1549 FILLER_13_588
*1550 FILLER_13_591
*1551 FILLER_13_594
*1552 FILLER_13_597
*1553 FILLER_13_600
*1554 FILLER_13_603
*1555 FILLER_13_606
*1556 FILLER_13_609
*1557 FILLER_13_612
*1558 FILLER_13_615
*1559 FILLER_13_618
*1560 FILLER_13_621
*1561 FILLER_13_624
*1562 FILLER_13_627
*1563 FILLER_13_630
*1564 FILLER_13_633
*1565 FILLER_13_636
*1566 FILLER_13_639
*1567 FILLER_13_641
*1568 FILLER_13_644
*1569 FILLER_13_647
*1570 FILLER_13_650
*1571 FILLER_13_653
*1572 FILLER_13_656
*1573 FILLER_13_659
*1574 FILLER_13_662
*1575 FILLER_13_665
*1576 FILLER_13_668
*1577 FILLER_13_671
*1578 FILLER_13_674
*1579 FILLER_13_677
*1580 FILLER_13_680
*1581 FILLER_13_683
*1582 FILLER_13_686
*1583 FILLER_13_689
*1584 FILLER_13_692
*1585 FILLER_13_695
*1586 FILLER_13_697
*1587 FILLER_13_700
*1588 FILLER_13_703
*1589 FILLER_13_706
*1590 FILLER_13_709
*1591 FILLER_13_712
*1592 FILLER_14_531
*1593 FILLER_14_534
*1594 FILLER_14_537
*1595 FILLER_14_540
*1596 FILLER_14_543
*1597 FILLER_14_546
*1598 FILLER_14_549
*1599 FILLER_14_552
*1600 FILLER_14_555
*1601 FILLER_14_557
*1602 FILLER_14_560
*1603 FILLER_14_563
*1604 FILLER_14_566
*1605 FILLER_14_569
*1606 FILLER_14_572
*1607 FILLER_14_575
*1608 FILLER_14_578
*1609 FILLER_14_581
*1610 FILLER_14_584
*1611 FILLER_14_587
*1612 FILLER_14_590
*1613 FILLER_14_593
*1614 FILLER_14_596
*1615 FILLER_14_599
*1616 FILLER_14_602
*1617 FILLER_14_605
*1618 FILLER_14_608
*1619 FILLER_14_611
*1620 FILLER_14_613
*1621 FILLER_14_616
*1622 FILLER_14_619
*1623 FILLER_14_622
*1624 FILLER_14_625
*1625 FILLER_14_628
*1626 FILLER_14_631
*1627 FILLER_14_634
*1628 FILLER_14_637
*1629 FILLER_14_640
*1630 FILLER_14_643
*1631 FILLER_14_646
*1632 FILLER_14_649
*1633 FILLER_14_652
*1634 FILLER_14_655
*1635 FILLER_14_658
*1636 FILLER_14_661
*1637 FILLER_14_664
*1638 FILLER_14_667
*1639 FILLER_14_669
*1640 FILLER_14_672
*1641 FILLER_14_675
*1642 FILLER_14_678
*1643 FILLER_14_681
*1644 FILLER_14_684
*1645 FILLER_14_687
*1646 FILLER_14_690
*1647 FILLER_14_693
*1648 FILLER_14_696
*1649 FILLER_14_699
*1650 FILLER_14_702
*1651 FILLER_14_705
*1652 FILLER_14_708
*1653 FILLER_14_711
*1654 FILLER_15_531
*1655 FILLER_15_534
*1656 FILLER_15_537
*1657 FILLER_15_540
*1658 FILLER_15_543
*1659 FILLER_15_546
*1660 FILLER_15_549
*1661 FILLER_15_552
*1662 FILLER_15_555
*1663 FILLER_15_558
*1664 FILLER_15_561
*1665 FILLER_15_564
*1666 FILLER_15_567
*1667 FILLER_15_570
*1668 FILLER_15_573
*1669 FILLER_15_576
*1670 FILLER_15_579
*1671 FILLER_15_582
*1672 FILLER_15_585
*1673 FILLER_15_588
*1674 FILLER_15_591
*1675 FILLER_15_594
*1676 FILLER_15_597
*1677 FILLER_15_600
*1678 FILLER_15_603
*1679 FILLER_15_606
*1680 FILLER_15_609
*1681 FILLER_15_612
*1682 FILLER_15_615
*1683 FILLER_15_618
*1684 FILLER_15_621
*1685 FILLER_15_624
*1686 FILLER_15_627
*1687 FILLER_15_630
*1688 FILLER_15_633
*1689 FILLER_15_636
*1690 FILLER_15_639
*1691 FILLER_15_641
*1692 FILLER_15_644
*1693 FILLER_15_647
*1694 FILLER_15_650
*1695 FILLER_15_653
*1696 FILLER_15_656
*1697 FILLER_15_659
*1698 FILLER_15_662
*1699 FILLER_15_665
*1700 FILLER_15_668
*1701 FILLER_15_671
*1702 FILLER_15_674
*1703 FILLER_15_677
*1704 FILLER_15_680
*1705 FILLER_15_683
*1706 FILLER_15_686
*1707 FILLER_15_689
*1708 FILLER_15_692
*1709 FILLER_15_695
*1710 FILLER_15_697
*1711 FILLER_15_700
*1712 FILLER_15_703
*1713 FILLER_15_706
*1714 FILLER_15_709
*1715 FILLER_15_712
*1716 FILLER_16_531
*1717 FILLER_16_534
*1718 FILLER_16_537
*1719 FILLER_16_540
*1720 FILLER_16_543
*1721 FILLER_16_546
*1722 FILLER_16_549
*1723 FILLER_16_552
*1724 FILLER_16_555
*1725 FILLER_16_557
*1726 FILLER_16_560
*1727 FILLER_16_563
*1728 FILLER_16_566
*1729 FILLER_16_569
*1730 FILLER_16_572
*1731 FILLER_16_575
*1732 FILLER_16_578
*1733 FILLER_16_581
*1734 FILLER_16_584
*1735 FILLER_16_587
*1736 FILLER_16_590
*1737 FILLER_16_593
*1738 FILLER_16_596
*1739 FILLER_16_599
*1740 FILLER_16_602
*1741 FILLER_16_605
*1742 FILLER_16_608
*1743 FILLER_16_611
*1744 FILLER_16_613
*1745 FILLER_16_616
*1746 FILLER_16_619
*1747 FILLER_16_622
*1748 FILLER_16_625
*1749 FILLER_16_628
*1750 FILLER_16_631
*1751 FILLER_16_634
*1752 FILLER_16_637
*1753 FILLER_16_640
*1754 FILLER_16_643
*1755 FILLER_16_646
*1756 FILLER_16_649
*1757 FILLER_16_652
*1758 FILLER_16_655
*1759 FILLER_16_658
*1760 FILLER_16_661
*1761 FILLER_16_664
*1762 FILLER_16_667
*1763 FILLER_16_669
*1764 FILLER_16_672
*1765 FILLER_16_675
*1766 FILLER_16_678
*1767 FILLER_16_681
*1768 FILLER_16_684
*1769 FILLER_16_687
*1770 FILLER_16_690
*1771 FILLER_16_693
*1772 FILLER_16_696
*1773 FILLER_16_699
*1774 FILLER_16_702
*1775 FILLER_16_705
*1776 FILLER_16_708
*1777 FILLER_16_711
*1778 FILLER_17_531
*1779 FILLER_17_534
*1780 FILLER_17_537
*1781 FILLER_17_540
*1782 FILLER_17_543
*1783 FILLER_17_546
*1784 FILLER_17_549
*1785 FILLER_17_552
*1786 FILLER_17_555
*1787 FILLER_17_558
*1788 FILLER_17_561
*1789 FILLER_17_564
*1790 FILLER_17_567
*1791 FILLER_17_570
*1792 FILLER_17_573
*1793 FILLER_17_576
*1794 FILLER_17_579
*1795 FILLER_17_582
*1796 FILLER_17_585
*1797 FILLER_17_588
*1798 FILLER_17_591
*1799 FILLER_17_594
*1800 FILLER_17_597
*1801 FILLER_17_600
*1802 FILLER_17_603
*1803 FILLER_17_606
*1804 FILLER_17_609
*1805 FILLER_17_612
*1806 FILLER_17_615
*1807 FILLER_17_618
*1808 FILLER_17_621
*1809 FILLER_17_624
*1810 FILLER_17_627
*1811 FILLER_17_630
*1812 FILLER_17_633
*1813 FILLER_17_636
*1814 FILLER_17_639
*1815 FILLER_17_641
*1816 FILLER_17_644
*1817 FILLER_17_647
*1818 FILLER_17_650
*1819 FILLER_17_653
*1820 FILLER_17_656
*1821 FILLER_17_659
*1822 FILLER_17_662
*1823 FILLER_17_665
*1824 FILLER_17_668
*1825 FILLER_17_671
*1826 FILLER_17_674
*1827 FILLER_17_677
*1828 FILLER_17_680
*1829 FILLER_17_683
*1830 FILLER_17_686
*1831 FILLER_17_689
*1832 FILLER_17_692
*1833 FILLER_17_695
*1834 FILLER_17_697
*1835 FILLER_17_700
*1836 FILLER_17_703
*1837 FILLER_17_706
*1838 FILLER_17_709
*1839 FILLER_17_712
*1840 FILLER_18_531
*1841 FILLER_18_534
*1842 FILLER_18_537
*1843 FILLER_18_540
*1844 FILLER_18_543
*1845 FILLER_18_546
*1846 FILLER_18_549
*1847 FILLER_18_552
*1848 FILLER_18_555
*1849 FILLER_18_557
*1850 FILLER_18_560
*1851 FILLER_18_563
*1852 FILLER_18_566
*1853 FILLER_18_569
*1854 FILLER_18_572
*1855 FILLER_18_575
*1856 FILLER_18_578
*1857 FILLER_18_581
*1858 FILLER_18_584
*1859 FILLER_18_587
*1860 FILLER_18_590
*1861 FILLER_18_593
*1862 FILLER_18_596
*1863 FILLER_18_599
*1864 FILLER_18_602
*1865 FILLER_18_605
*1866 FILLER_18_608
*1867 FILLER_18_611
*1868 FILLER_18_613
*1869 FILLER_18_616
*1870 FILLER_18_619
*1871 FILLER_18_622
*1872 FILLER_18_625
*1873 FILLER_18_628
*1874 FILLER_18_631
*1875 FILLER_18_634
*1876 FILLER_18_637
*1877 FILLER_18_640
*1878 FILLER_18_643
*1879 FILLER_18_646
*1880 FILLER_18_649
*1881 FILLER_18_652
*1882 FILLER_18_655
*1883 FILLER_18_658
*1884 FILLER_18_661
*1885 FILLER_18_664
*1886 FILLER_18_667
*1887 FILLER_18_669
*1888 FILLER_18_672
*1889 FILLER_18_675
*1890 FILLER_18_678
*1891 FILLER_18_681
*1892 FILLER_18_684
*1893 FILLER_18_687
*1894 FILLER_18_690
*1895 FILLER_18_693
*1896 FILLER_18_696
*1897 FILLER_18_699
*1898 FILLER_18_702
*1899 FILLER_18_705
*1900 FILLER_18_708
*1901 FILLER_18_711
*1902 FILLER_19_531
*1903 FILLER_19_534
*1904 FILLER_19_537
*1905 FILLER_19_540
*1906 FILLER_19_543
*1907 FILLER_19_546
*1908 FILLER_19_549
*1909 FILLER_19_552
*1910 FILLER_19_555
*1911 FILLER_19_558
*1912 FILLER_19_561
*1913 FILLER_19_564
*1914 FILLER_19_567
*1915 FILLER_19_570
*1916 FILLER_19_573
*1917 FILLER_19_576
*1918 FILLER_19_579
*1919 FILLER_19_582
*1920 FILLER_19_585
*1921 FILLER_19_588
*1922 FILLER_19_591
*1923 FILLER_19_594
*1924 FILLER_19_597
*1925 FILLER_19_600
*1926 FILLER_19_603
*1927 FILLER_19_606
*1928 FILLER_19_609
*1929 FILLER_19_612
*1930 FILLER_19_615
*1931 FILLER_19_618
*1932 FILLER_19_621
*1933 FILLER_19_624
*1934 FILLER_19_627
*1935 FILLER_19_630
*1936 FILLER_19_633
*1937 FILLER_19_636
*1938 FILLER_19_639
*1939 FILLER_19_641
*1940 FILLER_19_644
*1941 FILLER_19_647
*1942 FILLER_19_650
*1943 FILLER_19_653
*1944 FILLER_19_656
*1945 FILLER_19_659
*1946 FILLER_19_662
*1947 FILLER_19_665
*1948 FILLER_19_668
*1949 FILLER_19_671
*1950 FILLER_19_674
*1951 FILLER_19_677
*1952 FILLER_19_680
*1953 FILLER_19_683
*1954 FILLER_19_686
*1955 FILLER_19_689
*1956 FILLER_19_692
*1957 FILLER_19_695
*1958 FILLER_19_697
*1959 FILLER_19_700
*1960 FILLER_19_703
*1961 FILLER_19_706
*1962 FILLER_19_709
*1963 FILLER_19_712
*1964 FILLER_1_102
*1965 FILLER_1_105
*1966 FILLER_1_108
*1967 FILLER_1_111
*1968 FILLER_1_113
*1969 FILLER_1_116
*1970 FILLER_1_119
*1971 FILLER_1_12
*1972 FILLER_1_122
*1973 FILLER_1_125
*1974 FILLER_1_128
*1975 FILLER_1_131
*1976 FILLER_1_134
*1977 FILLER_1_137
*1978 FILLER_1_140
*1979 FILLER_1_143
*1980 FILLER_1_146
*1981 FILLER_1_149
*1982 FILLER_1_15
*1983 FILLER_1_152
*1984 FILLER_1_155
*1985 FILLER_1_158
*1986 FILLER_1_161
*1987 FILLER_1_164
*1988 FILLER_1_167
*1989 FILLER_1_169
*1990 FILLER_1_172
*1991 FILLER_1_175
*1992 FILLER_1_178
*1993 FILLER_1_18
*1994 FILLER_1_181
*1995 FILLER_1_184
*1996 FILLER_1_187
*1997 FILLER_1_190
*1998 FILLER_1_193
*1999 FILLER_1_196
*2000 FILLER_1_199
*2001 FILLER_1_202
*2002 FILLER_1_205
*2003 FILLER_1_208
*2004 FILLER_1_21
*2005 FILLER_1_211
*2006 FILLER_1_214
*2007 FILLER_1_217
*2008 FILLER_1_220
*2009 FILLER_1_223
*2010 FILLER_1_225
*2011 FILLER_1_228
*2012 FILLER_1_231
*2013 FILLER_1_234
*2014 FILLER_1_237
*2015 FILLER_1_24
*2016 FILLER_1_240
*2017 FILLER_1_243
*2018 FILLER_1_246
*2019 FILLER_1_249
*2020 FILLER_1_252
*2021 FILLER_1_255
*2022 FILLER_1_258
*2023 FILLER_1_261
*2024 FILLER_1_264
*2025 FILLER_1_267
*2026 FILLER_1_27
*2027 FILLER_1_270
*2028 FILLER_1_273
*2029 FILLER_1_276
*2030 FILLER_1_279
*2031 FILLER_1_281
*2032 FILLER_1_284
*2033 FILLER_1_287
*2034 FILLER_1_290
*2035 FILLER_1_293
*2036 FILLER_1_296
*2037 FILLER_1_299
*2038 FILLER_1_3
*2039 FILLER_1_30
*2040 FILLER_1_302
*2041 FILLER_1_305
*2042 FILLER_1_308
*2043 FILLER_1_311
*2044 FILLER_1_314
*2045 FILLER_1_317
*2046 FILLER_1_320
*2047 FILLER_1_323
*2048 FILLER_1_326
*2049 FILLER_1_329
*2050 FILLER_1_33
*2051 FILLER_1_332
*2052 FILLER_1_335
*2053 FILLER_1_337
*2054 FILLER_1_340
*2055 FILLER_1_343
*2056 FILLER_1_346
*2057 FILLER_1_349
*2058 FILLER_1_352
*2059 FILLER_1_355
*2060 FILLER_1_358
*2061 FILLER_1_36
*2062 FILLER_1_361
*2063 FILLER_1_364
*2064 FILLER_1_367
*2065 FILLER_1_370
*2066 FILLER_1_373
*2067 FILLER_1_376
*2068 FILLER_1_379
*2069 FILLER_1_382
*2070 FILLER_1_385
*2071 FILLER_1_388
*2072 FILLER_1_39
*2073 FILLER_1_391
*2074 FILLER_1_393
*2075 FILLER_1_396
*2076 FILLER_1_399
*2077 FILLER_1_402
*2078 FILLER_1_405
*2079 FILLER_1_408
*2080 FILLER_1_411
*2081 FILLER_1_414
*2082 FILLER_1_417
*2083 FILLER_1_42
*2084 FILLER_1_420
*2085 FILLER_1_423
*2086 FILLER_1_426
*2087 FILLER_1_429
*2088 FILLER_1_432
*2089 FILLER_1_435
*2090 FILLER_1_438
*2091 FILLER_1_441
*2092 FILLER_1_444
*2093 FILLER_1_447
*2094 FILLER_1_449
*2095 FILLER_1_45
*2096 FILLER_1_452
*2097 FILLER_1_455
*2098 FILLER_1_458
*2099 FILLER_1_461
*2100 FILLER_1_464
*2101 FILLER_1_467
*2102 FILLER_1_470
*2103 FILLER_1_473
*2104 FILLER_1_476
*2105 FILLER_1_479
*2106 FILLER_1_48
*2107 FILLER_1_482
*2108 FILLER_1_485
*2109 FILLER_1_488
*2110 FILLER_1_491
*2111 FILLER_1_494
*2112 FILLER_1_497
*2113 FILLER_1_500
*2114 FILLER_1_503
*2115 FILLER_1_505
*2116 FILLER_1_508
*2117 FILLER_1_51
*2118 FILLER_1_511
*2119 FILLER_1_514
*2120 FILLER_1_517
*2121 FILLER_1_520
*2122 FILLER_1_523
*2123 FILLER_1_526
*2124 FILLER_1_529
*2125 FILLER_1_532
*2126 FILLER_1_535
*2127 FILLER_1_538
*2128 FILLER_1_54
*2129 FILLER_1_541
*2130 FILLER_1_544
*2131 FILLER_1_547
*2132 FILLER_1_550
*2133 FILLER_1_553
*2134 FILLER_1_556
*2135 FILLER_1_559
*2136 FILLER_1_561
*2137 FILLER_1_564
*2138 FILLER_1_567
*2139 FILLER_1_57
*2140 FILLER_1_570
*2141 FILLER_1_573
*2142 FILLER_1_576
*2143 FILLER_1_579
*2144 FILLER_1_582
*2145 FILLER_1_585
*2146 FILLER_1_588
*2147 FILLER_1_591
*2148 FILLER_1_594
*2149 FILLER_1_597
*2150 FILLER_1_6
*2151 FILLER_1_60
*2152 FILLER_1_600
*2153 FILLER_1_603
*2154 FILLER_1_606
*2155 FILLER_1_609
*2156 FILLER_1_612
*2157 FILLER_1_615
*2158 FILLER_1_617
*2159 FILLER_1_620
*2160 FILLER_1_623
*2161 FILLER_1_626
*2162 FILLER_1_629
*2163 FILLER_1_63
*2164 FILLER_1_632
*2165 FILLER_1_635
*2166 FILLER_1_638
*2167 FILLER_1_641
*2168 FILLER_1_644
*2169 FILLER_1_647
*2170 FILLER_1_650
*2171 FILLER_1_653
*2172 FILLER_1_656
*2173 FILLER_1_659
*2174 FILLER_1_66
*2175 FILLER_1_662
*2176 FILLER_1_665
*2177 FILLER_1_668
*2178 FILLER_1_671
*2179 FILLER_1_673
*2180 FILLER_1_676
*2181 FILLER_1_679
*2182 FILLER_1_682
*2183 FILLER_1_685
*2184 FILLER_1_688
*2185 FILLER_1_69
*2186 FILLER_1_691
*2187 FILLER_1_694
*2188 FILLER_1_697
*2189 FILLER_1_700
*2190 FILLER_1_703
*2191 FILLER_1_706
*2192 FILLER_1_709
*2193 FILLER_1_712
*2194 FILLER_1_72
*2195 FILLER_1_75
*2196 FILLER_1_78
*2197 FILLER_1_81
*2198 FILLER_1_84
*2199 FILLER_1_87
*2200 FILLER_1_9
*2201 FILLER_1_90
*2202 FILLER_1_93
*2203 FILLER_1_96
*2204 FILLER_1_99
*2205 FILLER_20_531
*2206 FILLER_20_534
*2207 FILLER_20_537
*2208 FILLER_20_540
*2209 FILLER_20_543
*2210 FILLER_20_546
*2211 FILLER_20_549
*2212 FILLER_20_552
*2213 FILLER_20_555
*2214 FILLER_20_557
*2215 FILLER_20_560
*2216 FILLER_20_563
*2217 FILLER_20_566
*2218 FILLER_20_569
*2219 FILLER_20_572
*2220 FILLER_20_575
*2221 FILLER_20_578
*2222 FILLER_20_581
*2223 FILLER_20_584
*2224 FILLER_20_587
*2225 FILLER_20_590
*2226 FILLER_20_593
*2227 FILLER_20_596
*2228 FILLER_20_599
*2229 FILLER_20_602
*2230 FILLER_20_605
*2231 FILLER_20_608
*2232 FILLER_20_611
*2233 FILLER_20_613
*2234 FILLER_20_616
*2235 FILLER_20_619
*2236 FILLER_20_622
*2237 FILLER_20_625
*2238 FILLER_20_628
*2239 FILLER_20_631
*2240 FILLER_20_634
*2241 FILLER_20_637
*2242 FILLER_20_640
*2243 FILLER_20_643
*2244 FILLER_20_646
*2245 FILLER_20_649
*2246 FILLER_20_652
*2247 FILLER_20_655
*2248 FILLER_20_658
*2249 FILLER_20_661
*2250 FILLER_20_664
*2251 FILLER_20_667
*2252 FILLER_20_669
*2253 FILLER_20_672
*2254 FILLER_20_675
*2255 FILLER_20_678
*2256 FILLER_20_681
*2257 FILLER_20_684
*2258 FILLER_20_687
*2259 FILLER_20_690
*2260 FILLER_20_693
*2261 FILLER_20_696
*2262 FILLER_20_699
*2263 FILLER_20_702
*2264 FILLER_20_705
*2265 FILLER_20_708
*2266 FILLER_20_711
*2267 FILLER_21_531
*2268 FILLER_21_534
*2269 FILLER_21_537
*2270 FILLER_21_540
*2271 FILLER_21_543
*2272 FILLER_21_546
*2273 FILLER_21_549
*2274 FILLER_21_552
*2275 FILLER_21_555
*2276 FILLER_21_558
*2277 FILLER_21_561
*2278 FILLER_21_564
*2279 FILLER_21_567
*2280 FILLER_21_570
*2281 FILLER_21_573
*2282 FILLER_21_576
*2283 FILLER_21_579
*2284 FILLER_21_582
*2285 FILLER_21_585
*2286 FILLER_21_588
*2287 FILLER_21_591
*2288 FILLER_21_594
*2289 FILLER_21_597
*2290 FILLER_21_600
*2291 FILLER_21_603
*2292 FILLER_21_606
*2293 FILLER_21_609
*2294 FILLER_21_612
*2295 FILLER_21_615
*2296 FILLER_21_618
*2297 FILLER_21_621
*2298 FILLER_21_624
*2299 FILLER_21_627
*2300 FILLER_21_630
*2301 FILLER_21_633
*2302 FILLER_21_636
*2303 FILLER_21_639
*2304 FILLER_21_641
*2305 FILLER_21_644
*2306 FILLER_21_647
*2307 FILLER_21_650
*2308 FILLER_21_653
*2309 FILLER_21_656
*2310 FILLER_21_659
*2311 FILLER_21_662
*2312 FILLER_21_665
*2313 FILLER_21_668
*2314 FILLER_21_671
*2315 FILLER_21_674
*2316 FILLER_21_677
*2317 FILLER_21_680
*2318 FILLER_21_683
*2319 FILLER_21_686
*2320 FILLER_21_689
*2321 FILLER_21_692
*2322 FILLER_21_695
*2323 FILLER_21_697
*2324 FILLER_21_700
*2325 FILLER_21_703
*2326 FILLER_21_706
*2327 FILLER_21_709
*2328 FILLER_21_712
*2329 FILLER_22_105
*2330 FILLER_22_108
*2331 FILLER_22_111
*2332 FILLER_22_113
*2333 FILLER_22_116
*2334 FILLER_22_119
*2335 FILLER_22_12
*2336 FILLER_22_122
*2337 FILLER_22_125
*2338 FILLER_22_128
*2339 FILLER_22_131
*2340 FILLER_22_141
*2341 FILLER_22_144
*2342 FILLER_22_147
*2343 FILLER_22_15
*2344 FILLER_22_150
*2345 FILLER_22_153
*2346 FILLER_22_156
*2347 FILLER_22_159
*2348 FILLER_22_162
*2349 FILLER_22_169
*2350 FILLER_22_172
*2351 FILLER_22_175
*2352 FILLER_22_178
*2353 FILLER_22_18
*2354 FILLER_22_181
*2355 FILLER_22_184
*2356 FILLER_22_193
*2357 FILLER_22_197
*2358 FILLER_22_200
*2359 FILLER_22_21
*2360 FILLER_22_222
*2361 FILLER_22_24
*2362 FILLER_22_243
*2363 FILLER_22_246
*2364 FILLER_22_249
*2365 FILLER_22_253
*2366 FILLER_22_256
*2367 FILLER_22_259
*2368 FILLER_22_262
*2369 FILLER_22_265
*2370 FILLER_22_268
*2371 FILLER_22_27
*2372 FILLER_22_276
*2373 FILLER_22_279
*2374 FILLER_22_281
*2375 FILLER_22_284
*2376 FILLER_22_287
*2377 FILLER_22_29
*2378 FILLER_22_294
*2379 FILLER_22_297
*2380 FILLER_22_3
*2381 FILLER_22_300
*2382 FILLER_22_303
*2383 FILLER_22_306
*2384 FILLER_22_309
*2385 FILLER_22_32
*2386 FILLER_22_331
*2387 FILLER_22_334
*2388 FILLER_22_337
*2389 FILLER_22_340
*2390 FILLER_22_343
*2391 FILLER_22_346
*2392 FILLER_22_349
*2393 FILLER_22_35
*2394 FILLER_22_352
*2395 FILLER_22_355
*2396 FILLER_22_358
*2397 FILLER_22_361
*2398 FILLER_22_365
*2399 FILLER_22_368
*2400 FILLER_22_371
*2401 FILLER_22_374
*2402 FILLER_22_377
*2403 FILLER_22_38
*2404 FILLER_22_380
*2405 FILLER_22_383
*2406 FILLER_22_386
*2407 FILLER_22_389
*2408 FILLER_22_393
*2409 FILLER_22_396
*2410 FILLER_22_399
*2411 FILLER_22_402
*2412 FILLER_22_405
*2413 FILLER_22_408
*2414 FILLER_22_41
*2415 FILLER_22_411
*2416 FILLER_22_421
*2417 FILLER_22_431
*2418 FILLER_22_434
*2419 FILLER_22_437
*2420 FILLER_22_44
*2421 FILLER_22_440
*2422 FILLER_22_443
*2423 FILLER_22_446
*2424 FILLER_22_449
*2425 FILLER_22_452
*2426 FILLER_22_455
*2427 FILLER_22_462
*2428 FILLER_22_465
*2429 FILLER_22_468
*2430 FILLER_22_47
*2431 FILLER_22_471
*2432 FILLER_22_474
*2433 FILLER_22_477
*2434 FILLER_22_480
*2435 FILLER_22_483
*2436 FILLER_22_486
*2437 FILLER_22_489
*2438 FILLER_22_492
*2439 FILLER_22_495
*2440 FILLER_22_498
*2441 FILLER_22_501
*2442 FILLER_22_505
*2443 FILLER_22_508
*2444 FILLER_22_511
*2445 FILLER_22_514
*2446 FILLER_22_517
*2447 FILLER_22_520
*2448 FILLER_22_523
*2449 FILLER_22_526
*2450 FILLER_22_529
*2451 FILLER_22_533
*2452 FILLER_22_536
*2453 FILLER_22_539
*2454 FILLER_22_542
*2455 FILLER_22_545
*2456 FILLER_22_548
*2457 FILLER_22_551
*2458 FILLER_22_554
*2459 FILLER_22_557
*2460 FILLER_22_561
*2461 FILLER_22_564
*2462 FILLER_22_567
*2463 FILLER_22_57
*2464 FILLER_22_570
*2465 FILLER_22_573
*2466 FILLER_22_576
*2467 FILLER_22_579
*2468 FILLER_22_582
*2469 FILLER_22_585
*2470 FILLER_22_589
*2471 FILLER_22_592
*2472 FILLER_22_595
*2473 FILLER_22_598
*2474 FILLER_22_6
*2475 FILLER_22_601
*2476 FILLER_22_604
*2477 FILLER_22_607
*2478 FILLER_22_610
*2479 FILLER_22_613
*2480 FILLER_22_617
*2481 FILLER_22_620
*2482 FILLER_22_623
*2483 FILLER_22_626
*2484 FILLER_22_629
*2485 FILLER_22_632
*2486 FILLER_22_635
*2487 FILLER_22_638
*2488 FILLER_22_641
*2489 FILLER_22_645
*2490 FILLER_22_648
*2491 FILLER_22_651
*2492 FILLER_22_654
*2493 FILLER_22_657
*2494 FILLER_22_660
*2495 FILLER_22_663
*2496 FILLER_22_666
*2497 FILLER_22_669
*2498 FILLER_22_673
*2499 FILLER_22_676
*2500 FILLER_22_679
*2501 FILLER_22_682
*2502 FILLER_22_685
*2503 FILLER_22_688
*2504 FILLER_22_691
*2505 FILLER_22_694
*2506 FILLER_22_697
*2507 FILLER_22_70
*2508 FILLER_22_701
*2509 FILLER_22_704
*2510 FILLER_22_707
*2511 FILLER_22_710
*2512 FILLER_22_79
*2513 FILLER_22_82
*2514 FILLER_22_85
*2515 FILLER_22_88
*2516 FILLER_22_9
*2517 FILLER_22_91
*2518 FILLER_22_94
*2519 FILLER_22_97
*2520 FILLER_23_531
*2521 FILLER_23_534
*2522 FILLER_23_537
*2523 FILLER_23_540
*2524 FILLER_23_543
*2525 FILLER_23_546
*2526 FILLER_23_549
*2527 FILLER_23_552
*2528 FILLER_23_555
*2529 FILLER_23_558
*2530 FILLER_23_561
*2531 FILLER_23_564
*2532 FILLER_23_567
*2533 FILLER_23_570
*2534 FILLER_23_573
*2535 FILLER_23_576
*2536 FILLER_23_579
*2537 FILLER_23_582
*2538 FILLER_23_585
*2539 FILLER_23_588
*2540 FILLER_23_591
*2541 FILLER_23_594
*2542 FILLER_23_597
*2543 FILLER_23_600
*2544 FILLER_23_603
*2545 FILLER_23_606
*2546 FILLER_23_609
*2547 FILLER_23_612
*2548 FILLER_23_615
*2549 FILLER_23_618
*2550 FILLER_23_621
*2551 FILLER_23_624
*2552 FILLER_23_627
*2553 FILLER_23_630
*2554 FILLER_23_633
*2555 FILLER_23_636
*2556 FILLER_23_639
*2557 FILLER_23_641
*2558 FILLER_23_644
*2559 FILLER_23_647
*2560 FILLER_23_650
*2561 FILLER_23_653
*2562 FILLER_23_656
*2563 FILLER_23_659
*2564 FILLER_23_662
*2565 FILLER_23_665
*2566 FILLER_23_668
*2567 FILLER_23_671
*2568 FILLER_23_674
*2569 FILLER_23_677
*2570 FILLER_23_680
*2571 FILLER_23_683
*2572 FILLER_23_686
*2573 FILLER_23_689
*2574 FILLER_23_692
*2575 FILLER_23_695
*2576 FILLER_23_697
*2577 FILLER_23_700
*2578 FILLER_23_703
*2579 FILLER_23_706
*2580 FILLER_23_709
*2581 FILLER_23_712
*2582 FILLER_24_531
*2583 FILLER_24_534
*2584 FILLER_24_537
*2585 FILLER_24_540
*2586 FILLER_24_543
*2587 FILLER_24_546
*2588 FILLER_24_549
*2589 FILLER_24_552
*2590 FILLER_24_555
*2591 FILLER_24_557
*2592 FILLER_24_560
*2593 FILLER_24_563
*2594 FILLER_24_566
*2595 FILLER_24_569
*2596 FILLER_24_572
*2597 FILLER_24_575
*2598 FILLER_24_578
*2599 FILLER_24_581
*2600 FILLER_24_584
*2601 FILLER_24_587
*2602 FILLER_24_590
*2603 FILLER_24_593
*2604 FILLER_24_596
*2605 FILLER_24_599
*2606 FILLER_24_602
*2607 FILLER_24_605
*2608 FILLER_24_608
*2609 FILLER_24_611
*2610 FILLER_24_613
*2611 FILLER_24_616
*2612 FILLER_24_619
*2613 FILLER_24_622
*2614 FILLER_24_625
*2615 FILLER_24_628
*2616 FILLER_24_631
*2617 FILLER_24_634
*2618 FILLER_24_637
*2619 FILLER_24_640
*2620 FILLER_24_643
*2621 FILLER_24_646
*2622 FILLER_24_649
*2623 FILLER_24_652
*2624 FILLER_24_655
*2625 FILLER_24_658
*2626 FILLER_24_661
*2627 FILLER_24_664
*2628 FILLER_24_667
*2629 FILLER_24_669
*2630 FILLER_24_672
*2631 FILLER_24_675
*2632 FILLER_24_678
*2633 FILLER_24_681
*2634 FILLER_24_684
*2635 FILLER_24_687
*2636 FILLER_24_690
*2637 FILLER_24_693
*2638 FILLER_24_696
*2639 FILLER_24_699
*2640 FILLER_24_702
*2641 FILLER_24_705
*2642 FILLER_24_708
*2643 FILLER_24_711
*2644 FILLER_25_531
*2645 FILLER_25_534
*2646 FILLER_25_537
*2647 FILLER_25_540
*2648 FILLER_25_543
*2649 FILLER_25_546
*2650 FILLER_25_552
*2651 FILLER_25_555
*2652 FILLER_25_558
*2653 FILLER_25_561
*2654 FILLER_25_564
*2655 FILLER_25_567
*2656 FILLER_25_570
*2657 FILLER_25_573
*2658 FILLER_25_576
*2659 FILLER_25_579
*2660 FILLER_25_582
*2661 FILLER_25_585
*2662 FILLER_25_588
*2663 FILLER_25_591
*2664 FILLER_25_594
*2665 FILLER_25_597
*2666 FILLER_25_600
*2667 FILLER_25_603
*2668 FILLER_25_606
*2669 FILLER_25_609
*2670 FILLER_25_612
*2671 FILLER_25_615
*2672 FILLER_25_618
*2673 FILLER_25_621
*2674 FILLER_25_624
*2675 FILLER_25_627
*2676 FILLER_25_630
*2677 FILLER_25_633
*2678 FILLER_25_636
*2679 FILLER_25_639
*2680 FILLER_25_641
*2681 FILLER_25_644
*2682 FILLER_25_647
*2683 FILLER_25_650
*2684 FILLER_25_653
*2685 FILLER_25_656
*2686 FILLER_25_659
*2687 FILLER_25_662
*2688 FILLER_25_665
*2689 FILLER_25_668
*2690 FILLER_25_671
*2691 FILLER_25_674
*2692 FILLER_25_677
*2693 FILLER_25_680
*2694 FILLER_25_683
*2695 FILLER_25_686
*2696 FILLER_25_689
*2697 FILLER_25_692
*2698 FILLER_25_695
*2699 FILLER_25_697
*2700 FILLER_25_700
*2701 FILLER_25_703
*2702 FILLER_25_706
*2703 FILLER_25_709
*2704 FILLER_25_712
*2705 FILLER_26_531
*2706 FILLER_26_534
*2707 FILLER_26_542
*2708 FILLER_26_555
*2709 FILLER_26_557
*2710 FILLER_26_560
*2711 FILLER_26_563
*2712 FILLER_26_566
*2713 FILLER_26_588
*2714 FILLER_26_591
*2715 FILLER_26_594
*2716 FILLER_26_597
*2717 FILLER_26_600
*2718 FILLER_26_603
*2719 FILLER_26_606
*2720 FILLER_26_609
*2721 FILLER_26_613
*2722 FILLER_26_616
*2723 FILLER_26_619
*2724 FILLER_26_622
*2725 FILLER_26_625
*2726 FILLER_26_628
*2727 FILLER_26_631
*2728 FILLER_26_634
*2729 FILLER_26_637
*2730 FILLER_26_640
*2731 FILLER_26_643
*2732 FILLER_26_646
*2733 FILLER_26_649
*2734 FILLER_26_652
*2735 FILLER_26_655
*2736 FILLER_26_658
*2737 FILLER_26_661
*2738 FILLER_26_664
*2739 FILLER_26_667
*2740 FILLER_26_669
*2741 FILLER_26_672
*2742 FILLER_26_675
*2743 FILLER_26_678
*2744 FILLER_26_681
*2745 FILLER_26_684
*2746 FILLER_26_687
*2747 FILLER_26_690
*2748 FILLER_26_693
*2749 FILLER_26_696
*2750 FILLER_26_699
*2751 FILLER_26_702
*2752 FILLER_26_705
*2753 FILLER_26_708
*2754 FILLER_26_711
*2755 FILLER_27_531
*2756 FILLER_27_538
*2757 FILLER_27_541
*2758 FILLER_27_544
*2759 FILLER_27_555
*2760 FILLER_27_558
*2761 FILLER_27_561
*2762 FILLER_27_564
*2763 FILLER_27_574
*2764 FILLER_27_577
*2765 FILLER_27_580
*2766 FILLER_27_585
*2767 FILLER_27_588
*2768 FILLER_27_591
*2769 FILLER_27_598
*2770 FILLER_27_601
*2771 FILLER_27_612
*2772 FILLER_27_617
*2773 FILLER_27_627
*2774 FILLER_27_630
*2775 FILLER_27_633
*2776 FILLER_27_636
*2777 FILLER_27_639
*2778 FILLER_27_641
*2779 FILLER_27_644
*2780 FILLER_27_647
*2781 FILLER_27_650
*2782 FILLER_27_653
*2783 FILLER_27_656
*2784 FILLER_27_659
*2785 FILLER_27_662
*2786 FILLER_27_665
*2787 FILLER_27_668
*2788 FILLER_27_671
*2789 FILLER_27_674
*2790 FILLER_27_677
*2791 FILLER_27_680
*2792 FILLER_27_683
*2793 FILLER_27_686
*2794 FILLER_27_689
*2795 FILLER_27_692
*2796 FILLER_27_695
*2797 FILLER_27_697
*2798 FILLER_27_700
*2799 FILLER_27_703
*2800 FILLER_27_706
*2801 FILLER_27_709
*2802 FILLER_27_712
*2803 FILLER_28_531
*2804 FILLER_28_540
*2805 FILLER_28_543
*2806 FILLER_28_554
*2807 FILLER_28_557
*2808 FILLER_28_560
*2809 FILLER_28_571
*2810 FILLER_28_574
*2811 FILLER_28_591
*2812 FILLER_28_594
*2813 FILLER_28_597
*2814 FILLER_28_600
*2815 FILLER_28_613
*2816 FILLER_28_616
*2817 FILLER_28_619
*2818 FILLER_28_622
*2819 FILLER_28_632
*2820 FILLER_28_635
*2821 FILLER_28_638
*2822 FILLER_28_641
*2823 FILLER_28_644
*2824 FILLER_28_647
*2825 FILLER_28_650
*2826 FILLER_28_653
*2827 FILLER_28_656
*2828 FILLER_28_659
*2829 FILLER_28_662
*2830 FILLER_28_665
*2831 FILLER_28_669
*2832 FILLER_28_672
*2833 FILLER_28_675
*2834 FILLER_28_678
*2835 FILLER_28_681
*2836 FILLER_28_684
*2837 FILLER_28_687
*2838 FILLER_28_690
*2839 FILLER_28_693
*2840 FILLER_28_696
*2841 FILLER_28_699
*2842 FILLER_28_702
*2843 FILLER_28_705
*2844 FILLER_28_708
*2845 FILLER_28_711
*2846 FILLER_29_531
*2847 FILLER_29_540
*2848 FILLER_29_543
*2849 FILLER_29_554
*2850 FILLER_29_557
*2851 FILLER_29_560
*2852 FILLER_29_563
*2853 FILLER_29_573
*2854 FILLER_29_576
*2855 FILLER_29_588
*2856 FILLER_29_591
*2857 FILLER_29_594
*2858 FILLER_29_617
*2859 FILLER_29_620
*2860 FILLER_29_629
*2861 FILLER_29_632
*2862 FILLER_29_635
*2863 FILLER_29_638
*2864 FILLER_29_641
*2865 FILLER_29_644
*2866 FILLER_29_647
*2867 FILLER_29_650
*2868 FILLER_29_653
*2869 FILLER_29_656
*2870 FILLER_29_659
*2871 FILLER_29_662
*2872 FILLER_29_665
*2873 FILLER_29_668
*2874 FILLER_29_671
*2875 FILLER_29_674
*2876 FILLER_29_677
*2877 FILLER_29_680
*2878 FILLER_29_683
*2879 FILLER_29_686
*2880 FILLER_29_689
*2881 FILLER_29_692
*2882 FILLER_29_695
*2883 FILLER_29_697
*2884 FILLER_29_700
*2885 FILLER_29_703
*2886 FILLER_29_706
*2887 FILLER_29_709
*2888 FILLER_29_712
*2889 FILLER_2_100
*2890 FILLER_2_103
*2891 FILLER_2_106
*2892 FILLER_2_109
*2893 FILLER_2_112
*2894 FILLER_2_115
*2895 FILLER_2_118
*2896 FILLER_2_12
*2897 FILLER_2_121
*2898 FILLER_2_124
*2899 FILLER_2_127
*2900 FILLER_2_130
*2901 FILLER_2_133
*2902 FILLER_2_136
*2903 FILLER_2_139
*2904 FILLER_2_141
*2905 FILLER_2_144
*2906 FILLER_2_147
*2907 FILLER_2_15
*2908 FILLER_2_150
*2909 FILLER_2_153
*2910 FILLER_2_156
*2911 FILLER_2_159
*2912 FILLER_2_162
*2913 FILLER_2_165
*2914 FILLER_2_168
*2915 FILLER_2_171
*2916 FILLER_2_174
*2917 FILLER_2_177
*2918 FILLER_2_18
*2919 FILLER_2_180
*2920 FILLER_2_183
*2921 FILLER_2_186
*2922 FILLER_2_189
*2923 FILLER_2_192
*2924 FILLER_2_195
*2925 FILLER_2_197
*2926 FILLER_2_200
*2927 FILLER_2_203
*2928 FILLER_2_206
*2929 FILLER_2_209
*2930 FILLER_2_21
*2931 FILLER_2_212
*2932 FILLER_2_215
*2933 FILLER_2_218
*2934 FILLER_2_221
*2935 FILLER_2_224
*2936 FILLER_2_227
*2937 FILLER_2_230
*2938 FILLER_2_233
*2939 FILLER_2_236
*2940 FILLER_2_239
*2941 FILLER_2_24
*2942 FILLER_2_242
*2943 FILLER_2_245
*2944 FILLER_2_248
*2945 FILLER_2_251
*2946 FILLER_2_253
*2947 FILLER_2_256
*2948 FILLER_2_259
*2949 FILLER_2_262
*2950 FILLER_2_265
*2951 FILLER_2_268
*2952 FILLER_2_27
*2953 FILLER_2_271
*2954 FILLER_2_274
*2955 FILLER_2_277
*2956 FILLER_2_280
*2957 FILLER_2_283
*2958 FILLER_2_286
*2959 FILLER_2_289
*2960 FILLER_2_29
*2961 FILLER_2_292
*2962 FILLER_2_295
*2963 FILLER_2_298
*2964 FILLER_2_3
*2965 FILLER_2_301
*2966 FILLER_2_304
*2967 FILLER_2_307
*2968 FILLER_2_309
*2969 FILLER_2_312
*2970 FILLER_2_315
*2971 FILLER_2_318
*2972 FILLER_2_32
*2973 FILLER_2_321
*2974 FILLER_2_324
*2975 FILLER_2_327
*2976 FILLER_2_330
*2977 FILLER_2_333
*2978 FILLER_2_336
*2979 FILLER_2_339
*2980 FILLER_2_342
*2981 FILLER_2_345
*2982 FILLER_2_348
*2983 FILLER_2_35
*2984 FILLER_2_351
*2985 FILLER_2_354
*2986 FILLER_2_357
*2987 FILLER_2_360
*2988 FILLER_2_363
*2989 FILLER_2_365
*2990 FILLER_2_368
*2991 FILLER_2_371
*2992 FILLER_2_374
*2993 FILLER_2_377
*2994 FILLER_2_38
*2995 FILLER_2_380
*2996 FILLER_2_383
*2997 FILLER_2_386
*2998 FILLER_2_389
*2999 FILLER_2_392
*3000 FILLER_2_395
*3001 FILLER_2_398
*3002 FILLER_2_401
*3003 FILLER_2_404
*3004 FILLER_2_407
*3005 FILLER_2_41
*3006 FILLER_2_410
*3007 FILLER_2_413
*3008 FILLER_2_416
*3009 FILLER_2_419
*3010 FILLER_2_421
*3011 FILLER_2_424
*3012 FILLER_2_427
*3013 FILLER_2_430
*3014 FILLER_2_433
*3015 FILLER_2_436
*3016 FILLER_2_439
*3017 FILLER_2_44
*3018 FILLER_2_442
*3019 FILLER_2_445
*3020 FILLER_2_448
*3021 FILLER_2_451
*3022 FILLER_2_454
*3023 FILLER_2_457
*3024 FILLER_2_460
*3025 FILLER_2_463
*3026 FILLER_2_466
*3027 FILLER_2_469
*3028 FILLER_2_47
*3029 FILLER_2_472
*3030 FILLER_2_475
*3031 FILLER_2_477
*3032 FILLER_2_480
*3033 FILLER_2_483
*3034 FILLER_2_486
*3035 FILLER_2_489
*3036 FILLER_2_492
*3037 FILLER_2_495
*3038 FILLER_2_498
*3039 FILLER_2_50
*3040 FILLER_2_501
*3041 FILLER_2_504
*3042 FILLER_2_507
*3043 FILLER_2_510
*3044 FILLER_2_513
*3045 FILLER_2_516
*3046 FILLER_2_519
*3047 FILLER_2_522
*3048 FILLER_2_525
*3049 FILLER_2_528
*3050 FILLER_2_53
*3051 FILLER_2_531
*3052 FILLER_2_533
*3053 FILLER_2_536
*3054 FILLER_2_539
*3055 FILLER_2_542
*3056 FILLER_2_545
*3057 FILLER_2_548
*3058 FILLER_2_551
*3059 FILLER_2_554
*3060 FILLER_2_557
*3061 FILLER_2_56
*3062 FILLER_2_560
*3063 FILLER_2_563
*3064 FILLER_2_566
*3065 FILLER_2_569
*3066 FILLER_2_572
*3067 FILLER_2_575
*3068 FILLER_2_578
*3069 FILLER_2_581
*3070 FILLER_2_584
*3071 FILLER_2_587
*3072 FILLER_2_589
*3073 FILLER_2_59
*3074 FILLER_2_592
*3075 FILLER_2_595
*3076 FILLER_2_598
*3077 FILLER_2_6
*3078 FILLER_2_601
*3079 FILLER_2_604
*3080 FILLER_2_607
*3081 FILLER_2_610
*3082 FILLER_2_613
*3083 FILLER_2_616
*3084 FILLER_2_619
*3085 FILLER_2_62
*3086 FILLER_2_622
*3087 FILLER_2_625
*3088 FILLER_2_628
*3089 FILLER_2_631
*3090 FILLER_2_634
*3091 FILLER_2_637
*3092 FILLER_2_640
*3093 FILLER_2_643
*3094 FILLER_2_645
*3095 FILLER_2_648
*3096 FILLER_2_65
*3097 FILLER_2_651
*3098 FILLER_2_654
*3099 FILLER_2_657
*3100 FILLER_2_660
*3101 FILLER_2_663
*3102 FILLER_2_666
*3103 FILLER_2_669
*3104 FILLER_2_672
*3105 FILLER_2_675
*3106 FILLER_2_678
*3107 FILLER_2_68
*3108 FILLER_2_681
*3109 FILLER_2_684
*3110 FILLER_2_687
*3111 FILLER_2_690
*3112 FILLER_2_693
*3113 FILLER_2_696
*3114 FILLER_2_699
*3115 FILLER_2_701
*3116 FILLER_2_704
*3117 FILLER_2_707
*3118 FILLER_2_71
*3119 FILLER_2_710
*3120 FILLER_2_74
*3121 FILLER_2_77
*3122 FILLER_2_80
*3123 FILLER_2_83
*3124 FILLER_2_85
*3125 FILLER_2_88
*3126 FILLER_2_9
*3127 FILLER_2_91
*3128 FILLER_2_94
*3129 FILLER_2_97
*3130 FILLER_30_531
*3131 FILLER_30_547
*3132 FILLER_30_557
*3133 FILLER_30_564
*3134 FILLER_30_573
*3135 FILLER_30_576
*3136 FILLER_30_587
*3137 FILLER_30_590
*3138 FILLER_30_598
*3139 FILLER_30_601
*3140 FILLER_30_604
*3141 FILLER_30_607
*3142 FILLER_30_610
*3143 FILLER_30_619
*3144 FILLER_30_623
*3145 FILLER_30_626
*3146 FILLER_30_629
*3147 FILLER_30_632
*3148 FILLER_30_635
*3149 FILLER_30_638
*3150 FILLER_30_641
*3151 FILLER_30_644
*3152 FILLER_30_647
*3153 FILLER_30_650
*3154 FILLER_30_653
*3155 FILLER_30_656
*3156 FILLER_30_659
*3157 FILLER_30_662
*3158 FILLER_30_665
*3159 FILLER_30_669
*3160 FILLER_30_672
*3161 FILLER_30_675
*3162 FILLER_30_678
*3163 FILLER_30_681
*3164 FILLER_30_684
*3165 FILLER_30_687
*3166 FILLER_30_690
*3167 FILLER_30_693
*3168 FILLER_30_696
*3169 FILLER_30_699
*3170 FILLER_30_702
*3171 FILLER_30_705
*3172 FILLER_30_708
*3173 FILLER_30_711
*3174 FILLER_31_531
*3175 FILLER_31_534
*3176 FILLER_31_537
*3177 FILLER_31_540
*3178 FILLER_31_543
*3179 FILLER_31_546
*3180 FILLER_31_549
*3181 FILLER_31_553
*3182 FILLER_31_565
*3183 FILLER_31_571
*3184 FILLER_31_582
*3185 FILLER_31_585
*3186 FILLER_31_588
*3187 FILLER_31_591
*3188 FILLER_31_598
*3189 FILLER_31_603
*3190 FILLER_31_618
*3191 FILLER_31_621
*3192 FILLER_31_624
*3193 FILLER_31_627
*3194 FILLER_31_630
*3195 FILLER_31_633
*3196 FILLER_31_636
*3197 FILLER_31_639
*3198 FILLER_31_641
*3199 FILLER_31_644
*3200 FILLER_31_647
*3201 FILLER_31_650
*3202 FILLER_31_653
*3203 FILLER_31_656
*3204 FILLER_31_659
*3205 FILLER_31_662
*3206 FILLER_31_665
*3207 FILLER_31_668
*3208 FILLER_31_671
*3209 FILLER_31_674
*3210 FILLER_31_677
*3211 FILLER_31_680
*3212 FILLER_31_683
*3213 FILLER_31_686
*3214 FILLER_31_689
*3215 FILLER_31_692
*3216 FILLER_31_695
*3217 FILLER_31_697
*3218 FILLER_31_700
*3219 FILLER_31_703
*3220 FILLER_31_706
*3221 FILLER_31_709
*3222 FILLER_31_712
*3223 FILLER_32_531
*3224 FILLER_32_534
*3225 FILLER_32_549
*3226 FILLER_32_555
*3227 FILLER_32_557
*3228 FILLER_32_568
*3229 FILLER_32_571
*3230 FILLER_32_574
*3231 FILLER_32_586
*3232 FILLER_32_589
*3233 FILLER_32_599
*3234 FILLER_32_602
*3235 FILLER_32_605
*3236 FILLER_32_608
*3237 FILLER_32_611
*3238 FILLER_32_613
*3239 FILLER_32_626
*3240 FILLER_32_640
*3241 FILLER_32_643
*3242 FILLER_32_646
*3243 FILLER_32_649
*3244 FILLER_32_652
*3245 FILLER_32_655
*3246 FILLER_32_658
*3247 FILLER_32_661
*3248 FILLER_32_664
*3249 FILLER_32_667
*3250 FILLER_32_669
*3251 FILLER_32_672
*3252 FILLER_32_675
*3253 FILLER_32_678
*3254 FILLER_32_681
*3255 FILLER_32_684
*3256 FILLER_32_687
*3257 FILLER_32_690
*3258 FILLER_32_693
*3259 FILLER_32_696
*3260 FILLER_32_699
*3261 FILLER_32_702
*3262 FILLER_32_705
*3263 FILLER_32_708
*3264 FILLER_32_711
*3265 FILLER_33_531
*3266 FILLER_33_534
*3267 FILLER_33_545
*3268 FILLER_33_548
*3269 FILLER_33_551
*3270 FILLER_33_554
*3271 FILLER_33_565
*3272 FILLER_33_568
*3273 FILLER_33_571
*3274 FILLER_33_574
*3275 FILLER_33_585
*3276 FILLER_33_591
*3277 FILLER_33_594
*3278 FILLER_33_597
*3279 FILLER_33_600
*3280 FILLER_33_608
*3281 FILLER_33_622
*3282 FILLER_33_625
*3283 FILLER_33_628
*3284 FILLER_33_639
*3285 FILLER_33_641
*3286 FILLER_33_644
*3287 FILLER_33_647
*3288 FILLER_33_650
*3289 FILLER_33_653
*3290 FILLER_33_656
*3291 FILLER_33_659
*3292 FILLER_33_662
*3293 FILLER_33_665
*3294 FILLER_33_668
*3295 FILLER_33_671
*3296 FILLER_33_674
*3297 FILLER_33_677
*3298 FILLER_33_680
*3299 FILLER_33_683
*3300 FILLER_33_686
*3301 FILLER_33_689
*3302 FILLER_33_692
*3303 FILLER_33_695
*3304 FILLER_33_697
*3305 FILLER_33_700
*3306 FILLER_33_703
*3307 FILLER_33_706
*3308 FILLER_33_709
*3309 FILLER_33_712
*3310 FILLER_34_531
*3311 FILLER_34_534
*3312 FILLER_34_546
*3313 FILLER_34_549
*3314 FILLER_34_552
*3315 FILLER_34_555
*3316 FILLER_34_557
*3317 FILLER_34_574
*3318 FILLER_34_577
*3319 FILLER_34_580
*3320 FILLER_34_583
*3321 FILLER_34_586
*3322 FILLER_34_589
*3323 FILLER_34_592
*3324 FILLER_34_595
*3325 FILLER_34_611
*3326 FILLER_34_619
*3327 FILLER_34_624
*3328 FILLER_34_634
*3329 FILLER_34_637
*3330 FILLER_34_640
*3331 FILLER_34_643
*3332 FILLER_34_646
*3333 FILLER_34_649
*3334 FILLER_34_652
*3335 FILLER_34_655
*3336 FILLER_34_658
*3337 FILLER_34_661
*3338 FILLER_34_664
*3339 FILLER_34_667
*3340 FILLER_34_669
*3341 FILLER_34_672
*3342 FILLER_34_675
*3343 FILLER_34_678
*3344 FILLER_34_681
*3345 FILLER_34_684
*3346 FILLER_34_687
*3347 FILLER_34_690
*3348 FILLER_34_693
*3349 FILLER_34_696
*3350 FILLER_34_699
*3351 FILLER_34_702
*3352 FILLER_34_705
*3353 FILLER_34_708
*3354 FILLER_34_711
*3355 FILLER_35_531
*3356 FILLER_35_534
*3357 FILLER_35_537
*3358 FILLER_35_540
*3359 FILLER_35_554
*3360 FILLER_35_561
*3361 FILLER_35_571
*3362 FILLER_35_585
*3363 FILLER_35_588
*3364 FILLER_35_591
*3365 FILLER_35_594
*3366 FILLER_35_597
*3367 FILLER_35_600
*3368 FILLER_35_604
*3369 FILLER_35_613
*3370 FILLER_35_616
*3371 FILLER_35_620
*3372 FILLER_35_625
*3373 FILLER_35_629
*3374 FILLER_35_633
*3375 FILLER_35_639
*3376 FILLER_35_641
*3377 FILLER_35_644
*3378 FILLER_35_647
*3379 FILLER_35_650
*3380 FILLER_35_653
*3381 FILLER_35_656
*3382 FILLER_35_659
*3383 FILLER_35_662
*3384 FILLER_35_665
*3385 FILLER_35_668
*3386 FILLER_35_671
*3387 FILLER_35_674
*3388 FILLER_35_677
*3389 FILLER_35_680
*3390 FILLER_35_683
*3391 FILLER_35_686
*3392 FILLER_35_689
*3393 FILLER_35_692
*3394 FILLER_35_695
*3395 FILLER_35_697
*3396 FILLER_35_700
*3397 FILLER_35_703
*3398 FILLER_35_706
*3399 FILLER_35_709
*3400 FILLER_35_712
*3401 FILLER_36_531
*3402 FILLER_36_534
*3403 FILLER_36_537
*3404 FILLER_36_540
*3405 FILLER_36_543
*3406 FILLER_36_546
*3407 FILLER_36_549
*3408 FILLER_36_552
*3409 FILLER_36_555
*3410 FILLER_36_557
*3411 FILLER_36_560
*3412 FILLER_36_564
*3413 FILLER_36_568
*3414 FILLER_36_571
*3415 FILLER_36_574
*3416 FILLER_36_577
*3417 FILLER_36_583
*3418 FILLER_36_599
*3419 FILLER_36_602
*3420 FILLER_36_605
*3421 FILLER_36_625
*3422 FILLER_36_628
*3423 FILLER_36_631
*3424 FILLER_36_634
*3425 FILLER_36_637
*3426 FILLER_36_645
*3427 FILLER_36_648
*3428 FILLER_36_651
*3429 FILLER_36_654
*3430 FILLER_36_657
*3431 FILLER_36_660
*3432 FILLER_36_663
*3433 FILLER_36_666
*3434 FILLER_36_669
*3435 FILLER_36_672
*3436 FILLER_36_675
*3437 FILLER_36_678
*3438 FILLER_36_681
*3439 FILLER_36_684
*3440 FILLER_36_687
*3441 FILLER_36_690
*3442 FILLER_36_693
*3443 FILLER_36_696
*3444 FILLER_36_699
*3445 FILLER_36_702
*3446 FILLER_36_705
*3447 FILLER_36_708
*3448 FILLER_36_711
*3449 FILLER_37_531
*3450 FILLER_37_534
*3451 FILLER_37_537
*3452 FILLER_37_540
*3453 FILLER_37_543
*3454 FILLER_37_546
*3455 FILLER_37_549
*3456 FILLER_37_552
*3457 FILLER_37_555
*3458 FILLER_37_564
*3459 FILLER_37_588
*3460 FILLER_37_591
*3461 FILLER_37_594
*3462 FILLER_37_597
*3463 FILLER_37_601
*3464 FILLER_37_605
*3465 FILLER_37_612
*3466 FILLER_37_615
*3467 FILLER_37_618
*3468 FILLER_37_629
*3469 FILLER_37_635
*3470 FILLER_37_639
*3471 FILLER_37_647
*3472 FILLER_37_650
*3473 FILLER_37_653
*3474 FILLER_37_656
*3475 FILLER_37_659
*3476 FILLER_37_662
*3477 FILLER_37_665
*3478 FILLER_37_668
*3479 FILLER_37_671
*3480 FILLER_37_674
*3481 FILLER_37_677
*3482 FILLER_37_680
*3483 FILLER_37_683
*3484 FILLER_37_686
*3485 FILLER_37_689
*3486 FILLER_37_692
*3487 FILLER_37_695
*3488 FILLER_37_697
*3489 FILLER_37_700
*3490 FILLER_37_703
*3491 FILLER_37_706
*3492 FILLER_37_709
*3493 FILLER_37_712
*3494 FILLER_38_531
*3495 FILLER_38_534
*3496 FILLER_38_546
*3497 FILLER_38_549
*3498 FILLER_38_552
*3499 FILLER_38_555
*3500 FILLER_38_557
*3501 FILLER_38_560
*3502 FILLER_38_576
*3503 FILLER_38_583
*3504 FILLER_38_597
*3505 FILLER_38_611
*3506 FILLER_38_613
*3507 FILLER_38_616
*3508 FILLER_38_619
*3509 FILLER_38_623
*3510 FILLER_38_627
*3511 FILLER_38_635
*3512 FILLER_38_638
*3513 FILLER_38_641
*3514 FILLER_38_644
*3515 FILLER_38_647
*3516 FILLER_38_650
*3517 FILLER_38_653
*3518 FILLER_38_656
*3519 FILLER_38_659
*3520 FILLER_38_662
*3521 FILLER_38_665
*3522 FILLER_38_669
*3523 FILLER_38_672
*3524 FILLER_38_675
*3525 FILLER_38_678
*3526 FILLER_38_681
*3527 FILLER_38_684
*3528 FILLER_38_687
*3529 FILLER_38_690
*3530 FILLER_38_693
*3531 FILLER_38_696
*3532 FILLER_38_699
*3533 FILLER_38_702
*3534 FILLER_38_705
*3535 FILLER_38_708
*3536 FILLER_38_711
*3537 FILLER_39_537
*3538 FILLER_39_540
*3539 FILLER_39_543
*3540 FILLER_39_546
*3541 FILLER_39_552
*3542 FILLER_39_555
*3543 FILLER_39_558
*3544 FILLER_39_561
*3545 FILLER_39_564
*3546 FILLER_39_567
*3547 FILLER_39_572
*3548 FILLER_39_577
*3549 FILLER_39_580
*3550 FILLER_39_583
*3551 FILLER_39_585
*3552 FILLER_39_588
*3553 FILLER_39_591
*3554 FILLER_39_594
*3555 FILLER_39_601
*3556 FILLER_39_604
*3557 FILLER_39_608
*3558 FILLER_39_611
*3559 FILLER_39_614
*3560 FILLER_39_617
*3561 FILLER_39_620
*3562 FILLER_39_625
*3563 FILLER_39_638
*3564 FILLER_39_641
*3565 FILLER_39_644
*3566 FILLER_39_647
*3567 FILLER_39_650
*3568 FILLER_39_653
*3569 FILLER_39_656
*3570 FILLER_39_659
*3571 FILLER_39_662
*3572 FILLER_39_665
*3573 FILLER_39_668
*3574 FILLER_39_671
*3575 FILLER_39_674
*3576 FILLER_39_677
*3577 FILLER_39_680
*3578 FILLER_39_683
*3579 FILLER_39_686
*3580 FILLER_39_689
*3581 FILLER_39_692
*3582 FILLER_39_695
*3583 FILLER_39_697
*3584 FILLER_39_700
*3585 FILLER_39_703
*3586 FILLER_39_706
*3587 FILLER_39_709
*3588 FILLER_39_712
*3589 FILLER_3_102
*3590 FILLER_3_105
*3591 FILLER_3_108
*3592 FILLER_3_111
*3593 FILLER_3_113
*3594 FILLER_3_116
*3595 FILLER_3_119
*3596 FILLER_3_12
*3597 FILLER_3_122
*3598 FILLER_3_125
*3599 FILLER_3_128
*3600 FILLER_3_131
*3601 FILLER_3_134
*3602 FILLER_3_137
*3603 FILLER_3_140
*3604 FILLER_3_143
*3605 FILLER_3_146
*3606 FILLER_3_149
*3607 FILLER_3_15
*3608 FILLER_3_152
*3609 FILLER_3_155
*3610 FILLER_3_158
*3611 FILLER_3_161
*3612 FILLER_3_164
*3613 FILLER_3_167
*3614 FILLER_3_169
*3615 FILLER_3_172
*3616 FILLER_3_175
*3617 FILLER_3_178
*3618 FILLER_3_18
*3619 FILLER_3_181
*3620 FILLER_3_184
*3621 FILLER_3_187
*3622 FILLER_3_190
*3623 FILLER_3_193
*3624 FILLER_3_196
*3625 FILLER_3_199
*3626 FILLER_3_202
*3627 FILLER_3_205
*3628 FILLER_3_208
*3629 FILLER_3_21
*3630 FILLER_3_211
*3631 FILLER_3_214
*3632 FILLER_3_217
*3633 FILLER_3_220
*3634 FILLER_3_223
*3635 FILLER_3_225
*3636 FILLER_3_228
*3637 FILLER_3_231
*3638 FILLER_3_234
*3639 FILLER_3_237
*3640 FILLER_3_24
*3641 FILLER_3_240
*3642 FILLER_3_243
*3643 FILLER_3_246
*3644 FILLER_3_249
*3645 FILLER_3_252
*3646 FILLER_3_255
*3647 FILLER_3_258
*3648 FILLER_3_261
*3649 FILLER_3_264
*3650 FILLER_3_267
*3651 FILLER_3_27
*3652 FILLER_3_270
*3653 FILLER_3_273
*3654 FILLER_3_276
*3655 FILLER_3_279
*3656 FILLER_3_281
*3657 FILLER_3_284
*3658 FILLER_3_287
*3659 FILLER_3_290
*3660 FILLER_3_293
*3661 FILLER_3_296
*3662 FILLER_3_299
*3663 FILLER_3_3
*3664 FILLER_3_30
*3665 FILLER_3_302
*3666 FILLER_3_305
*3667 FILLER_3_308
*3668 FILLER_3_311
*3669 FILLER_3_314
*3670 FILLER_3_317
*3671 FILLER_3_320
*3672 FILLER_3_323
*3673 FILLER_3_326
*3674 FILLER_3_329
*3675 FILLER_3_33
*3676 FILLER_3_332
*3677 FILLER_3_335
*3678 FILLER_3_337
*3679 FILLER_3_340
*3680 FILLER_3_343
*3681 FILLER_3_346
*3682 FILLER_3_349
*3683 FILLER_3_352
*3684 FILLER_3_355
*3685 FILLER_3_358
*3686 FILLER_3_36
*3687 FILLER_3_361
*3688 FILLER_3_364
*3689 FILLER_3_367
*3690 FILLER_3_370
*3691 FILLER_3_373
*3692 FILLER_3_376
*3693 FILLER_3_379
*3694 FILLER_3_382
*3695 FILLER_3_385
*3696 FILLER_3_388
*3697 FILLER_3_39
*3698 FILLER_3_391
*3699 FILLER_3_393
*3700 FILLER_3_396
*3701 FILLER_3_399
*3702 FILLER_3_402
*3703 FILLER_3_405
*3704 FILLER_3_408
*3705 FILLER_3_411
*3706 FILLER_3_414
*3707 FILLER_3_417
*3708 FILLER_3_42
*3709 FILLER_3_420
*3710 FILLER_3_423
*3711 FILLER_3_426
*3712 FILLER_3_429
*3713 FILLER_3_432
*3714 FILLER_3_435
*3715 FILLER_3_438
*3716 FILLER_3_441
*3717 FILLER_3_444
*3718 FILLER_3_447
*3719 FILLER_3_449
*3720 FILLER_3_45
*3721 FILLER_3_452
*3722 FILLER_3_455
*3723 FILLER_3_458
*3724 FILLER_3_461
*3725 FILLER_3_464
*3726 FILLER_3_467
*3727 FILLER_3_470
*3728 FILLER_3_473
*3729 FILLER_3_476
*3730 FILLER_3_479
*3731 FILLER_3_48
*3732 FILLER_3_482
*3733 FILLER_3_485
*3734 FILLER_3_488
*3735 FILLER_3_491
*3736 FILLER_3_494
*3737 FILLER_3_497
*3738 FILLER_3_500
*3739 FILLER_3_503
*3740 FILLER_3_505
*3741 FILLER_3_508
*3742 FILLER_3_51
*3743 FILLER_3_511
*3744 FILLER_3_514
*3745 FILLER_3_517
*3746 FILLER_3_520
*3747 FILLER_3_523
*3748 FILLER_3_526
*3749 FILLER_3_529
*3750 FILLER_3_532
*3751 FILLER_3_535
*3752 FILLER_3_538
*3753 FILLER_3_54
*3754 FILLER_3_541
*3755 FILLER_3_544
*3756 FILLER_3_547
*3757 FILLER_3_550
*3758 FILLER_3_553
*3759 FILLER_3_556
*3760 FILLER_3_559
*3761 FILLER_3_561
*3762 FILLER_3_564
*3763 FILLER_3_567
*3764 FILLER_3_57
*3765 FILLER_3_570
*3766 FILLER_3_573
*3767 FILLER_3_576
*3768 FILLER_3_579
*3769 FILLER_3_582
*3770 FILLER_3_585
*3771 FILLER_3_588
*3772 FILLER_3_591
*3773 FILLER_3_594
*3774 FILLER_3_597
*3775 FILLER_3_6
*3776 FILLER_3_60
*3777 FILLER_3_600
*3778 FILLER_3_603
*3779 FILLER_3_606
*3780 FILLER_3_609
*3781 FILLER_3_612
*3782 FILLER_3_615
*3783 FILLER_3_617
*3784 FILLER_3_620
*3785 FILLER_3_623
*3786 FILLER_3_626
*3787 FILLER_3_629
*3788 FILLER_3_63
*3789 FILLER_3_632
*3790 FILLER_3_635
*3791 FILLER_3_638
*3792 FILLER_3_641
*3793 FILLER_3_644
*3794 FILLER_3_647
*3795 FILLER_3_650
*3796 FILLER_3_653
*3797 FILLER_3_656
*3798 FILLER_3_659
*3799 FILLER_3_66
*3800 FILLER_3_662
*3801 FILLER_3_665
*3802 FILLER_3_668
*3803 FILLER_3_671
*3804 FILLER_3_673
*3805 FILLER_3_676
*3806 FILLER_3_679
*3807 FILLER_3_682
*3808 FILLER_3_685
*3809 FILLER_3_688
*3810 FILLER_3_69
*3811 FILLER_3_691
*3812 FILLER_3_694
*3813 FILLER_3_697
*3814 FILLER_3_700
*3815 FILLER_3_703
*3816 FILLER_3_706
*3817 FILLER_3_709
*3818 FILLER_3_712
*3819 FILLER_3_72
*3820 FILLER_3_75
*3821 FILLER_3_78
*3822 FILLER_3_81
*3823 FILLER_3_84
*3824 FILLER_3_87
*3825 FILLER_3_9
*3826 FILLER_3_90
*3827 FILLER_3_93
*3828 FILLER_3_96
*3829 FILLER_3_99
*3830 FILLER_40_531
*3831 FILLER_40_534
*3832 FILLER_40_537
*3833 FILLER_40_540
*3834 FILLER_40_555
*3835 FILLER_40_572
*3836 FILLER_40_575
*3837 FILLER_40_584
*3838 FILLER_40_587
*3839 FILLER_40_590
*3840 FILLER_40_593
*3841 FILLER_40_596
*3842 FILLER_40_599
*3843 FILLER_40_602
*3844 FILLER_40_605
*3845 FILLER_40_619
*3846 FILLER_40_623
*3847 FILLER_40_633
*3848 FILLER_40_636
*3849 FILLER_40_639
*3850 FILLER_40_642
*3851 FILLER_40_645
*3852 FILLER_40_648
*3853 FILLER_40_651
*3854 FILLER_40_654
*3855 FILLER_40_657
*3856 FILLER_40_660
*3857 FILLER_40_663
*3858 FILLER_40_666
*3859 FILLER_40_669
*3860 FILLER_40_672
*3861 FILLER_40_675
*3862 FILLER_40_678
*3863 FILLER_40_681
*3864 FILLER_40_684
*3865 FILLER_40_687
*3866 FILLER_40_690
*3867 FILLER_40_693
*3868 FILLER_40_696
*3869 FILLER_40_699
*3870 FILLER_40_702
*3871 FILLER_40_705
*3872 FILLER_40_708
*3873 FILLER_40_711
*3874 FILLER_41_531
*3875 FILLER_41_538
*3876 FILLER_41_545
*3877 FILLER_41_548
*3878 FILLER_41_553
*3879 FILLER_41_563
*3880 FILLER_41_566
*3881 FILLER_41_569
*3882 FILLER_41_572
*3883 FILLER_41_575
*3884 FILLER_41_588
*3885 FILLER_41_592
*3886 FILLER_41_596
*3887 FILLER_41_604
*3888 FILLER_41_607
*3889 FILLER_41_610
*3890 FILLER_41_617
*3891 FILLER_41_620
*3892 FILLER_41_623
*3893 FILLER_41_626
*3894 FILLER_41_637
*3895 FILLER_41_641
*3896 FILLER_41_644
*3897 FILLER_41_647
*3898 FILLER_41_650
*3899 FILLER_41_653
*3900 FILLER_41_656
*3901 FILLER_41_659
*3902 FILLER_41_662
*3903 FILLER_41_665
*3904 FILLER_41_668
*3905 FILLER_41_671
*3906 FILLER_41_674
*3907 FILLER_41_677
*3908 FILLER_41_680
*3909 FILLER_41_683
*3910 FILLER_41_686
*3911 FILLER_41_689
*3912 FILLER_41_692
*3913 FILLER_41_695
*3914 FILLER_41_697
*3915 FILLER_41_700
*3916 FILLER_41_703
*3917 FILLER_41_706
*3918 FILLER_41_709
*3919 FILLER_41_712
*3920 FILLER_42_531
*3921 FILLER_42_534
*3922 FILLER_42_537
*3923 FILLER_42_544
*3924 FILLER_42_547
*3925 FILLER_42_550
*3926 FILLER_42_557
*3927 FILLER_42_570
*3928 FILLER_42_573
*3929 FILLER_42_587
*3930 FILLER_42_590
*3931 FILLER_42_605
*3932 FILLER_42_608
*3933 FILLER_42_613
*3934 FILLER_42_620
*3935 FILLER_42_623
*3936 FILLER_42_626
*3937 FILLER_42_634
*3938 FILLER_42_637
*3939 FILLER_42_640
*3940 FILLER_42_643
*3941 FILLER_42_646
*3942 FILLER_42_649
*3943 FILLER_42_652
*3944 FILLER_42_655
*3945 FILLER_42_658
*3946 FILLER_42_661
*3947 FILLER_42_664
*3948 FILLER_42_667
*3949 FILLER_42_669
*3950 FILLER_42_672
*3951 FILLER_42_675
*3952 FILLER_42_678
*3953 FILLER_42_681
*3954 FILLER_42_684
*3955 FILLER_42_687
*3956 FILLER_42_690
*3957 FILLER_42_693
*3958 FILLER_42_696
*3959 FILLER_42_699
*3960 FILLER_42_702
*3961 FILLER_42_705
*3962 FILLER_42_708
*3963 FILLER_42_711
*3964 FILLER_43_531
*3965 FILLER_43_534
*3966 FILLER_43_546
*3967 FILLER_43_549
*3968 FILLER_43_552
*3969 FILLER_43_564
*3970 FILLER_43_567
*3971 FILLER_43_582
*3972 FILLER_43_585
*3973 FILLER_43_588
*3974 FILLER_43_600
*3975 FILLER_43_603
*3976 FILLER_43_606
*3977 FILLER_43_609
*3978 FILLER_43_623
*3979 FILLER_43_630
*3980 FILLER_43_633
*3981 FILLER_43_636
*3982 FILLER_43_639
*3983 FILLER_43_641
*3984 FILLER_43_644
*3985 FILLER_43_647
*3986 FILLER_43_650
*3987 FILLER_43_653
*3988 FILLER_43_656
*3989 FILLER_43_659
*3990 FILLER_43_662
*3991 FILLER_43_665
*3992 FILLER_43_668
*3993 FILLER_43_671
*3994 FILLER_43_674
*3995 FILLER_43_677
*3996 FILLER_43_680
*3997 FILLER_43_683
*3998 FILLER_43_686
*3999 FILLER_43_689
*4000 FILLER_43_692
*4001 FILLER_43_695
*4002 FILLER_43_697
*4003 FILLER_43_700
*4004 FILLER_43_703
*4005 FILLER_43_706
*4006 FILLER_43_709
*4007 FILLER_43_712
*4008 FILLER_44_531
*4009 FILLER_44_534
*4010 FILLER_44_552
*4011 FILLER_44_557
*4012 FILLER_44_564
*4013 FILLER_44_567
*4014 FILLER_44_570
*4015 FILLER_44_580
*4016 FILLER_44_583
*4017 FILLER_44_592
*4018 FILLER_44_596
*4019 FILLER_44_599
*4020 FILLER_44_602
*4021 FILLER_44_605
*4022 FILLER_44_608
*4023 FILLER_44_619
*4024 FILLER_44_622
*4025 FILLER_44_625
*4026 FILLER_44_628
*4027 FILLER_44_631
*4028 FILLER_44_640
*4029 FILLER_44_643
*4030 FILLER_44_646
*4031 FILLER_44_649
*4032 FILLER_44_652
*4033 FILLER_44_655
*4034 FILLER_44_658
*4035 FILLER_44_661
*4036 FILLER_44_664
*4037 FILLER_44_667
*4038 FILLER_44_669
*4039 FILLER_44_672
*4040 FILLER_44_675
*4041 FILLER_44_678
*4042 FILLER_44_681
*4043 FILLER_44_684
*4044 FILLER_44_687
*4045 FILLER_44_690
*4046 FILLER_44_693
*4047 FILLER_44_696
*4048 FILLER_44_699
*4049 FILLER_44_702
*4050 FILLER_44_705
*4051 FILLER_44_708
*4052 FILLER_44_711
*4053 FILLER_45_531
*4054 FILLER_45_534
*4055 FILLER_45_537
*4056 FILLER_45_555
*4057 FILLER_45_566
*4058 FILLER_45_569
*4059 FILLER_45_572
*4060 FILLER_45_585
*4061 FILLER_45_595
*4062 FILLER_45_598
*4063 FILLER_45_601
*4064 FILLER_45_606
*4065 FILLER_45_619
*4066 FILLER_45_625
*4067 FILLER_45_639
*4068 FILLER_45_647
*4069 FILLER_45_650
*4070 FILLER_45_653
*4071 FILLER_45_656
*4072 FILLER_45_659
*4073 FILLER_45_662
*4074 FILLER_45_665
*4075 FILLER_45_668
*4076 FILLER_45_671
*4077 FILLER_45_674
*4078 FILLER_45_677
*4079 FILLER_45_680
*4080 FILLER_45_683
*4081 FILLER_45_686
*4082 FILLER_45_689
*4083 FILLER_45_692
*4084 FILLER_45_695
*4085 FILLER_45_697
*4086 FILLER_45_700
*4087 FILLER_45_703
*4088 FILLER_45_706
*4089 FILLER_45_709
*4090 FILLER_45_712
*4091 FILLER_46_531
*4092 FILLER_46_534
*4093 FILLER_46_546
*4094 FILLER_46_549
*4095 FILLER_46_552
*4096 FILLER_46_555
*4097 FILLER_46_557
*4098 FILLER_46_560
*4099 FILLER_46_563
*4100 FILLER_46_579
*4101 FILLER_46_582
*4102 FILLER_46_585
*4103 FILLER_46_588
*4104 FILLER_46_599
*4105 FILLER_46_602
*4106 FILLER_46_605
*4107 FILLER_46_608
*4108 FILLER_46_611
*4109 FILLER_46_622
*4110 FILLER_46_625
*4111 FILLER_46_630
*4112 FILLER_46_633
*4113 FILLER_46_636
*4114 FILLER_46_641
*4115 FILLER_46_644
*4116 FILLER_46_647
*4117 FILLER_46_650
*4118 FILLER_46_653
*4119 FILLER_46_656
*4120 FILLER_46_659
*4121 FILLER_46_662
*4122 FILLER_46_665
*4123 FILLER_46_669
*4124 FILLER_46_672
*4125 FILLER_46_675
*4126 FILLER_46_678
*4127 FILLER_46_681
*4128 FILLER_46_684
*4129 FILLER_46_687
*4130 FILLER_46_690
*4131 FILLER_46_693
*4132 FILLER_46_696
*4133 FILLER_46_699
*4134 FILLER_46_702
*4135 FILLER_46_705
*4136 FILLER_46_708
*4137 FILLER_46_711
*4138 FILLER_47_531
*4139 FILLER_47_534
*4140 FILLER_47_537
*4141 FILLER_47_559
*4142 FILLER_47_562
*4143 FILLER_47_565
*4144 FILLER_47_575
*4145 FILLER_47_580
*4146 FILLER_47_583
*4147 FILLER_47_594
*4148 FILLER_47_599
*4149 FILLER_47_602
*4150 FILLER_47_612
*4151 FILLER_47_615
*4152 FILLER_47_618
*4153 FILLER_47_621
*4154 FILLER_47_630
*4155 FILLER_47_633
*4156 FILLER_47_636
*4157 FILLER_47_639
*4158 FILLER_47_641
*4159 FILLER_47_644
*4160 FILLER_47_647
*4161 FILLER_47_650
*4162 FILLER_47_653
*4163 FILLER_47_656
*4164 FILLER_47_659
*4165 FILLER_47_662
*4166 FILLER_47_665
*4167 FILLER_47_668
*4168 FILLER_47_671
*4169 FILLER_47_674
*4170 FILLER_47_677
*4171 FILLER_47_680
*4172 FILLER_47_683
*4173 FILLER_47_686
*4174 FILLER_47_689
*4175 FILLER_47_692
*4176 FILLER_47_695
*4177 FILLER_47_697
*4178 FILLER_47_700
*4179 FILLER_47_703
*4180 FILLER_47_706
*4181 FILLER_47_709
*4182 FILLER_47_712
*4183 FILLER_48_531
*4184 FILLER_48_534
*4185 FILLER_48_537
*4186 FILLER_48_540
*4187 FILLER_48_543
*4188 FILLER_48_547
*4189 FILLER_48_550
*4190 FILLER_48_563
*4191 FILLER_48_576
*4192 FILLER_48_579
*4193 FILLER_48_588
*4194 FILLER_48_591
*4195 FILLER_48_594
*4196 FILLER_48_597
*4197 FILLER_48_600
*4198 FILLER_48_610
*4199 FILLER_48_616
*4200 FILLER_48_620
*4201 FILLER_48_636
*4202 FILLER_48_639
*4203 FILLER_48_642
*4204 FILLER_48_646
*4205 FILLER_48_649
*4206 FILLER_48_652
*4207 FILLER_48_655
*4208 FILLER_48_658
*4209 FILLER_48_661
*4210 FILLER_48_664
*4211 FILLER_48_667
*4212 FILLER_48_669
*4213 FILLER_48_672
*4214 FILLER_48_675
*4215 FILLER_48_678
*4216 FILLER_48_681
*4217 FILLER_48_684
*4218 FILLER_48_687
*4219 FILLER_48_690
*4220 FILLER_48_693
*4221 FILLER_48_696
*4222 FILLER_48_699
*4223 FILLER_48_702
*4224 FILLER_48_705
*4225 FILLER_48_708
*4226 FILLER_48_711
*4227 FILLER_49_531
*4228 FILLER_49_534
*4229 FILLER_49_537
*4230 FILLER_49_553
*4231 FILLER_49_556
*4232 FILLER_49_559
*4233 FILLER_49_562
*4234 FILLER_49_569
*4235 FILLER_49_572
*4236 FILLER_49_575
*4237 FILLER_49_585
*4238 FILLER_49_588
*4239 FILLER_49_591
*4240 FILLER_49_595
*4241 FILLER_49_599
*4242 FILLER_49_603
*4243 FILLER_49_613
*4244 FILLER_49_616
*4245 FILLER_49_619
*4246 FILLER_49_624
*4247 FILLER_49_629
*4248 FILLER_49_632
*4249 FILLER_49_635
*4250 FILLER_49_650
*4251 FILLER_49_653
*4252 FILLER_49_656
*4253 FILLER_49_659
*4254 FILLER_49_662
*4255 FILLER_49_665
*4256 FILLER_49_668
*4257 FILLER_49_671
*4258 FILLER_49_674
*4259 FILLER_49_677
*4260 FILLER_49_680
*4261 FILLER_49_683
*4262 FILLER_49_686
*4263 FILLER_49_689
*4264 FILLER_49_692
*4265 FILLER_49_695
*4266 FILLER_49_697
*4267 FILLER_49_700
*4268 FILLER_49_703
*4269 FILLER_49_706
*4270 FILLER_49_709
*4271 FILLER_49_712
*4272 FILLER_4_100
*4273 FILLER_4_103
*4274 FILLER_4_106
*4275 FILLER_4_109
*4276 FILLER_4_113
*4277 FILLER_4_116
*4278 FILLER_4_119
*4279 FILLER_4_12
*4280 FILLER_4_122
*4281 FILLER_4_125
*4282 FILLER_4_128
*4283 FILLER_4_131
*4284 FILLER_4_134
*4285 FILLER_4_137
*4286 FILLER_4_141
*4287 FILLER_4_144
*4288 FILLER_4_147
*4289 FILLER_4_15
*4290 FILLER_4_150
*4291 FILLER_4_153
*4292 FILLER_4_156
*4293 FILLER_4_159
*4294 FILLER_4_162
*4295 FILLER_4_165
*4296 FILLER_4_169
*4297 FILLER_4_172
*4298 FILLER_4_175
*4299 FILLER_4_178
*4300 FILLER_4_18
*4301 FILLER_4_181
*4302 FILLER_4_184
*4303 FILLER_4_187
*4304 FILLER_4_190
*4305 FILLER_4_193
*4306 FILLER_4_197
*4307 FILLER_4_200
*4308 FILLER_4_203
*4309 FILLER_4_206
*4310 FILLER_4_209
*4311 FILLER_4_21
*4312 FILLER_4_212
*4313 FILLER_4_215
*4314 FILLER_4_218
*4315 FILLER_4_221
*4316 FILLER_4_225
*4317 FILLER_4_228
*4318 FILLER_4_231
*4319 FILLER_4_234
*4320 FILLER_4_237
*4321 FILLER_4_24
*4322 FILLER_4_240
*4323 FILLER_4_243
*4324 FILLER_4_246
*4325 FILLER_4_249
*4326 FILLER_4_253
*4327 FILLER_4_256
*4328 FILLER_4_259
*4329 FILLER_4_262
*4330 FILLER_4_265
*4331 FILLER_4_268
*4332 FILLER_4_27
*4333 FILLER_4_271
*4334 FILLER_4_274
*4335 FILLER_4_277
*4336 FILLER_4_281
*4337 FILLER_4_284
*4338 FILLER_4_287
*4339 FILLER_4_29
*4340 FILLER_4_290
*4341 FILLER_4_293
*4342 FILLER_4_296
*4343 FILLER_4_299
*4344 FILLER_4_3
*4345 FILLER_4_302
*4346 FILLER_4_305
*4347 FILLER_4_309
*4348 FILLER_4_312
*4349 FILLER_4_315
*4350 FILLER_4_318
*4351 FILLER_4_32
*4352 FILLER_4_321
*4353 FILLER_4_324
*4354 FILLER_4_327
*4355 FILLER_4_330
*4356 FILLER_4_333
*4357 FILLER_4_337
*4358 FILLER_4_340
*4359 FILLER_4_343
*4360 FILLER_4_346
*4361 FILLER_4_349
*4362 FILLER_4_35
*4363 FILLER_4_352
*4364 FILLER_4_355
*4365 FILLER_4_358
*4366 FILLER_4_361
*4367 FILLER_4_365
*4368 FILLER_4_368
*4369 FILLER_4_371
*4370 FILLER_4_374
*4371 FILLER_4_377
*4372 FILLER_4_38
*4373 FILLER_4_380
*4374 FILLER_4_383
*4375 FILLER_4_386
*4376 FILLER_4_389
*4377 FILLER_4_393
*4378 FILLER_4_396
*4379 FILLER_4_399
*4380 FILLER_4_402
*4381 FILLER_4_405
*4382 FILLER_4_408
*4383 FILLER_4_41
*4384 FILLER_4_411
*4385 FILLER_4_414
*4386 FILLER_4_417
*4387 FILLER_4_421
*4388 FILLER_4_424
*4389 FILLER_4_427
*4390 FILLER_4_430
*4391 FILLER_4_433
*4392 FILLER_4_436
*4393 FILLER_4_439
*4394 FILLER_4_44
*4395 FILLER_4_442
*4396 FILLER_4_445
*4397 FILLER_4_449
*4398 FILLER_4_452
*4399 FILLER_4_455
*4400 FILLER_4_458
*4401 FILLER_4_461
*4402 FILLER_4_464
*4403 FILLER_4_467
*4404 FILLER_4_47
*4405 FILLER_4_470
*4406 FILLER_4_473
*4407 FILLER_4_477
*4408 FILLER_4_480
*4409 FILLER_4_483
*4410 FILLER_4_486
*4411 FILLER_4_489
*4412 FILLER_4_492
*4413 FILLER_4_495
*4414 FILLER_4_498
*4415 FILLER_4_50
*4416 FILLER_4_501
*4417 FILLER_4_505
*4418 FILLER_4_508
*4419 FILLER_4_511
*4420 FILLER_4_514
*4421 FILLER_4_517
*4422 FILLER_4_520
*4423 FILLER_4_523
*4424 FILLER_4_526
*4425 FILLER_4_529
*4426 FILLER_4_53
*4427 FILLER_4_533
*4428 FILLER_4_536
*4429 FILLER_4_539
*4430 FILLER_4_542
*4431 FILLER_4_545
*4432 FILLER_4_548
*4433 FILLER_4_551
*4434 FILLER_4_554
*4435 FILLER_4_557
*4436 FILLER_4_561
*4437 FILLER_4_564
*4438 FILLER_4_567
*4439 FILLER_4_57
*4440 FILLER_4_570
*4441 FILLER_4_573
*4442 FILLER_4_576
*4443 FILLER_4_579
*4444 FILLER_4_582
*4445 FILLER_4_585
*4446 FILLER_4_589
*4447 FILLER_4_592
*4448 FILLER_4_595
*4449 FILLER_4_598
*4450 FILLER_4_6
*4451 FILLER_4_60
*4452 FILLER_4_601
*4453 FILLER_4_604
*4454 FILLER_4_607
*4455 FILLER_4_610
*4456 FILLER_4_613
*4457 FILLER_4_617
*4458 FILLER_4_620
*4459 FILLER_4_623
*4460 FILLER_4_626
*4461 FILLER_4_629
*4462 FILLER_4_63
*4463 FILLER_4_632
*4464 FILLER_4_635
*4465 FILLER_4_638
*4466 FILLER_4_641
*4467 FILLER_4_645
*4468 FILLER_4_648
*4469 FILLER_4_651
*4470 FILLER_4_654
*4471 FILLER_4_657
*4472 FILLER_4_66
*4473 FILLER_4_660
*4474 FILLER_4_663
*4475 FILLER_4_666
*4476 FILLER_4_669
*4477 FILLER_4_673
*4478 FILLER_4_676
*4479 FILLER_4_679
*4480 FILLER_4_682
*4481 FILLER_4_685
*4482 FILLER_4_688
*4483 FILLER_4_69
*4484 FILLER_4_691
*4485 FILLER_4_694
*4486 FILLER_4_697
*4487 FILLER_4_701
*4488 FILLER_4_704
*4489 FILLER_4_707
*4490 FILLER_4_710
*4491 FILLER_4_72
*4492 FILLER_4_75
*4493 FILLER_4_78
*4494 FILLER_4_81
*4495 FILLER_4_85
*4496 FILLER_4_88
*4497 FILLER_4_9
*4498 FILLER_4_91
*4499 FILLER_4_94
*4500 FILLER_4_97
*4501 FILLER_50_531
*4502 FILLER_50_534
*4503 FILLER_50_537
*4504 FILLER_50_540
*4505 FILLER_50_547
*4506 FILLER_50_550
*4507 FILLER_50_555
*4508 FILLER_50_569
*4509 FILLER_50_572
*4510 FILLER_50_575
*4511 FILLER_50_584
*4512 FILLER_50_587
*4513 FILLER_50_590
*4514 FILLER_50_593
*4515 FILLER_50_599
*4516 FILLER_50_603
*4517 FILLER_50_607
*4518 FILLER_50_613
*4519 FILLER_50_617
*4520 FILLER_50_630
*4521 FILLER_50_644
*4522 FILLER_50_647
*4523 FILLER_50_650
*4524 FILLER_50_653
*4525 FILLER_50_656
*4526 FILLER_50_659
*4527 FILLER_50_662
*4528 FILLER_50_665
*4529 FILLER_50_669
*4530 FILLER_50_672
*4531 FILLER_50_675
*4532 FILLER_50_678
*4533 FILLER_50_681
*4534 FILLER_50_684
*4535 FILLER_50_687
*4536 FILLER_50_690
*4537 FILLER_50_693
*4538 FILLER_50_696
*4539 FILLER_50_699
*4540 FILLER_50_702
*4541 FILLER_50_705
*4542 FILLER_50_708
*4543 FILLER_50_711
*4544 FILLER_51_531
*4545 FILLER_51_534
*4546 FILLER_51_537
*4547 FILLER_51_546
*4548 FILLER_51_549
*4549 FILLER_51_552
*4550 FILLER_51_555
*4551 FILLER_51_558
*4552 FILLER_51_569
*4553 FILLER_51_572
*4554 FILLER_51_575
*4555 FILLER_51_578
*4556 FILLER_51_591
*4557 FILLER_51_594
*4558 FILLER_51_598
*4559 FILLER_51_601
*4560 FILLER_51_611
*4561 FILLER_51_614
*4562 FILLER_51_617
*4563 FILLER_51_620
*4564 FILLER_51_625
*4565 FILLER_51_628
*4566 FILLER_51_641
*4567 FILLER_51_647
*4568 FILLER_51_654
*4569 FILLER_51_658
*4570 FILLER_51_661
*4571 FILLER_51_664
*4572 FILLER_51_667
*4573 FILLER_51_670
*4574 FILLER_51_673
*4575 FILLER_51_676
*4576 FILLER_51_679
*4577 FILLER_51_682
*4578 FILLER_51_685
*4579 FILLER_51_688
*4580 FILLER_51_691
*4581 FILLER_51_694
*4582 FILLER_51_697
*4583 FILLER_51_700
*4584 FILLER_51_703
*4585 FILLER_51_706
*4586 FILLER_51_709
*4587 FILLER_51_712
*4588 FILLER_52_531
*4589 FILLER_52_534
*4590 FILLER_52_545
*4591 FILLER_52_549
*4592 FILLER_52_554
*4593 FILLER_52_572
*4594 FILLER_52_585
*4595 FILLER_52_588
*4596 FILLER_52_593
*4597 FILLER_52_598
*4598 FILLER_52_602
*4599 FILLER_52_606
*4600 FILLER_52_610
*4601 FILLER_52_616
*4602 FILLER_52_619
*4603 FILLER_52_622
*4604 FILLER_52_636
*4605 FILLER_52_640
*4606 FILLER_52_645
*4607 FILLER_52_652
*4608 FILLER_52_663
*4609 FILLER_52_666
*4610 FILLER_52_669
*4611 FILLER_52_672
*4612 FILLER_52_675
*4613 FILLER_52_678
*4614 FILLER_52_681
*4615 FILLER_52_684
*4616 FILLER_52_687
*4617 FILLER_52_690
*4618 FILLER_52_693
*4619 FILLER_52_696
*4620 FILLER_52_699
*4621 FILLER_52_702
*4622 FILLER_52_705
*4623 FILLER_52_708
*4624 FILLER_52_711
*4625 FILLER_53_531
*4626 FILLER_53_534
*4627 FILLER_53_545
*4628 FILLER_53_553
*4629 FILLER_53_556
*4630 FILLER_53_559
*4631 FILLER_53_566
*4632 FILLER_53_569
*4633 FILLER_53_572
*4634 FILLER_53_575
*4635 FILLER_53_578
*4636 FILLER_53_581
*4637 FILLER_53_594
*4638 FILLER_53_597
*4639 FILLER_53_600
*4640 FILLER_53_603
*4641 FILLER_53_612
*4642 FILLER_53_615
*4643 FILLER_53_621
*4644 FILLER_53_630
*4645 FILLER_53_634
*4646 FILLER_53_637
*4647 FILLER_53_641
*4648 FILLER_53_644
*4649 FILLER_53_661
*4650 FILLER_53_684
*4651 FILLER_53_687
*4652 FILLER_53_690
*4653 FILLER_53_693
*4654 FILLER_53_697
*4655 FILLER_53_700
*4656 FILLER_53_703
*4657 FILLER_53_706
*4658 FILLER_53_709
*4659 FILLER_53_712
*4660 FILLER_54_531
*4661 FILLER_54_534
*4662 FILLER_54_537
*4663 FILLER_54_540
*4664 FILLER_54_552
*4665 FILLER_54_555
*4666 FILLER_54_557
*4667 FILLER_54_569
*4668 FILLER_54_572
*4669 FILLER_54_585
*4670 FILLER_54_588
*4671 FILLER_54_621
*4672 FILLER_54_658
*4673 FILLER_54_661
*4674 FILLER_54_664
*4675 FILLER_54_667
*4676 FILLER_54_678
*4677 FILLER_54_681
*4678 FILLER_54_690
*4679 FILLER_54_693
*4680 FILLER_54_696
*4681 FILLER_54_699
*4682 FILLER_54_702
*4683 FILLER_54_705
*4684 FILLER_54_708
*4685 FILLER_54_711
*4686 FILLER_55_531
*4687 FILLER_55_534
*4688 FILLER_55_537
*4689 FILLER_55_547
*4690 FILLER_55_550
*4691 FILLER_55_553
*4692 FILLER_55_556
*4693 FILLER_55_559
*4694 FILLER_55_565
*4695 FILLER_55_593
*4696 FILLER_55_596
*4697 FILLER_55_599
*4698 FILLER_55_611
*4699 FILLER_55_614
*4700 FILLER_55_617
*4701 FILLER_55_620
*4702 FILLER_55_623
*4703 FILLER_55_626
*4704 FILLER_55_629
*4705 FILLER_55_632
*4706 FILLER_55_635
*4707 FILLER_55_638
*4708 FILLER_55_641
*4709 FILLER_55_651
*4710 FILLER_55_654
*4711 FILLER_55_657
*4712 FILLER_55_660
*4713 FILLER_55_663
*4714 FILLER_55_666
*4715 FILLER_55_669
*4716 FILLER_55_672
*4717 FILLER_55_675
*4718 FILLER_55_678
*4719 FILLER_55_681
*4720 FILLER_55_684
*4721 FILLER_55_692
*4722 FILLER_55_695
*4723 FILLER_55_697
*4724 FILLER_55_700
*4725 FILLER_55_703
*4726 FILLER_55_706
*4727 FILLER_55_709
*4728 FILLER_55_712
*4729 FILLER_56_531
*4730 FILLER_56_542
*4731 FILLER_56_545
*4732 FILLER_56_548
*4733 FILLER_56_554
*4734 FILLER_56_557
*4735 FILLER_56_568
*4736 FILLER_56_595
*4737 FILLER_56_598
*4738 FILLER_56_601
*4739 FILLER_56_604
*4740 FILLER_56_607
*4741 FILLER_56_610
*4742 FILLER_56_613
*4743 FILLER_56_630
*4744 FILLER_56_633
*4745 FILLER_56_649
*4746 FILLER_56_652
*4747 FILLER_56_666
*4748 FILLER_56_674
*4749 FILLER_56_682
*4750 FILLER_57_531
*4751 FILLER_57_538
*4752 FILLER_57_541
*4753 FILLER_57_548
*4754 FILLER_57_551
*4755 FILLER_57_558
*4756 FILLER_57_565
*4757 FILLER_57_568
*4758 FILLER_57_571
*4759 FILLER_57_576
*4760 FILLER_57_579
*4761 FILLER_57_582
*4762 FILLER_57_585
*4763 FILLER_57_588
*4764 FILLER_57_599
*4765 FILLER_57_602
*4766 FILLER_57_610
*4767 FILLER_57_613
*4768 FILLER_57_616
*4769 FILLER_57_639
*4770 FILLER_57_641
*4771 FILLER_57_644
*4772 FILLER_57_647
*4773 FILLER_57_656
*4774 FILLER_57_665
*4775 FILLER_57_668
*4776 FILLER_57_671
*4777 FILLER_57_674
*4778 FILLER_57_686
*4779 FILLER_57_689
*4780 FILLER_57_692
*4781 FILLER_57_695
*4782 FILLER_57_697
*4783 FILLER_57_706
*4784 FILLER_57_709
*4785 FILLER_57_712
*4786 FILLER_58_531
*4787 FILLER_58_534
*4788 FILLER_58_551
*4789 FILLER_58_555
*4790 FILLER_58_560
*4791 FILLER_58_567
*4792 FILLER_58_570
*4793 FILLER_58_575
*4794 FILLER_58_578
*4795 FILLER_58_581
*4796 FILLER_58_584
*4797 FILLER_58_595
*4798 FILLER_58_598
*4799 FILLER_58_609
*4800 FILLER_58_621
*4801 FILLER_58_624
*4802 FILLER_58_627
*4803 FILLER_58_649
*4804 FILLER_58_652
*4805 FILLER_58_655
*4806 FILLER_58_658
*4807 FILLER_58_662
*4808 FILLER_58_665
*4809 FILLER_58_669
*4810 FILLER_58_672
*4811 FILLER_58_675
*4812 FILLER_58_678
*4813 FILLER_58_688
*4814 FILLER_58_691
*4815 FILLER_59_531
*4816 FILLER_59_534
*4817 FILLER_59_537
*4818 FILLER_59_545
*4819 FILLER_59_548
*4820 FILLER_59_551
*4821 FILLER_59_554
*4822 FILLER_59_562
*4823 FILLER_59_574
*4824 FILLER_59_577
*4825 FILLER_59_580
*4826 FILLER_59_583
*4827 FILLER_59_585
*4828 FILLER_59_588
*4829 FILLER_59_591
*4830 FILLER_59_602
*4831 FILLER_59_605
*4832 FILLER_59_608
*4833 FILLER_59_611
*4834 FILLER_59_614
*4835 FILLER_59_623
*4836 FILLER_59_626
*4837 FILLER_59_629
*4838 FILLER_59_639
*4839 FILLER_59_641
*4840 FILLER_59_644
*4841 FILLER_59_668
*4842 FILLER_59_678
*4843 FILLER_59_681
*4844 FILLER_59_684
*4845 FILLER_59_693
*4846 FILLER_59_697
*4847 FILLER_59_700
*4848 FILLER_59_703
*4849 FILLER_59_706
*4850 FILLER_59_709
*4851 FILLER_59_712
*4852 FILLER_5_531
*4853 FILLER_5_534
*4854 FILLER_5_537
*4855 FILLER_5_540
*4856 FILLER_5_543
*4857 FILLER_5_546
*4858 FILLER_5_549
*4859 FILLER_5_552
*4860 FILLER_5_555
*4861 FILLER_5_558
*4862 FILLER_5_561
*4863 FILLER_5_564
*4864 FILLER_5_567
*4865 FILLER_5_570
*4866 FILLER_5_573
*4867 FILLER_5_576
*4868 FILLER_5_579
*4869 FILLER_5_582
*4870 FILLER_5_585
*4871 FILLER_5_588
*4872 FILLER_5_591
*4873 FILLER_5_594
*4874 FILLER_5_597
*4875 FILLER_5_600
*4876 FILLER_5_603
*4877 FILLER_5_606
*4878 FILLER_5_609
*4879 FILLER_5_612
*4880 FILLER_5_615
*4881 FILLER_5_618
*4882 FILLER_5_621
*4883 FILLER_5_624
*4884 FILLER_5_627
*4885 FILLER_5_630
*4886 FILLER_5_633
*4887 FILLER_5_636
*4888 FILLER_5_639
*4889 FILLER_5_641
*4890 FILLER_5_644
*4891 FILLER_5_647
*4892 FILLER_5_650
*4893 FILLER_5_653
*4894 FILLER_5_656
*4895 FILLER_5_659
*4896 FILLER_5_662
*4897 FILLER_5_665
*4898 FILLER_5_668
*4899 FILLER_5_671
*4900 FILLER_5_674
*4901 FILLER_5_677
*4902 FILLER_5_680
*4903 FILLER_5_683
*4904 FILLER_5_686
*4905 FILLER_5_689
*4906 FILLER_5_692
*4907 FILLER_5_695
*4908 FILLER_5_697
*4909 FILLER_5_700
*4910 FILLER_5_703
*4911 FILLER_5_706
*4912 FILLER_5_709
*4913 FILLER_5_712
*4914 FILLER_60_531
*4915 FILLER_60_534
*4916 FILLER_60_603
*4917 FILLER_60_623
*4918 FILLER_60_626
*4919 FILLER_60_629
*4920 FILLER_60_653
*4921 FILLER_60_656
*4922 FILLER_60_659
*4923 FILLER_60_662
*4924 FILLER_60_665
*4925 FILLER_60_669
*4926 FILLER_60_672
*4927 FILLER_60_678
*4928 FILLER_60_681
*4929 FILLER_60_684
*4930 FILLER_60_687
*4931 FILLER_60_690
*4932 FILLER_60_693
*4933 FILLER_60_696
*4934 FILLER_60_707
*4935 FILLER_60_710
*4936 FILLER_61_531
*4937 FILLER_61_534
*4938 FILLER_61_537
*4939 FILLER_61_541
*4940 FILLER_61_544
*4941 FILLER_61_547
*4942 FILLER_61_550
*4943 FILLER_61_553
*4944 FILLER_61_577
*4945 FILLER_61_580
*4946 FILLER_61_583
*4947 FILLER_61_585
*4948 FILLER_61_602
*4949 FILLER_61_624
*4950 FILLER_61_627
*4951 FILLER_61_637
*4952 FILLER_61_657
*4953 FILLER_61_660
*4954 FILLER_61_668
*4955 FILLER_61_683
*4956 FILLER_61_686
*4957 FILLER_61_697
*4958 FILLER_61_700
*4959 FILLER_61_709
*4960 FILLER_61_712
*4961 FILLER_62_531
*4962 FILLER_62_554
*4963 FILLER_62_604
*4964 FILLER_62_607
*4965 FILLER_62_610
*4966 FILLER_62_620
*4967 FILLER_62_623
*4968 FILLER_62_626
*4969 FILLER_62_642
*4970 FILLER_62_645
*4971 FILLER_62_667
*4972 FILLER_62_669
*4973 FILLER_62_685
*4974 FILLER_62_688
*4975 FILLER_62_691
*4976 FILLER_63_531
*4977 FILLER_63_534
*4978 FILLER_63_539
*4979 FILLER_63_542
*4980 FILLER_63_582
*4981 FILLER_63_591
*4982 FILLER_63_594
*4983 FILLER_63_597
*4984 FILLER_63_600
*4985 FILLER_63_603
*4986 FILLER_63_606
*4987 FILLER_63_609
*4988 FILLER_63_619
*4989 FILLER_63_622
*4990 FILLER_63_625
*4991 FILLER_63_628
*4992 FILLER_63_631
*4993 FILLER_63_641
*4994 FILLER_63_644
*4995 FILLER_63_647
*4996 FILLER_63_650
*4997 FILLER_63_668
*4998 FILLER_63_671
*4999 FILLER_63_674
*5000 FILLER_63_677
*5001 FILLER_63_680
*5002 FILLER_63_687
*5003 FILLER_63_690
*5004 FILLER_63_693
*5005 FILLER_63_706
*5006 FILLER_63_709
*5007 FILLER_63_712
*5008 FILLER_64_531
*5009 FILLER_64_534
*5010 FILLER_64_557
*5011 FILLER_64_560
*5012 FILLER_64_584
*5013 FILLER_64_596
*5014 FILLER_64_609
*5015 FILLER_64_613
*5016 FILLER_64_626
*5017 FILLER_64_663
*5018 FILLER_64_666
*5019 FILLER_64_669
*5020 FILLER_64_672
*5021 FILLER_64_689
*5022 FILLER_65_531
*5023 FILLER_65_534
*5024 FILLER_65_537
*5025 FILLER_65_541
*5026 FILLER_65_544
*5027 FILLER_65_547
*5028 FILLER_65_578
*5029 FILLER_65_581
*5030 FILLER_65_585
*5031 FILLER_65_591
*5032 FILLER_65_594
*5033 FILLER_65_597
*5034 FILLER_65_605
*5035 FILLER_65_637
*5036 FILLER_65_641
*5037 FILLER_65_644
*5038 FILLER_65_655
*5039 FILLER_65_668
*5040 FILLER_65_671
*5041 FILLER_65_674
*5042 FILLER_65_677
*5043 FILLER_65_680
*5044 FILLER_65_683
*5045 FILLER_65_692
*5046 FILLER_65_695
*5047 FILLER_65_697
*5048 FILLER_65_700
*5049 FILLER_65_703
*5050 FILLER_65_706
*5051 FILLER_65_709
*5052 FILLER_65_712
*5053 FILLER_66_552
*5054 FILLER_66_604
*5055 FILLER_66_607
*5056 FILLER_66_610
*5057 FILLER_66_613
*5058 FILLER_66_616
*5059 FILLER_66_626
*5060 FILLER_66_629
*5061 FILLER_66_639
*5062 FILLER_66_669
*5063 FILLER_66_692
*5064 FILLER_66_695
*5065 FILLER_66_698
*5066 FILLER_66_701
*5067 FILLER_66_704
*5068 FILLER_66_707
*5069 FILLER_66_710
*5070 FILLER_67_531
*5071 FILLER_67_534
*5072 FILLER_67_537
*5073 FILLER_67_561
*5074 FILLER_67_585
*5075 FILLER_67_588
*5076 FILLER_67_591
*5077 FILLER_67_614
*5078 FILLER_67_617
*5079 FILLER_67_627
*5080 FILLER_67_646
*5081 FILLER_67_664
*5082 FILLER_67_667
*5083 FILLER_67_673
*5084 FILLER_67_682
*5085 FILLER_67_685
*5086 FILLER_67_688
*5087 FILLER_67_691
*5088 FILLER_67_694
*5089 FILLER_67_697
*5090 FILLER_67_700
*5091 FILLER_67_704
*5092 FILLER_67_707
*5093 FILLER_67_710
*5094 FILLER_68_531
*5095 FILLER_68_534
*5096 FILLER_68_537
*5097 FILLER_68_541
*5098 FILLER_68_544
*5099 FILLER_68_547
*5100 FILLER_68_550
*5101 FILLER_68_605
*5102 FILLER_68_608
*5103 FILLER_68_611
*5104 FILLER_68_620
*5105 FILLER_68_642
*5106 FILLER_68_645
*5107 FILLER_68_648
*5108 FILLER_68_656
*5109 FILLER_68_659
*5110 FILLER_68_662
*5111 FILLER_68_665
*5112 FILLER_68_669
*5113 FILLER_68_672
*5114 FILLER_68_675
*5115 FILLER_68_683
*5116 FILLER_69_531
*5117 FILLER_69_554
*5118 FILLER_69_578
*5119 FILLER_69_581
*5120 FILLER_69_585
*5121 FILLER_69_588
*5122 FILLER_69_619
*5123 FILLER_69_622
*5124 FILLER_69_639
*5125 FILLER_69_641
*5126 FILLER_69_644
*5127 FILLER_69_647
*5128 FILLER_69_657
*5129 FILLER_69_660
*5130 FILLER_69_663
*5131 FILLER_69_687
*5132 FILLER_69_690
*5133 FILLER_69_693
*5134 FILLER_69_705
*5135 FILLER_69_708
*5136 FILLER_69_711
*5137 FILLER_6_531
*5138 FILLER_6_534
*5139 FILLER_6_537
*5140 FILLER_6_540
*5141 FILLER_6_543
*5142 FILLER_6_546
*5143 FILLER_6_549
*5144 FILLER_6_552
*5145 FILLER_6_555
*5146 FILLER_6_557
*5147 FILLER_6_560
*5148 FILLER_6_563
*5149 FILLER_6_566
*5150 FILLER_6_569
*5151 FILLER_6_572
*5152 FILLER_6_575
*5153 FILLER_6_578
*5154 FILLER_6_581
*5155 FILLER_6_584
*5156 FILLER_6_587
*5157 FILLER_6_590
*5158 FILLER_6_593
*5159 FILLER_6_596
*5160 FILLER_6_599
*5161 FILLER_6_602
*5162 FILLER_6_605
*5163 FILLER_6_608
*5164 FILLER_6_611
*5165 FILLER_6_613
*5166 FILLER_6_616
*5167 FILLER_6_619
*5168 FILLER_6_622
*5169 FILLER_6_625
*5170 FILLER_6_628
*5171 FILLER_6_631
*5172 FILLER_6_634
*5173 FILLER_6_637
*5174 FILLER_6_640
*5175 FILLER_6_643
*5176 FILLER_6_646
*5177 FILLER_6_649
*5178 FILLER_6_652
*5179 FILLER_6_655
*5180 FILLER_6_658
*5181 FILLER_6_661
*5182 FILLER_6_664
*5183 FILLER_6_667
*5184 FILLER_6_669
*5185 FILLER_6_672
*5186 FILLER_6_675
*5187 FILLER_6_678
*5188 FILLER_6_681
*5189 FILLER_6_684
*5190 FILLER_6_687
*5191 FILLER_6_690
*5192 FILLER_6_693
*5193 FILLER_6_696
*5194 FILLER_6_699
*5195 FILLER_6_702
*5196 FILLER_6_705
*5197 FILLER_6_708
*5198 FILLER_6_711
*5199 FILLER_70_531
*5200 FILLER_70_534
*5201 FILLER_70_540
*5202 FILLER_70_543
*5203 FILLER_70_546
*5204 FILLER_70_549
*5205 FILLER_70_552
*5206 FILLER_70_555
*5207 FILLER_70_557
*5208 FILLER_70_560
*5209 FILLER_70_577
*5210 FILLER_70_580
*5211 FILLER_70_583
*5212 FILLER_70_586
*5213 FILLER_70_602
*5214 FILLER_70_605
*5215 FILLER_70_608
*5216 FILLER_70_611
*5217 FILLER_70_613
*5218 FILLER_70_635
*5219 FILLER_70_638
*5220 FILLER_70_652
*5221 FILLER_70_655
*5222 FILLER_70_658
*5223 FILLER_70_661
*5224 FILLER_70_664
*5225 FILLER_70_667
*5226 FILLER_70_669
*5227 FILLER_70_674
*5228 FILLER_70_680
*5229 FILLER_70_683
*5230 FILLER_70_686
*5231 FILLER_70_708
*5232 FILLER_70_711
*5233 FILLER_71_531
*5234 FILLER_71_534
*5235 FILLER_71_539
*5236 FILLER_71_542
*5237 FILLER_71_585
*5238 FILLER_71_588
*5239 FILLER_71_610
*5240 FILLER_71_613
*5241 FILLER_71_616
*5242 FILLER_71_619
*5243 FILLER_71_622
*5244 FILLER_71_636
*5245 FILLER_71_639
*5246 FILLER_71_641
*5247 FILLER_71_644
*5248 FILLER_71_647
*5249 FILLER_71_654
*5250 FILLER_71_685
*5251 FILLER_71_688
*5252 FILLER_71_691
*5253 FILLER_71_694
*5254 FILLER_71_697
*5255 FILLER_71_700
*5256 FILLER_71_703
*5257 FILLER_71_706
*5258 FILLER_71_709
*5259 FILLER_71_712
*5260 FILLER_72_531
*5261 FILLER_72_553
*5262 FILLER_72_557
*5263 FILLER_72_560
*5264 FILLER_72_583
*5265 FILLER_72_586
*5266 FILLER_72_589
*5267 FILLER_72_592
*5268 FILLER_72_595
*5269 FILLER_72_598
*5270 FILLER_72_601
*5271 FILLER_72_604
*5272 FILLER_72_607
*5273 FILLER_72_610
*5274 FILLER_72_613
*5275 FILLER_72_624
*5276 FILLER_72_630
*5277 FILLER_72_633
*5278 FILLER_72_636
*5279 FILLER_72_680
*5280 FILLER_72_702
*5281 FILLER_72_705
*5282 FILLER_72_708
*5283 FILLER_72_711
*5284 FILLER_73_531
*5285 FILLER_73_534
*5286 FILLER_73_538
*5287 FILLER_73_541
*5288 FILLER_73_544
*5289 FILLER_73_547
*5290 FILLER_73_570
*5291 FILLER_73_573
*5292 FILLER_73_585
*5293 FILLER_73_596
*5294 FILLER_73_599
*5295 FILLER_73_629
*5296 FILLER_73_646
*5297 FILLER_73_695
*5298 FILLER_73_697
*5299 FILLER_73_700
*5300 FILLER_73_703
*5301 FILLER_74_552
*5302 FILLER_74_555
*5303 FILLER_74_557
*5304 FILLER_74_567
*5305 FILLER_74_570
*5306 FILLER_74_608
*5307 FILLER_74_611
*5308 FILLER_74_613
*5309 FILLER_74_616
*5310 FILLER_74_645
*5311 FILLER_74_666
*5312 FILLER_74_669
*5313 FILLER_75_12
*5314 FILLER_75_127
*5315 FILLER_75_138
*5316 FILLER_75_141
*5317 FILLER_75_15
*5318 FILLER_75_169
*5319 FILLER_75_18
*5320 FILLER_75_181
*5321 FILLER_75_184
*5322 FILLER_75_197
*5323 FILLER_75_21
*5324 FILLER_75_225
*5325 FILLER_75_24
*5326 FILLER_75_248
*5327 FILLER_75_251
*5328 FILLER_75_253
*5329 FILLER_75_27
*5330 FILLER_75_281
*5331 FILLER_75_284
*5332 FILLER_75_287
*5333 FILLER_75_29
*5334 FILLER_75_3
*5335 FILLER_75_309
*5336 FILLER_75_318
*5337 FILLER_75_32
*5338 FILLER_75_335
*5339 FILLER_75_337
*5340 FILLER_75_340
*5341 FILLER_75_343
*5342 FILLER_75_35
*5343 FILLER_75_353
*5344 FILLER_75_356
*5345 FILLER_75_359
*5346 FILLER_75_362
*5347 FILLER_75_365
*5348 FILLER_75_368
*5349 FILLER_75_371
*5350 FILLER_75_374
*5351 FILLER_75_377
*5352 FILLER_75_38
*5353 FILLER_75_380
*5354 FILLER_75_383
*5355 FILLER_75_386
*5356 FILLER_75_41
*5357 FILLER_75_436
*5358 FILLER_75_439
*5359 FILLER_75_44
*5360 FILLER_75_455
*5361 FILLER_75_465
*5362 FILLER_75_468
*5363 FILLER_75_47
*5364 FILLER_75_471
*5365 FILLER_75_474
*5366 FILLER_75_477
*5367 FILLER_75_480
*5368 FILLER_75_483
*5369 FILLER_75_486
*5370 FILLER_75_489
*5371 FILLER_75_492
*5372 FILLER_75_50
*5373 FILLER_75_502
*5374 FILLER_75_505
*5375 FILLER_75_508
*5376 FILLER_75_511
*5377 FILLER_75_514
*5378 FILLER_75_517
*5379 FILLER_75_527
*5380 FILLER_75_53
*5381 FILLER_75_530
*5382 FILLER_75_533
*5383 FILLER_75_536
*5384 FILLER_75_550
*5385 FILLER_75_553
*5386 FILLER_75_559
*5387 FILLER_75_566
*5388 FILLER_75_569
*5389 FILLER_75_57
*5390 FILLER_75_572
*5391 FILLER_75_575
*5392 FILLER_75_586
*5393 FILLER_75_594
*5394 FILLER_75_597
*5395 FILLER_75_6
*5396 FILLER_75_60
*5397 FILLER_75_611
*5398 FILLER_75_614
*5399 FILLER_75_617
*5400 FILLER_75_63
*5401 FILLER_75_632
*5402 FILLER_75_635
*5403 FILLER_75_650
*5404 FILLER_75_653
*5405 FILLER_75_656
*5406 FILLER_75_659
*5407 FILLER_75_66
*5408 FILLER_75_668
*5409 FILLER_75_69
*5410 FILLER_75_694
*5411 FILLER_75_697
*5412 FILLER_75_701
*5413 FILLER_75_704
*5414 FILLER_75_707
*5415 FILLER_75_710
*5416 FILLER_75_78
*5417 FILLER_75_81
*5418 FILLER_75_85
*5419 FILLER_75_88
*5420 FILLER_75_9
*5421 FILLER_75_91
*5422 FILLER_75_94
*5423 FILLER_75_97
*5424 FILLER_76_115
*5425 FILLER_76_12
*5426 FILLER_76_141
*5427 FILLER_76_15
*5428 FILLER_76_18
*5429 FILLER_76_184
*5430 FILLER_76_197
*5431 FILLER_76_200
*5432 FILLER_76_21
*5433 FILLER_76_224
*5434 FILLER_76_24
*5435 FILLER_76_248
*5436 FILLER_76_251
*5437 FILLER_76_27
*5438 FILLER_76_274
*5439 FILLER_76_277
*5440 FILLER_76_29
*5441 FILLER_76_3
*5442 FILLER_76_309
*5443 FILLER_76_32
*5444 FILLER_76_35
*5445 FILLER_76_362
*5446 FILLER_76_365
*5447 FILLER_76_376
*5448 FILLER_76_38
*5449 FILLER_76_41
*5450 FILLER_76_429
*5451 FILLER_76_44
*5452 FILLER_76_446
*5453 FILLER_76_469
*5454 FILLER_76_47
*5455 FILLER_76_472
*5456 FILLER_76_475
*5457 FILLER_76_50
*5458 FILLER_76_519
*5459 FILLER_76_522
*5460 FILLER_76_525
*5461 FILLER_76_528
*5462 FILLER_76_53
*5463 FILLER_76_531
*5464 FILLER_76_533
*5465 FILLER_76_544
*5466 FILLER_76_547
*5467 FILLER_76_550
*5468 FILLER_76_56
*5469 FILLER_76_565
*5470 FILLER_76_568
*5471 FILLER_76_59
*5472 FILLER_76_597
*5473 FILLER_76_6
*5474 FILLER_76_600
*5475 FILLER_76_62
*5476 FILLER_76_641
*5477 FILLER_76_645
*5478 FILLER_76_648
*5479 FILLER_76_65
*5480 FILLER_76_651
*5481 FILLER_76_654
*5482 FILLER_76_68
*5483 FILLER_76_709
*5484 FILLER_76_71
*5485 FILLER_76_712
*5486 FILLER_76_74
*5487 FILLER_76_77
*5488 FILLER_76_80
*5489 FILLER_76_83
*5490 FILLER_76_9
*5491 FILLER_77_108
*5492 FILLER_77_12
*5493 FILLER_77_122
*5494 FILLER_77_15
*5495 FILLER_77_169
*5496 FILLER_77_18
*5497 FILLER_77_182
*5498 FILLER_77_206
*5499 FILLER_77_21
*5500 FILLER_77_231
*5501 FILLER_77_24
*5502 FILLER_77_27
*5503 FILLER_77_281
*5504 FILLER_77_284
*5505 FILLER_77_3
*5506 FILLER_77_30
*5507 FILLER_77_325
*5508 FILLER_77_33
*5509 FILLER_77_335
*5510 FILLER_77_337
*5511 FILLER_77_340
*5512 FILLER_77_343
*5513 FILLER_77_346
*5514 FILLER_77_349
*5515 FILLER_77_36
*5516 FILLER_77_388
*5517 FILLER_77_39
*5518 FILLER_77_391
*5519 FILLER_77_409
*5520 FILLER_77_42
*5521 FILLER_77_433
*5522 FILLER_77_449
*5523 FILLER_77_45
*5524 FILLER_77_452
*5525 FILLER_77_462
*5526 FILLER_77_48
*5527 FILLER_77_485
*5528 FILLER_77_488
*5529 FILLER_77_491
*5530 FILLER_77_51
*5531 FILLER_77_54
*5532 FILLER_77_561
*5533 FILLER_77_57
*5534 FILLER_77_585
*5535 FILLER_77_588
*5536 FILLER_77_6
*5537 FILLER_77_60
*5538 FILLER_77_611
*5539 FILLER_77_614
*5540 FILLER_77_643
*5541 FILLER_77_65
*5542 FILLER_77_665
*5543 FILLER_77_668
*5544 FILLER_77_671
*5545 FILLER_77_676
*5546 FILLER_77_679
*5547 FILLER_77_68
*5548 FILLER_77_690
*5549 FILLER_77_71
*5550 FILLER_77_74
*5551 FILLER_77_77
*5552 FILLER_77_80
*5553 FILLER_77_83
*5554 FILLER_77_86
*5555 FILLER_77_9
*5556 FILLER_78_12
*5557 FILLER_78_139
*5558 FILLER_78_141
*5559 FILLER_78_15
*5560 FILLER_78_18
*5561 FILLER_78_21
*5562 FILLER_78_227
*5563 FILLER_78_230
*5564 FILLER_78_24
*5565 FILLER_78_253
*5566 FILLER_78_256
*5567 FILLER_78_27
*5568 FILLER_78_287
*5569 FILLER_78_29
*5570 FILLER_78_3
*5571 FILLER_78_32
*5572 FILLER_78_35
*5573 FILLER_78_357
*5574 FILLER_78_360
*5575 FILLER_78_363
*5576 FILLER_78_365
*5577 FILLER_78_368
*5578 FILLER_78_38
*5579 FILLER_78_390
*5580 FILLER_78_393
*5581 FILLER_78_41
*5582 FILLER_78_417
*5583 FILLER_78_44
*5584 FILLER_78_453
*5585 FILLER_78_467
*5586 FILLER_78_47
*5587 FILLER_78_477
*5588 FILLER_78_50
*5589 FILLER_78_509
*5590 FILLER_78_53
*5591 FILLER_78_554
*5592 FILLER_78_56
*5593 FILLER_78_6
*5594 FILLER_78_621
*5595 FILLER_78_695
*5596 FILLER_78_698
*5597 FILLER_78_707
*5598 FILLER_78_710
*5599 FILLER_78_79
*5600 FILLER_78_9
*5601 FILLER_78_96
*5602 FILLER_79_110
*5603 FILLER_79_113
*5604 FILLER_79_12
*5605 FILLER_79_147
*5606 FILLER_79_15
*5607 FILLER_79_169
*5608 FILLER_79_18
*5609 FILLER_79_190
*5610 FILLER_79_21
*5611 FILLER_79_212
*5612 FILLER_79_215
*5613 FILLER_79_225
*5614 FILLER_79_24
*5615 FILLER_79_263
*5616 FILLER_79_27
*5617 FILLER_79_281
*5618 FILLER_79_3
*5619 FILLER_79_30
*5620 FILLER_79_301
*5621 FILLER_79_304
*5622 FILLER_79_33
*5623 FILLER_79_335
*5624 FILLER_79_345
*5625 FILLER_79_348
*5626 FILLER_79_351
*5627 FILLER_79_36
*5628 FILLER_79_386
*5629 FILLER_79_389
*5630 FILLER_79_39
*5631 FILLER_79_409
*5632 FILLER_79_412
*5633 FILLER_79_415
*5634 FILLER_79_42
*5635 FILLER_79_445
*5636 FILLER_79_45
*5637 FILLER_79_465
*5638 FILLER_79_468
*5639 FILLER_79_48
*5640 FILLER_79_482
*5641 FILLER_79_51
*5642 FILLER_79_519
*5643 FILLER_79_522
*5644 FILLER_79_525
*5645 FILLER_79_528
*5646 FILLER_79_531
*5647 FILLER_79_54
*5648 FILLER_79_541
*5649 FILLER_79_544
*5650 FILLER_79_549
*5651 FILLER_79_57
*5652 FILLER_79_585
*5653 FILLER_79_6
*5654 FILLER_79_60
*5655 FILLER_79_617
*5656 FILLER_79_620
*5657 FILLER_79_623
*5658 FILLER_79_626
*5659 FILLER_79_629
*5660 FILLER_79_63
*5661 FILLER_79_659
*5662 FILLER_79_66
*5663 FILLER_79_665
*5664 FILLER_79_671
*5665 FILLER_79_69
*5666 FILLER_79_710
*5667 FILLER_79_9
*5668 FILLER_7_531
*5669 FILLER_7_534
*5670 FILLER_7_537
*5671 FILLER_7_540
*5672 FILLER_7_543
*5673 FILLER_7_546
*5674 FILLER_7_549
*5675 FILLER_7_552
*5676 FILLER_7_555
*5677 FILLER_7_558
*5678 FILLER_7_561
*5679 FILLER_7_564
*5680 FILLER_7_567
*5681 FILLER_7_570
*5682 FILLER_7_573
*5683 FILLER_7_576
*5684 FILLER_7_579
*5685 FILLER_7_582
*5686 FILLER_7_585
*5687 FILLER_7_588
*5688 FILLER_7_591
*5689 FILLER_7_594
*5690 FILLER_7_597
*5691 FILLER_7_600
*5692 FILLER_7_603
*5693 FILLER_7_606
*5694 FILLER_7_609
*5695 FILLER_7_612
*5696 FILLER_7_615
*5697 FILLER_7_618
*5698 FILLER_7_621
*5699 FILLER_7_624
*5700 FILLER_7_627
*5701 FILLER_7_630
*5702 FILLER_7_633
*5703 FILLER_7_636
*5704 FILLER_7_639
*5705 FILLER_7_641
*5706 FILLER_7_644
*5707 FILLER_7_647
*5708 FILLER_7_650
*5709 FILLER_7_653
*5710 FILLER_7_656
*5711 FILLER_7_659
*5712 FILLER_7_662
*5713 FILLER_7_665
*5714 FILLER_7_668
*5715 FILLER_7_671
*5716 FILLER_7_674
*5717 FILLER_7_677
*5718 FILLER_7_680
*5719 FILLER_7_683
*5720 FILLER_7_686
*5721 FILLER_7_689
*5722 FILLER_7_692
*5723 FILLER_7_695
*5724 FILLER_7_697
*5725 FILLER_7_700
*5726 FILLER_7_703
*5727 FILLER_7_706
*5728 FILLER_7_709
*5729 FILLER_7_712
*5730 FILLER_80_12
*5731 FILLER_80_130
*5732 FILLER_80_15
*5733 FILLER_80_169
*5734 FILLER_80_18
*5735 FILLER_80_192
*5736 FILLER_80_195
*5737 FILLER_80_21
*5738 FILLER_80_24
*5739 FILLER_80_242
*5740 FILLER_80_253
*5741 FILLER_80_256
*5742 FILLER_80_259
*5743 FILLER_80_269
*5744 FILLER_80_27
*5745 FILLER_80_281
*5746 FILLER_80_284
*5747 FILLER_80_29
*5748 FILLER_80_3
*5749 FILLER_80_307
*5750 FILLER_80_32
*5751 FILLER_80_337
*5752 FILLER_80_340
*5753 FILLER_80_343
*5754 FILLER_80_35
*5755 FILLER_80_365
*5756 FILLER_80_368
*5757 FILLER_80_38
*5758 FILLER_80_393
*5759 FILLER_80_396
*5760 FILLER_80_41
*5761 FILLER_80_421
*5762 FILLER_80_424
*5763 FILLER_80_44
*5764 FILLER_80_449
*5765 FILLER_80_452
*5766 FILLER_80_47
*5767 FILLER_80_498
*5768 FILLER_80_50
*5769 FILLER_80_501
*5770 FILLER_80_53
*5771 FILLER_80_536
*5772 FILLER_80_558
*5773 FILLER_80_561
*5774 FILLER_80_57
*5775 FILLER_80_586
*5776 FILLER_80_595
*5777 FILLER_80_598
*5778 FILLER_80_6
*5779 FILLER_80_60
*5780 FILLER_80_608
*5781 FILLER_80_612
*5782 FILLER_80_615
*5783 FILLER_80_617
*5784 FILLER_80_643
*5785 FILLER_80_645
*5786 FILLER_80_648
*5787 FILLER_80_673
*5788 FILLER_80_676
*5789 FILLER_80_701
*5790 FILLER_80_704
*5791 FILLER_80_707
*5792 FILLER_80_710
*5793 FILLER_80_9
*5794 FILLER_8_531
*5795 FILLER_8_534
*5796 FILLER_8_537
*5797 FILLER_8_540
*5798 FILLER_8_543
*5799 FILLER_8_546
*5800 FILLER_8_549
*5801 FILLER_8_552
*5802 FILLER_8_555
*5803 FILLER_8_557
*5804 FILLER_8_560
*5805 FILLER_8_563
*5806 FILLER_8_566
*5807 FILLER_8_569
*5808 FILLER_8_572
*5809 FILLER_8_575
*5810 FILLER_8_578
*5811 FILLER_8_581
*5812 FILLER_8_584
*5813 FILLER_8_587
*5814 FILLER_8_590
*5815 FILLER_8_593
*5816 FILLER_8_596
*5817 FILLER_8_599
*5818 FILLER_8_602
*5819 FILLER_8_605
*5820 FILLER_8_608
*5821 FILLER_8_611
*5822 FILLER_8_613
*5823 FILLER_8_616
*5824 FILLER_8_619
*5825 FILLER_8_622
*5826 FILLER_8_625
*5827 FILLER_8_628
*5828 FILLER_8_631
*5829 FILLER_8_634
*5830 FILLER_8_637
*5831 FILLER_8_640
*5832 FILLER_8_643
*5833 FILLER_8_646
*5834 FILLER_8_649
*5835 FILLER_8_652
*5836 FILLER_8_655
*5837 FILLER_8_658
*5838 FILLER_8_661
*5839 FILLER_8_664
*5840 FILLER_8_667
*5841 FILLER_8_669
*5842 FILLER_8_672
*5843 FILLER_8_675
*5844 FILLER_8_678
*5845 FILLER_8_681
*5846 FILLER_8_684
*5847 FILLER_8_687
*5848 FILLER_8_690
*5849 FILLER_8_693
*5850 FILLER_8_696
*5851 FILLER_8_699
*5852 FILLER_8_702
*5853 FILLER_8_705
*5854 FILLER_8_708
*5855 FILLER_8_711
*5856 FILLER_9_531
*5857 FILLER_9_534
*5858 FILLER_9_537
*5859 FILLER_9_540
*5860 FILLER_9_543
*5861 FILLER_9_546
*5862 FILLER_9_549
*5863 FILLER_9_552
*5864 FILLER_9_555
*5865 FILLER_9_558
*5866 FILLER_9_561
*5867 FILLER_9_564
*5868 FILLER_9_567
*5869 FILLER_9_570
*5870 FILLER_9_573
*5871 FILLER_9_576
*5872 FILLER_9_579
*5873 FILLER_9_582
*5874 FILLER_9_585
*5875 FILLER_9_588
*5876 FILLER_9_591
*5877 FILLER_9_594
*5878 FILLER_9_597
*5879 FILLER_9_600
*5880 FILLER_9_603
*5881 FILLER_9_606
*5882 FILLER_9_609
*5883 FILLER_9_612
*5884 FILLER_9_615
*5885 FILLER_9_618
*5886 FILLER_9_621
*5887 FILLER_9_624
*5888 FILLER_9_627
*5889 FILLER_9_630
*5890 FILLER_9_633
*5891 FILLER_9_636
*5892 FILLER_9_639
*5893 FILLER_9_641
*5894 FILLER_9_644
*5895 FILLER_9_647
*5896 FILLER_9_650
*5897 FILLER_9_653
*5898 FILLER_9_656
*5899 FILLER_9_659
*5900 FILLER_9_662
*5901 FILLER_9_665
*5902 FILLER_9_668
*5903 FILLER_9_671
*5904 FILLER_9_674
*5905 FILLER_9_677
*5906 FILLER_9_680
*5907 FILLER_9_683
*5908 FILLER_9_686
*5909 FILLER_9_689
*5910 FILLER_9_692
*5911 FILLER_9_695
*5912 FILLER_9_697
*5913 FILLER_9_700
*5914 FILLER_9_703
*5915 FILLER_9_706
*5916 FILLER_9_709
*5917 FILLER_9_712
*5918 PHY_EDGE_ROW_0_Left_70
*5919 PHY_EDGE_ROW_0_Right_75
*5920 PHY_EDGE_ROW_10_5_Left_57
*5921 PHY_EDGE_ROW_10_5_Right_84
*5922 PHY_EDGE_ROW_11_5_Left_58
*5923 PHY_EDGE_ROW_11_5_Right_85
*5924 PHY_EDGE_ROW_12_5_Left_59
*5925 PHY_EDGE_ROW_12_5_Right_86
*5926 PHY_EDGE_ROW_13_5_Left_60
*5927 PHY_EDGE_ROW_13_5_Right_87
*5928 PHY_EDGE_ROW_14_5_Left_61
*5929 PHY_EDGE_ROW_14_5_Right_88
*5930 PHY_EDGE_ROW_15_5_Left_62
*5931 PHY_EDGE_ROW_15_5_Right_89
*5932 PHY_EDGE_ROW_16_5_Left_63
*5933 PHY_EDGE_ROW_16_5_Right_90
*5934 PHY_EDGE_ROW_17_5_Left_64
*5935 PHY_EDGE_ROW_17_5_Right_91
*5936 PHY_EDGE_ROW_18_5_Left_65
*5937 PHY_EDGE_ROW_18_5_Right_92
*5938 PHY_EDGE_ROW_19_5_Left_66
*5939 PHY_EDGE_ROW_19_5_Right_93
*5940 PHY_EDGE_ROW_1_Left_71
*5941 PHY_EDGE_ROW_1_Right_76
*5942 PHY_EDGE_ROW_20_5_Left_67
*5943 PHY_EDGE_ROW_20_5_Right_94
*5944 PHY_EDGE_ROW_21_5_Left_68
*5945 PHY_EDGE_ROW_21_5_Right_95
*5946 PHY_EDGE_ROW_22_Left_52
*5947 PHY_EDGE_ROW_22_Right_97
*5948 PHY_EDGE_ROW_23_5_Left_0
*5949 PHY_EDGE_ROW_23_5_Right_96
*5950 PHY_EDGE_ROW_24_5_Left_1
*5951 PHY_EDGE_ROW_24_5_Right_98
*5952 PHY_EDGE_ROW_25_5_Left_2
*5953 PHY_EDGE_ROW_25_5_Right_99
*5954 PHY_EDGE_ROW_26_5_Left_3
*5955 PHY_EDGE_ROW_26_5_Right_100
*5956 PHY_EDGE_ROW_27_5_Left_4
*5957 PHY_EDGE_ROW_27_5_Right_101
*5958 PHY_EDGE_ROW_28_5_Left_5
*5959 PHY_EDGE_ROW_28_5_Right_102
*5960 PHY_EDGE_ROW_29_5_Left_6
*5961 PHY_EDGE_ROW_29_5_Right_103
*5962 PHY_EDGE_ROW_2_Left_72
*5963 PHY_EDGE_ROW_2_Right_77
*5964 PHY_EDGE_ROW_30_5_Left_7
*5965 PHY_EDGE_ROW_30_5_Right_104
*5966 PHY_EDGE_ROW_31_5_Left_8
*5967 PHY_EDGE_ROW_31_5_Right_105
*5968 PHY_EDGE_ROW_32_5_Left_9
*5969 PHY_EDGE_ROW_32_5_Right_106
*5970 PHY_EDGE_ROW_33_5_Left_10
*5971 PHY_EDGE_ROW_33_5_Right_107
*5972 PHY_EDGE_ROW_34_5_Left_11
*5973 PHY_EDGE_ROW_34_5_Right_108
*5974 PHY_EDGE_ROW_35_5_Left_12
*5975 PHY_EDGE_ROW_35_5_Right_109
*5976 PHY_EDGE_ROW_36_5_Left_13
*5977 PHY_EDGE_ROW_36_5_Right_110
*5978 PHY_EDGE_ROW_37_5_Left_14
*5979 PHY_EDGE_ROW_37_5_Right_111
*5980 PHY_EDGE_ROW_38_5_Left_15
*5981 PHY_EDGE_ROW_38_5_Right_112
*5982 PHY_EDGE_ROW_39_5_Left_16
*5983 PHY_EDGE_ROW_39_5_Right_113
*5984 PHY_EDGE_ROW_3_Left_73
*5985 PHY_EDGE_ROW_3_Right_78
*5986 PHY_EDGE_ROW_40_5_Left_17
*5987 PHY_EDGE_ROW_40_5_Right_114
*5988 PHY_EDGE_ROW_41_5_Left_18
*5989 PHY_EDGE_ROW_41_5_Right_115
*5990 PHY_EDGE_ROW_42_5_Left_19
*5991 PHY_EDGE_ROW_42_5_Right_116
*5992 PHY_EDGE_ROW_43_5_Left_20
*5993 PHY_EDGE_ROW_43_5_Right_117
*5994 PHY_EDGE_ROW_44_5_Left_21
*5995 PHY_EDGE_ROW_44_5_Right_118
*5996 PHY_EDGE_ROW_45_5_Left_22
*5997 PHY_EDGE_ROW_45_5_Right_119
*5998 PHY_EDGE_ROW_46_5_Left_23
*5999 PHY_EDGE_ROW_46_5_Right_120
*6000 PHY_EDGE_ROW_47_5_Left_24
*6001 PHY_EDGE_ROW_47_5_Right_121
*6002 PHY_EDGE_ROW_48_5_Left_25
*6003 PHY_EDGE_ROW_48_5_Right_122
*6004 PHY_EDGE_ROW_49_5_Left_26
*6005 PHY_EDGE_ROW_49_5_Right_123
*6006 PHY_EDGE_ROW_4_Left_74
*6007 PHY_EDGE_ROW_4_Right_79
*6008 PHY_EDGE_ROW_50_5_Left_27
*6009 PHY_EDGE_ROW_50_5_Right_124
*6010 PHY_EDGE_ROW_51_5_Left_28
*6011 PHY_EDGE_ROW_51_5_Right_125
*6012 PHY_EDGE_ROW_52_5_Left_29
*6013 PHY_EDGE_ROW_52_5_Right_126
*6014 PHY_EDGE_ROW_53_5_Left_30
*6015 PHY_EDGE_ROW_53_5_Right_127
*6016 PHY_EDGE_ROW_54_5_Left_31
*6017 PHY_EDGE_ROW_54_5_Right_128
*6018 PHY_EDGE_ROW_55_5_Left_32
*6019 PHY_EDGE_ROW_55_5_Right_129
*6020 PHY_EDGE_ROW_56_5_Left_33
*6021 PHY_EDGE_ROW_56_5_Right_130
*6022 PHY_EDGE_ROW_57_5_Left_34
*6023 PHY_EDGE_ROW_57_5_Right_131
*6024 PHY_EDGE_ROW_58_5_Left_35
*6025 PHY_EDGE_ROW_58_5_Right_132
*6026 PHY_EDGE_ROW_59_5_Left_36
*6027 PHY_EDGE_ROW_59_5_Right_133
*6028 PHY_EDGE_ROW_5_5_Left_69
*6029 PHY_EDGE_ROW_5_5_Right_155
*6030 PHY_EDGE_ROW_60_5_Left_37
*6031 PHY_EDGE_ROW_60_5_Right_134
*6032 PHY_EDGE_ROW_61_5_Left_38
*6033 PHY_EDGE_ROW_61_5_Right_135
*6034 PHY_EDGE_ROW_62_5_Left_39
*6035 PHY_EDGE_ROW_62_5_Right_136
*6036 PHY_EDGE_ROW_63_5_Left_40
*6037 PHY_EDGE_ROW_63_5_Right_137
*6038 PHY_EDGE_ROW_64_5_Left_41
*6039 PHY_EDGE_ROW_64_5_Right_138
*6040 PHY_EDGE_ROW_65_5_Left_42
*6041 PHY_EDGE_ROW_65_5_Right_139
*6042 PHY_EDGE_ROW_66_5_Left_43
*6043 PHY_EDGE_ROW_66_5_Right_140
*6044 PHY_EDGE_ROW_67_5_Left_44
*6045 PHY_EDGE_ROW_67_5_Right_141
*6046 PHY_EDGE_ROW_68_5_Left_45
*6047 PHY_EDGE_ROW_68_5_Right_142
*6048 PHY_EDGE_ROW_69_5_Left_46
*6049 PHY_EDGE_ROW_69_5_Right_143
*6050 PHY_EDGE_ROW_6_5_Left_53
*6051 PHY_EDGE_ROW_6_5_Right_80
*6052 PHY_EDGE_ROW_70_5_Left_47
*6053 PHY_EDGE_ROW_70_5_Right_144
*6054 PHY_EDGE_ROW_71_5_Left_48
*6055 PHY_EDGE_ROW_71_5_Right_145
*6056 PHY_EDGE_ROW_72_5_Left_49
*6057 PHY_EDGE_ROW_72_5_Right_146
*6058 PHY_EDGE_ROW_73_5_Left_50
*6059 PHY_EDGE_ROW_73_5_Right_147
*6060 PHY_EDGE_ROW_74_5_Left_51
*6061 PHY_EDGE_ROW_74_5_Right_148
*6062 PHY_EDGE_ROW_75_Left_156
*6063 PHY_EDGE_ROW_75_Right_149
*6064 PHY_EDGE_ROW_76_Left_157
*6065 PHY_EDGE_ROW_76_Right_150
*6066 PHY_EDGE_ROW_77_Left_158
*6067 PHY_EDGE_ROW_77_Right_151
*6068 PHY_EDGE_ROW_78_Left_159
*6069 PHY_EDGE_ROW_78_Right_152
*6070 PHY_EDGE_ROW_79_Left_160
*6071 PHY_EDGE_ROW_79_Right_153
*6072 PHY_EDGE_ROW_7_5_Left_54
*6073 PHY_EDGE_ROW_7_5_Right_81
*6074 PHY_EDGE_ROW_80_Left_161
*6075 PHY_EDGE_ROW_80_Right_154
*6076 PHY_EDGE_ROW_8_5_Left_55
*6077 PHY_EDGE_ROW_8_5_Right_82
*6078 PHY_EDGE_ROW_9_5_Left_56
*6079 PHY_EDGE_ROW_9_5_Right_83
*6080 TAP_TAPCELL_ROW_0_162
*6081 TAP_TAPCELL_ROW_0_163
*6082 TAP_TAPCELL_ROW_0_164
*6083 TAP_TAPCELL_ROW_0_165
*6084 TAP_TAPCELL_ROW_0_166
*6085 TAP_TAPCELL_ROW_0_167
*6086 TAP_TAPCELL_ROW_0_168
*6087 TAP_TAPCELL_ROW_0_169
*6088 TAP_TAPCELL_ROW_0_170
*6089 TAP_TAPCELL_ROW_0_171
*6090 TAP_TAPCELL_ROW_0_172
*6091 TAP_TAPCELL_ROW_0_173
*6092 TAP_TAPCELL_ROW_0_174
*6093 TAP_TAPCELL_ROW_0_175
*6094 TAP_TAPCELL_ROW_0_176
*6095 TAP_TAPCELL_ROW_0_177
*6096 TAP_TAPCELL_ROW_0_178
*6097 TAP_TAPCELL_ROW_0_179
*6098 TAP_TAPCELL_ROW_0_180
*6099 TAP_TAPCELL_ROW_0_181
*6100 TAP_TAPCELL_ROW_0_182
*6101 TAP_TAPCELL_ROW_0_183
*6102 TAP_TAPCELL_ROW_0_184
*6103 TAP_TAPCELL_ROW_0_185
*6104 TAP_TAPCELL_ROW_0_186
*6105 TAP_TAPCELL_ROW_10_5_261
*6106 TAP_TAPCELL_ROW_10_5_262
*6107 TAP_TAPCELL_ROW_10_5_263
*6108 TAP_TAPCELL_ROW_11_5_264
*6109 TAP_TAPCELL_ROW_11_5_265
*6110 TAP_TAPCELL_ROW_11_5_266
*6111 TAP_TAPCELL_ROW_12_5_267
*6112 TAP_TAPCELL_ROW_12_5_268
*6113 TAP_TAPCELL_ROW_12_5_269
*6114 TAP_TAPCELL_ROW_13_5_270
*6115 TAP_TAPCELL_ROW_13_5_271
*6116 TAP_TAPCELL_ROW_13_5_272
*6117 TAP_TAPCELL_ROW_14_5_273
*6118 TAP_TAPCELL_ROW_14_5_274
*6119 TAP_TAPCELL_ROW_14_5_275
*6120 TAP_TAPCELL_ROW_15_5_276
*6121 TAP_TAPCELL_ROW_15_5_277
*6122 TAP_TAPCELL_ROW_15_5_278
*6123 TAP_TAPCELL_ROW_16_5_279
*6124 TAP_TAPCELL_ROW_16_5_280
*6125 TAP_TAPCELL_ROW_16_5_281
*6126 TAP_TAPCELL_ROW_17_5_282
*6127 TAP_TAPCELL_ROW_17_5_283
*6128 TAP_TAPCELL_ROW_17_5_284
*6129 TAP_TAPCELL_ROW_18_5_285
*6130 TAP_TAPCELL_ROW_18_5_286
*6131 TAP_TAPCELL_ROW_18_5_287
*6132 TAP_TAPCELL_ROW_19_5_288
*6133 TAP_TAPCELL_ROW_19_5_289
*6134 TAP_TAPCELL_ROW_19_5_290
*6135 TAP_TAPCELL_ROW_1_187
*6136 TAP_TAPCELL_ROW_1_188
*6137 TAP_TAPCELL_ROW_1_189
*6138 TAP_TAPCELL_ROW_1_190
*6139 TAP_TAPCELL_ROW_1_191
*6140 TAP_TAPCELL_ROW_1_192
*6141 TAP_TAPCELL_ROW_1_193
*6142 TAP_TAPCELL_ROW_1_194
*6143 TAP_TAPCELL_ROW_1_195
*6144 TAP_TAPCELL_ROW_1_196
*6145 TAP_TAPCELL_ROW_1_197
*6146 TAP_TAPCELL_ROW_1_198
*6147 TAP_TAPCELL_ROW_20_5_291
*6148 TAP_TAPCELL_ROW_20_5_292
*6149 TAP_TAPCELL_ROW_20_5_293
*6150 TAP_TAPCELL_ROW_21_5_294
*6151 TAP_TAPCELL_ROW_21_5_295
*6152 TAP_TAPCELL_ROW_21_5_296
*6153 TAP_TAPCELL_ROW_22_300
*6154 TAP_TAPCELL_ROW_22_301
*6155 TAP_TAPCELL_ROW_22_302
*6156 TAP_TAPCELL_ROW_22_303
*6157 TAP_TAPCELL_ROW_22_304
*6158 TAP_TAPCELL_ROW_22_305
*6159 TAP_TAPCELL_ROW_22_306
*6160 TAP_TAPCELL_ROW_22_307
*6161 TAP_TAPCELL_ROW_22_308
*6162 TAP_TAPCELL_ROW_22_309
*6163 TAP_TAPCELL_ROW_22_310
*6164 TAP_TAPCELL_ROW_22_311
*6165 TAP_TAPCELL_ROW_22_312
*6166 TAP_TAPCELL_ROW_22_313
*6167 TAP_TAPCELL_ROW_22_314
*6168 TAP_TAPCELL_ROW_22_315
*6169 TAP_TAPCELL_ROW_22_316
*6170 TAP_TAPCELL_ROW_22_317
*6171 TAP_TAPCELL_ROW_22_318
*6172 TAP_TAPCELL_ROW_22_319
*6173 TAP_TAPCELL_ROW_22_320
*6174 TAP_TAPCELL_ROW_22_321
*6175 TAP_TAPCELL_ROW_22_322
*6176 TAP_TAPCELL_ROW_22_323
*6177 TAP_TAPCELL_ROW_22_324
*6178 TAP_TAPCELL_ROW_23_5_297
*6179 TAP_TAPCELL_ROW_23_5_298
*6180 TAP_TAPCELL_ROW_23_5_299
*6181 TAP_TAPCELL_ROW_24_5_325
*6182 TAP_TAPCELL_ROW_24_5_326
*6183 TAP_TAPCELL_ROW_24_5_327
*6184 TAP_TAPCELL_ROW_25_5_328
*6185 TAP_TAPCELL_ROW_25_5_329
*6186 TAP_TAPCELL_ROW_25_5_330
*6187 TAP_TAPCELL_ROW_26_5_331
*6188 TAP_TAPCELL_ROW_26_5_332
*6189 TAP_TAPCELL_ROW_26_5_333
*6190 TAP_TAPCELL_ROW_27_5_334
*6191 TAP_TAPCELL_ROW_27_5_335
*6192 TAP_TAPCELL_ROW_27_5_336
*6193 TAP_TAPCELL_ROW_28_5_337
*6194 TAP_TAPCELL_ROW_28_5_338
*6195 TAP_TAPCELL_ROW_28_5_339
*6196 TAP_TAPCELL_ROW_29_5_340
*6197 TAP_TAPCELL_ROW_29_5_341
*6198 TAP_TAPCELL_ROW_29_5_342
*6199 TAP_TAPCELL_ROW_2_199
*6200 TAP_TAPCELL_ROW_2_200
*6201 TAP_TAPCELL_ROW_2_201
*6202 TAP_TAPCELL_ROW_2_202
*6203 TAP_TAPCELL_ROW_2_203
*6204 TAP_TAPCELL_ROW_2_204
*6205 TAP_TAPCELL_ROW_2_205
*6206 TAP_TAPCELL_ROW_2_206
*6207 TAP_TAPCELL_ROW_2_207
*6208 TAP_TAPCELL_ROW_2_208
*6209 TAP_TAPCELL_ROW_2_209
*6210 TAP_TAPCELL_ROW_2_210
*6211 TAP_TAPCELL_ROW_2_211
*6212 TAP_TAPCELL_ROW_30_5_343
*6213 TAP_TAPCELL_ROW_30_5_344
*6214 TAP_TAPCELL_ROW_30_5_345
*6215 TAP_TAPCELL_ROW_31_5_346
*6216 TAP_TAPCELL_ROW_31_5_347
*6217 TAP_TAPCELL_ROW_31_5_348
*6218 TAP_TAPCELL_ROW_32_5_349
*6219 TAP_TAPCELL_ROW_32_5_350
*6220 TAP_TAPCELL_ROW_32_5_351
*6221 TAP_TAPCELL_ROW_33_5_352
*6222 TAP_TAPCELL_ROW_33_5_353
*6223 TAP_TAPCELL_ROW_33_5_354
*6224 TAP_TAPCELL_ROW_34_5_355
*6225 TAP_TAPCELL_ROW_34_5_356
*6226 TAP_TAPCELL_ROW_34_5_357
*6227 TAP_TAPCELL_ROW_35_5_358
*6228 TAP_TAPCELL_ROW_35_5_359
*6229 TAP_TAPCELL_ROW_35_5_360
*6230 TAP_TAPCELL_ROW_36_5_361
*6231 TAP_TAPCELL_ROW_36_5_362
*6232 TAP_TAPCELL_ROW_36_5_363
*6233 TAP_TAPCELL_ROW_37_5_364
*6234 TAP_TAPCELL_ROW_37_5_365
*6235 TAP_TAPCELL_ROW_37_5_366
*6236 TAP_TAPCELL_ROW_38_5_367
*6237 TAP_TAPCELL_ROW_38_5_368
*6238 TAP_TAPCELL_ROW_38_5_369
*6239 TAP_TAPCELL_ROW_39_5_370
*6240 TAP_TAPCELL_ROW_39_5_371
*6241 TAP_TAPCELL_ROW_39_5_372
*6242 TAP_TAPCELL_ROW_3_212
*6243 TAP_TAPCELL_ROW_3_213
*6244 TAP_TAPCELL_ROW_3_214
*6245 TAP_TAPCELL_ROW_3_215
*6246 TAP_TAPCELL_ROW_3_216
*6247 TAP_TAPCELL_ROW_3_217
*6248 TAP_TAPCELL_ROW_3_218
*6249 TAP_TAPCELL_ROW_3_219
*6250 TAP_TAPCELL_ROW_3_220
*6251 TAP_TAPCELL_ROW_3_221
*6252 TAP_TAPCELL_ROW_3_222
*6253 TAP_TAPCELL_ROW_3_223
*6254 TAP_TAPCELL_ROW_40_5_373
*6255 TAP_TAPCELL_ROW_40_5_374
*6256 TAP_TAPCELL_ROW_40_5_375
*6257 TAP_TAPCELL_ROW_41_5_376
*6258 TAP_TAPCELL_ROW_41_5_377
*6259 TAP_TAPCELL_ROW_41_5_378
*6260 TAP_TAPCELL_ROW_42_5_379
*6261 TAP_TAPCELL_ROW_42_5_380
*6262 TAP_TAPCELL_ROW_42_5_381
*6263 TAP_TAPCELL_ROW_43_5_382
*6264 TAP_TAPCELL_ROW_43_5_383
*6265 TAP_TAPCELL_ROW_43_5_384
*6266 TAP_TAPCELL_ROW_44_5_385
*6267 TAP_TAPCELL_ROW_44_5_386
*6268 TAP_TAPCELL_ROW_44_5_387
*6269 TAP_TAPCELL_ROW_45_5_388
*6270 TAP_TAPCELL_ROW_45_5_389
*6271 TAP_TAPCELL_ROW_45_5_390
*6272 TAP_TAPCELL_ROW_46_5_391
*6273 TAP_TAPCELL_ROW_46_5_392
*6274 TAP_TAPCELL_ROW_46_5_393
*6275 TAP_TAPCELL_ROW_47_5_394
*6276 TAP_TAPCELL_ROW_47_5_395
*6277 TAP_TAPCELL_ROW_47_5_396
*6278 TAP_TAPCELL_ROW_48_5_397
*6279 TAP_TAPCELL_ROW_48_5_398
*6280 TAP_TAPCELL_ROW_48_5_399
*6281 TAP_TAPCELL_ROW_49_5_400
*6282 TAP_TAPCELL_ROW_49_5_401
*6283 TAP_TAPCELL_ROW_49_5_402
*6284 TAP_TAPCELL_ROW_4_224
*6285 TAP_TAPCELL_ROW_4_225
*6286 TAP_TAPCELL_ROW_4_226
*6287 TAP_TAPCELL_ROW_4_227
*6288 TAP_TAPCELL_ROW_4_228
*6289 TAP_TAPCELL_ROW_4_229
*6290 TAP_TAPCELL_ROW_4_230
*6291 TAP_TAPCELL_ROW_4_231
*6292 TAP_TAPCELL_ROW_4_232
*6293 TAP_TAPCELL_ROW_4_233
*6294 TAP_TAPCELL_ROW_4_234
*6295 TAP_TAPCELL_ROW_4_235
*6296 TAP_TAPCELL_ROW_4_236
*6297 TAP_TAPCELL_ROW_4_237
*6298 TAP_TAPCELL_ROW_4_238
*6299 TAP_TAPCELL_ROW_4_239
*6300 TAP_TAPCELL_ROW_4_240
*6301 TAP_TAPCELL_ROW_4_241
*6302 TAP_TAPCELL_ROW_4_242
*6303 TAP_TAPCELL_ROW_4_243
*6304 TAP_TAPCELL_ROW_4_244
*6305 TAP_TAPCELL_ROW_4_245
*6306 TAP_TAPCELL_ROW_4_246
*6307 TAP_TAPCELL_ROW_4_247
*6308 TAP_TAPCELL_ROW_4_248
*6309 TAP_TAPCELL_ROW_50_5_403
*6310 TAP_TAPCELL_ROW_50_5_404
*6311 TAP_TAPCELL_ROW_50_5_405
*6312 TAP_TAPCELL_ROW_51_5_406
*6313 TAP_TAPCELL_ROW_51_5_407
*6314 TAP_TAPCELL_ROW_51_5_408
*6315 TAP_TAPCELL_ROW_52_5_409
*6316 TAP_TAPCELL_ROW_52_5_410
*6317 TAP_TAPCELL_ROW_52_5_411
*6318 TAP_TAPCELL_ROW_53_5_412
*6319 TAP_TAPCELL_ROW_53_5_413
*6320 TAP_TAPCELL_ROW_53_5_414
*6321 TAP_TAPCELL_ROW_54_5_415
*6322 TAP_TAPCELL_ROW_54_5_416
*6323 TAP_TAPCELL_ROW_54_5_417
*6324 TAP_TAPCELL_ROW_55_5_418
*6325 TAP_TAPCELL_ROW_55_5_419
*6326 TAP_TAPCELL_ROW_55_5_420
*6327 TAP_TAPCELL_ROW_56_5_421
*6328 TAP_TAPCELL_ROW_56_5_422
*6329 TAP_TAPCELL_ROW_56_5_423
*6330 TAP_TAPCELL_ROW_57_5_424
*6331 TAP_TAPCELL_ROW_57_5_425
*6332 TAP_TAPCELL_ROW_57_5_426
*6333 TAP_TAPCELL_ROW_58_5_427
*6334 TAP_TAPCELL_ROW_58_5_428
*6335 TAP_TAPCELL_ROW_58_5_429
*6336 TAP_TAPCELL_ROW_59_5_430
*6337 TAP_TAPCELL_ROW_59_5_431
*6338 TAP_TAPCELL_ROW_59_5_432
*6339 TAP_TAPCELL_ROW_5_5_578
*6340 TAP_TAPCELL_ROW_5_5_579
*6341 TAP_TAPCELL_ROW_5_5_580
*6342 TAP_TAPCELL_ROW_60_5_433
*6343 TAP_TAPCELL_ROW_60_5_434
*6344 TAP_TAPCELL_ROW_60_5_435
*6345 TAP_TAPCELL_ROW_61_5_436
*6346 TAP_TAPCELL_ROW_61_5_437
*6347 TAP_TAPCELL_ROW_61_5_438
*6348 TAP_TAPCELL_ROW_62_5_439
*6349 TAP_TAPCELL_ROW_62_5_440
*6350 TAP_TAPCELL_ROW_62_5_441
*6351 TAP_TAPCELL_ROW_63_5_442
*6352 TAP_TAPCELL_ROW_63_5_443
*6353 TAP_TAPCELL_ROW_63_5_444
*6354 TAP_TAPCELL_ROW_64_5_445
*6355 TAP_TAPCELL_ROW_64_5_446
*6356 TAP_TAPCELL_ROW_64_5_447
*6357 TAP_TAPCELL_ROW_65_5_448
*6358 TAP_TAPCELL_ROW_65_5_449
*6359 TAP_TAPCELL_ROW_65_5_450
*6360 TAP_TAPCELL_ROW_66_5_451
*6361 TAP_TAPCELL_ROW_66_5_452
*6362 TAP_TAPCELL_ROW_66_5_453
*6363 TAP_TAPCELL_ROW_67_5_454
*6364 TAP_TAPCELL_ROW_67_5_455
*6365 TAP_TAPCELL_ROW_67_5_456
*6366 TAP_TAPCELL_ROW_68_5_457
*6367 TAP_TAPCELL_ROW_68_5_458
*6368 TAP_TAPCELL_ROW_68_5_459
*6369 TAP_TAPCELL_ROW_69_5_460
*6370 TAP_TAPCELL_ROW_69_5_461
*6371 TAP_TAPCELL_ROW_69_5_462
*6372 TAP_TAPCELL_ROW_6_5_249
*6373 TAP_TAPCELL_ROW_6_5_250
*6374 TAP_TAPCELL_ROW_6_5_251
*6375 TAP_TAPCELL_ROW_70_5_463
*6376 TAP_TAPCELL_ROW_70_5_464
*6377 TAP_TAPCELL_ROW_70_5_465
*6378 TAP_TAPCELL_ROW_71_5_466
*6379 TAP_TAPCELL_ROW_71_5_467
*6380 TAP_TAPCELL_ROW_71_5_468
*6381 TAP_TAPCELL_ROW_72_5_469
*6382 TAP_TAPCELL_ROW_72_5_470
*6383 TAP_TAPCELL_ROW_72_5_471
*6384 TAP_TAPCELL_ROW_73_5_472
*6385 TAP_TAPCELL_ROW_73_5_473
*6386 TAP_TAPCELL_ROW_73_5_474
*6387 TAP_TAPCELL_ROW_74_5_475
*6388 TAP_TAPCELL_ROW_74_5_476
*6389 TAP_TAPCELL_ROW_74_5_477
*6390 TAP_TAPCELL_ROW_75_478
*6391 TAP_TAPCELL_ROW_75_479
*6392 TAP_TAPCELL_ROW_75_480
*6393 TAP_TAPCELL_ROW_75_481
*6394 TAP_TAPCELL_ROW_75_482
*6395 TAP_TAPCELL_ROW_75_483
*6396 TAP_TAPCELL_ROW_75_484
*6397 TAP_TAPCELL_ROW_75_485
*6398 TAP_TAPCELL_ROW_75_486
*6399 TAP_TAPCELL_ROW_75_487
*6400 TAP_TAPCELL_ROW_75_488
*6401 TAP_TAPCELL_ROW_75_489
*6402 TAP_TAPCELL_ROW_75_490
*6403 TAP_TAPCELL_ROW_75_491
*6404 TAP_TAPCELL_ROW_75_492
*6405 TAP_TAPCELL_ROW_75_493
*6406 TAP_TAPCELL_ROW_75_494
*6407 TAP_TAPCELL_ROW_75_495
*6408 TAP_TAPCELL_ROW_75_496
*6409 TAP_TAPCELL_ROW_75_497
*6410 TAP_TAPCELL_ROW_75_498
*6411 TAP_TAPCELL_ROW_75_499
*6412 TAP_TAPCELL_ROW_75_500
*6413 TAP_TAPCELL_ROW_75_501
*6414 TAP_TAPCELL_ROW_75_502
*6415 TAP_TAPCELL_ROW_76_503
*6416 TAP_TAPCELL_ROW_76_504
*6417 TAP_TAPCELL_ROW_76_505
*6418 TAP_TAPCELL_ROW_76_506
*6419 TAP_TAPCELL_ROW_76_507
*6420 TAP_TAPCELL_ROW_76_508
*6421 TAP_TAPCELL_ROW_76_509
*6422 TAP_TAPCELL_ROW_76_510
*6423 TAP_TAPCELL_ROW_76_511
*6424 TAP_TAPCELL_ROW_76_512
*6425 TAP_TAPCELL_ROW_76_513
*6426 TAP_TAPCELL_ROW_76_514
*6427 TAP_TAPCELL_ROW_76_515
*6428 TAP_TAPCELL_ROW_77_516
*6429 TAP_TAPCELL_ROW_77_517
*6430 TAP_TAPCELL_ROW_77_518
*6431 TAP_TAPCELL_ROW_77_519
*6432 TAP_TAPCELL_ROW_77_520
*6433 TAP_TAPCELL_ROW_77_521
*6434 TAP_TAPCELL_ROW_77_522
*6435 TAP_TAPCELL_ROW_77_523
*6436 TAP_TAPCELL_ROW_77_524
*6437 TAP_TAPCELL_ROW_77_525
*6438 TAP_TAPCELL_ROW_77_526
*6439 TAP_TAPCELL_ROW_77_527
*6440 TAP_TAPCELL_ROW_78_528
*6441 TAP_TAPCELL_ROW_78_529
*6442 TAP_TAPCELL_ROW_78_530
*6443 TAP_TAPCELL_ROW_78_531
*6444 TAP_TAPCELL_ROW_78_532
*6445 TAP_TAPCELL_ROW_78_533
*6446 TAP_TAPCELL_ROW_78_534
*6447 TAP_TAPCELL_ROW_78_535
*6448 TAP_TAPCELL_ROW_78_536
*6449 TAP_TAPCELL_ROW_78_537
*6450 TAP_TAPCELL_ROW_78_538
*6451 TAP_TAPCELL_ROW_78_539
*6452 TAP_TAPCELL_ROW_78_540
*6453 TAP_TAPCELL_ROW_79_541
*6454 TAP_TAPCELL_ROW_79_542
*6455 TAP_TAPCELL_ROW_79_543
*6456 TAP_TAPCELL_ROW_79_544
*6457 TAP_TAPCELL_ROW_79_545
*6458 TAP_TAPCELL_ROW_79_546
*6459 TAP_TAPCELL_ROW_79_547
*6460 TAP_TAPCELL_ROW_79_548
*6461 TAP_TAPCELL_ROW_79_549
*6462 TAP_TAPCELL_ROW_79_550
*6463 TAP_TAPCELL_ROW_79_551
*6464 TAP_TAPCELL_ROW_79_552
*6465 TAP_TAPCELL_ROW_7_5_252
*6466 TAP_TAPCELL_ROW_7_5_253
*6467 TAP_TAPCELL_ROW_7_5_254
*6468 TAP_TAPCELL_ROW_80_553
*6469 TAP_TAPCELL_ROW_80_554
*6470 TAP_TAPCELL_ROW_80_555
*6471 TAP_TAPCELL_ROW_80_556
*6472 TAP_TAPCELL_ROW_80_557
*6473 TAP_TAPCELL_ROW_80_558
*6474 TAP_TAPCELL_ROW_80_559
*6475 TAP_TAPCELL_ROW_80_560
*6476 TAP_TAPCELL_ROW_80_561
*6477 TAP_TAPCELL_ROW_80_562
*6478 TAP_TAPCELL_ROW_80_563
*6479 TAP_TAPCELL_ROW_80_564
*6480 TAP_TAPCELL_ROW_80_565
*6481 TAP_TAPCELL_ROW_80_566
*6482 TAP_TAPCELL_ROW_80_567
*6483 TAP_TAPCELL_ROW_80_568
*6484 TAP_TAPCELL_ROW_80_569
*6485 TAP_TAPCELL_ROW_80_570
*6486 TAP_TAPCELL_ROW_80_571
*6487 TAP_TAPCELL_ROW_80_572
*6488 TAP_TAPCELL_ROW_80_573
*6489 TAP_TAPCELL_ROW_80_574
*6490 TAP_TAPCELL_ROW_80_575
*6491 TAP_TAPCELL_ROW_80_576
*6492 TAP_TAPCELL_ROW_80_577
*6493 TAP_TAPCELL_ROW_8_5_255
*6494 TAP_TAPCELL_ROW_8_5_256
*6495 TAP_TAPCELL_ROW_8_5_257
*6496 TAP_TAPCELL_ROW_9_5_258
*6497 TAP_TAPCELL_ROW_9_5_259
*6498 TAP_TAPCELL_ROW_9_5_260
*6499 _222_
*6500 _223_
*6501 _224_
*6502 _225_
*6503 _226_
*6504 _227_
*6505 _228_
*6506 _229_
*6507 _230_
*6508 _231_
*6509 _232_
*6510 _233_
*6511 _234_
*6512 _235_
*6513 _236_
*6514 _237_
*6515 _238_
*6516 _239_
*6517 _240_
*6518 _241_
*6519 _242_
*6520 _243_
*6521 _244_
*6522 _245_
*6523 _246_
*6524 _247_
*6525 _248_
*6526 _249_
*6527 _250_
*6528 _251_
*6529 _252_
*6530 _253_
*6531 _254_
*6532 _255_
*6533 _256_
*6534 _257_
*6535 _258_
*6536 _259_
*6537 _260_
*6538 _261_
*6539 _262_
*6540 _263_
*6541 _264_
*6542 _265_
*6543 _266_
*6544 _267_
*6545 _268_
*6546 _269_
*6547 _270_
*6548 _271_
*6549 _272_
*6550 _273_
*6551 _274_
*6552 _275_
*6553 _276_
*6554 _277_
*6555 _278_
*6556 _279_
*6557 _280_
*6558 _281_
*6559 _282_
*6560 _283_
*6561 _284_
*6562 _285_
*6563 _286_
*6564 _287_
*6565 _288_
*6566 _289_
*6567 _290_
*6568 _291_
*6569 _292_
*6570 _293_
*6571 _294_
*6572 _295_
*6573 _296_
*6574 _297_
*6575 _298_
*6576 _299_
*6577 _300_
*6578 _301_
*6579 _302_
*6580 _303_
*6581 _304_
*6582 _305_
*6583 _306_
*6584 _307_
*6585 _308_
*6586 _309_
*6587 _310_
*6588 _311_
*6589 _312_
*6590 _313_
*6591 _314_
*6592 _315_
*6593 _316_
*6594 _317_
*6595 _318_
*6596 _319_
*6597 _320_
*6598 _321_
*6599 _322_
*6600 _323_
*6601 _324_
*6602 _325_
*6603 _326_
*6604 _327_
*6605 _328_
*6606 _329_
*6607 _330_
*6608 _331_
*6609 _332_
*6610 _333_
*6611 _334_
*6612 _335_
*6613 _336_
*6614 _337_
*6615 _338_
*6616 _339_
*6617 _340_
*6618 _341_
*6619 _342_
*6620 _343_
*6621 _344_
*6622 _345_
*6623 _346_
*6624 _347_
*6625 _348_
*6626 _349_
*6627 _350_
*6628 _351_
*6629 _352_
*6630 _353_
*6631 _354_
*6632 _355_
*6633 _356_
*6634 _357_
*6635 _358_
*6636 _359_
*6637 _360_
*6638 _361_
*6639 _362_
*6640 _363_
*6641 _364_
*6642 _365_
*6643 _366_
*6644 _367_
*6645 _368_
*6646 _369_
*6647 _370_
*6648 _371_
*6649 _372_
*6650 _373_
*6651 _374_
*6652 _375_
*6653 _376_
*6654 _377_
*6655 _378_
*6656 _379_
*6657 _380_
*6658 _381_
*6659 _382_
*6660 _383_
*6661 _384_
*6662 _385_
*6663 _386_
*6664 _387_
*6665 _388_
*6666 _389_
*6667 _390_
*6668 _391_
*6669 _392_
*6670 _393_
*6671 _394_
*6672 _395_
*6673 _396_
*6674 _397_
*6675 _398_
*6676 _399_
*6677 _400_
*6678 _401_
*6679 _402_
*6680 _403_
*6681 _404_
*6682 _405_
*6683 _406_
*6684 _407_
*6685 _408_
*6686 _409_
*6687 _410_
*6688 _411_
*6689 _412_
*6690 _413_
*6691 _414_
*6692 _415_
*6693 _416_
*6694 _417_
*6695 _418_
*6696 _419_
*6697 _420_
*6698 _421_
*6699 _422_
*6700 _423_
*6701 _424_
*6702 _425_
*6703 _426_
*6704 _427_
*6705 _428_
*6706 _429_
*6707 _430_
*6708 _431_
*6709 _432_
*6710 _433_
*6711 _434_
*6712 _435_
*6713 _436_
*6714 _437_
*6715 _438_
*6716 _439_
*6717 _440_
*6718 _441_
*6719 _442_
*6720 _443_
*6721 _444_
*6722 _445_
*6723 _446_
*6724 _447_
*6725 _448_
*6726 _449_
*6727 _450_
*6728 _451_
*6729 _452_
*6730 _453_
*6731 _454_
*6732 _455_
*6733 _456_
*6734 _457_
*6735 _458_
*6736 _459_
*6737 _460_
*6738 _461_
*6739 _462_
*6740 _463_
*6741 _464_
*6742 _465_
*6743 _466_
*6744 _467_
*6745 _468_
*6746 _469_
*6747 _470_
*6748 _471_
*6749 _472_
*6750 _473_
*6751 _474_
*6752 _475_
*6753 _476_
*6754 _477_
*6755 _478_
*6756 _479_
*6757 _480_
*6758 _481_
*6759 _482_
*6760 _483_
*6761 _484_
*6762 _485_
*6763 _486_
*6764 _487_
*6765 _488_
*6766 _489_
*6767 _490_
*6768 _491_
*6769 _492_
*6770 _493_
*6771 _494_
*6772 _495_
*6773 _496_
*6774 _497_
*6775 _498_
*6776 _499_
*6777 _500_
*6778 _501_
*6779 _502_
*6780 _503_
*6781 _504_
*6782 _505_
*6783 _506_
*6784 _507_
*6785 _508_
*6786 _509_
*6787 _510_
*6788 _511_
*6789 _512_
*6790 _513_
*6791 _514_
*6792 _515_
*6793 _516_
*6794 _517_
*6795 _518_
*6796 _519_
*6797 _520_
*6798 _521_
*6799 _522_
*6800 _523_
*6801 _524_
*6802 _525_
*6803 _526_
*6804 _527_
*6805 _528_
*6806 _529_
*6807 _530_
*6808 _531_
*6809 _532_
*6810 _533_
*6811 _534_
*6812 _535_
*6813 _536_
*6814 _537_
*6815 _538_
*6816 _539_
*6817 _540_
*6818 _541_
*6819 _542_
*6820 _543_
*6821 _544_
*6822 _545_
*6823 _546_
*6824 _547_
*6825 _548_
*6826 _549_
*6827 _550_
*6828 _551_
*6829 _552_
*6830 _553_
*6831 _554_
*6832 _555_
*6833 _556_
*6834 _557_
*6835 _558_
*6836 _559_
*6837 _560_
*6838 _561_
*6839 _562_
*6840 _563_
*6841 _564_
*6842 _565_
*6843 _566_
*6844 _567_
*6845 _568_
*6846 _569_
*6847 _570_
*6848 _571_
*6849 _572_
*6850 _573_
*6851 _574_
*6852 _575_
*6853 _576_
*6854 _577_
*6855 _578_
*6856 _579_
*6857 _580_
*6858 _581_
*6859 _582_
*6860 _583_
*6861 _584_
*6862 _585_
*6863 _586_
*6864 _587_
*6865 _588_
*6866 _589_
*6867 _590_
*6868 _591_
*6869 _592_
*6870 _593_
*6871 _594_
*6872 _595_
*6873 _596_
*6874 _597_
*6875 _598_
*6876 _599_
*6877 _600_
*6878 _601_
*6879 _602_
*6880 _603_
*6881 _604_
*6882 _605_
*6883 _606_
*6884 _607_
*6885 _608_
*6886 _609_
*6887 _610_
*6888 _611_
*6889 _612_
*6890 _613_
*6891 _613__71
*6892 _614_
*6893 _631_
*6894 clkbuf_0_clk
*6895 clkbuf_4_0_0_clk
*6896 clkbuf_4_10_0_clk
*6897 clkbuf_4_11_0_clk
*6898 clkbuf_4_12_0_clk
*6899 clkbuf_4_13_0_clk
*6900 clkbuf_4_14_0_clk
*6901 clkbuf_4_15_0_clk
*6902 clkbuf_4_1_0_clk
*6903 clkbuf_4_2_0_clk
*6904 clkbuf_4_3_0_clk
*6905 clkbuf_4_4_0_clk
*6906 clkbuf_4_5_0_clk
*6907 clkbuf_4_6_0_clk
*6908 clkbuf_4_7_0_clk
*6909 clkbuf_4_8_0_clk
*6910 clkbuf_4_9_0_clk
*6911 fanout10
*6912 fanout11
*6913 fanout12
*6914 fanout13
*6915 fanout14
*6916 fanout15
*6917 fanout16
*6918 fanout17
*6919 fanout18
*6920 fanout19
*6921 fanout21
*6922 fanout22
*6923 fanout23
*6924 fanout24
*6925 fanout25
*6926 fanout26
*6927 fanout27
*6928 fanout28
*6929 fanout29
*6930 fanout30
*6931 fanout31
*6932 fanout33
*6933 fanout35
*6934 fanout37
*6935 fanout39
*6936 fanout41
*6937 fanout42
*6938 fanout44
*6939 fanout45
*6940 fanout47
*6941 fanout49
*6942 fanout50
*6943 fanout51
*6944 fanout53
*6945 fanout55
*6946 fanout56
*6947 fanout57
*6948 hold100
*6949 hold101
*6950 hold102
*6951 hold103
*6952 hold104
*6953 hold105
*6954 hold106
*6955 hold107
*6956 hold108
*6957 hold109
*6958 hold110
*6959 hold111
*6960 hold112
*6961 hold113
*6962 hold114
*6963 hold115
*6964 hold116
*6965 hold117
*6966 hold118
*6967 hold119
*6968 hold120
*6969 hold121
*6970 hold122
*6971 hold123
*6972 hold124
*6973 hold125
*6974 hold126
*6975 hold127
*6976 hold128
*6977 hold129
*6978 hold130
*6979 hold131
*6980 hold132
*6981 hold133
*6982 hold134
*6983 hold135
*6984 hold136
*6985 hold137
*6986 hold138
*6987 hold139
*6988 hold140
*6989 hold141
*6990 hold142
*6991 hold143
*6992 hold144
*6993 hold145
*6994 hold146
*6995 hold147
*6996 hold148
*6997 hold149
*6998 hold150
*6999 hold151
*7000 hold73
*7001 hold74
*7002 hold75
*7003 hold76
*7004 hold77
*7005 hold78
*7006 hold79
*7007 hold80
*7008 hold81
*7009 hold82
*7010 hold83
*7011 hold84
*7012 hold85
*7013 hold86
*7014 hold87
*7015 hold88
*7016 hold89
*7017 hold90
*7018 hold91
*7019 hold92
*7020 hold93
*7021 hold94
*7022 hold95
*7023 hold96
*7024 hold97
*7025 hold98
*7026 hold99
*7027 input1
*7028 input2
*7029 input3
*7030 input4
*7031 input5
*7032 input6
*7033 input7
*7034 input8
*7035 input9
*7036 load_slew36
*7037 load_slew38
*7038 load_slew40
*7039 load_slew43
*7040 load_slew46
*7041 load_slew48
*7042 load_slew52
*7043 load_slew54
*7044 tt_um_nikodemetrashvili20_ro_puf
*7045 tt_um_nikodemetrashvili20_ro_puf_58
*7046 tt_um_nikodemetrashvili20_ro_puf_59
*7047 tt_um_nikodemetrashvili20_ro_puf_60
*7048 tt_um_nikodemetrashvili20_ro_puf_61
*7049 tt_um_nikodemetrashvili20_ro_puf_62
*7050 tt_um_nikodemetrashvili20_ro_puf_63
*7051 tt_um_nikodemetrashvili20_ro_puf_64
*7052 tt_um_nikodemetrashvili20_ro_puf_65
*7053 tt_um_nikodemetrashvili20_ro_puf_66
*7054 tt_um_nikodemetrashvili20_ro_puf_67
*7055 tt_um_nikodemetrashvili20_ro_puf_68
*7056 tt_um_nikodemetrashvili20_ro_puf_69
*7057 tt_um_nikodemetrashvili20_ro_puf_70
*7058 tt_um_nikodemetrashvili20_ro_puf_72
*7059 u_puf\.u_core\.g_ro_bank\[0\]\.u_ro\.g_inv\[10\]\.u_inv
*7060 u_puf\.u_core\.g_ro_bank\[0\]\.u_ro\.g_inv\[11\]\.u_inv
*7061 u_puf\.u_core\.g_ro_bank\[0\]\.u_ro\.g_inv\[12\]\.u_inv
*7062 u_puf\.u_core\.g_ro_bank\[0\]\.u_ro\.g_inv\[13\]\.u_inv
*7063 u_puf\.u_core\.g_ro_bank\[0\]\.u_ro\.g_inv\[14\]\.u_inv
*7064 u_puf\.u_core\.g_ro_bank\[0\]\.u_ro\.g_inv\[15\]\.u_inv
*7065 u_puf\.u_core\.g_ro_bank\[0\]\.u_ro\.g_inv\[16\]\.u_inv
*7066 u_puf\.u_core\.g_ro_bank\[0\]\.u_ro\.g_inv\[17\]\.u_inv
*7067 u_puf\.u_core\.g_ro_bank\[0\]\.u_ro\.g_inv\[18\]\.u_inv
*7068 u_puf\.u_core\.g_ro_bank\[0\]\.u_ro\.g_inv\[19\]\.u_inv
*7069 u_puf\.u_core\.g_ro_bank\[0\]\.u_ro\.g_inv\[1\]\.u_inv
*7070 u_puf\.u_core\.g_ro_bank\[0\]\.u_ro\.g_inv\[20\]\.u_inv
*7071 u_puf\.u_core\.g_ro_bank\[0\]\.u_ro\.g_inv\[21\]\.u_inv
*7072 u_puf\.u_core\.g_ro_bank\[0\]\.u_ro\.g_inv\[22\]\.u_inv
*7073 u_puf\.u_core\.g_ro_bank\[0\]\.u_ro\.g_inv\[23\]\.u_inv
*7074 u_puf\.u_core\.g_ro_bank\[0\]\.u_ro\.g_inv\[24\]\.u_inv
*7075 u_puf\.u_core\.g_ro_bank\[0\]\.u_ro\.g_inv\[25\]\.u_inv
*7076 u_puf\.u_core\.g_ro_bank\[0\]\.u_ro\.g_inv\[26\]\.u_inv
*7077 u_puf\.u_core\.g_ro_bank\[0\]\.u_ro\.g_inv\[27\]\.u_inv
*7078 u_puf\.u_core\.g_ro_bank\[0\]\.u_ro\.g_inv\[28\]\.u_inv
*7079 u_puf\.u_core\.g_ro_bank\[0\]\.u_ro\.g_inv\[29\]\.u_inv
*7080 u_puf\.u_core\.g_ro_bank\[0\]\.u_ro\.g_inv\[2\]\.u_inv
*7081 u_puf\.u_core\.g_ro_bank\[0\]\.u_ro\.g_inv\[30\]\.u_inv
*7082 u_puf\.u_core\.g_ro_bank\[0\]\.u_ro\.g_inv\[3\]\.u_inv
*7083 u_puf\.u_core\.g_ro_bank\[0\]\.u_ro\.g_inv\[4\]\.u_inv
*7084 u_puf\.u_core\.g_ro_bank\[0\]\.u_ro\.g_inv\[5\]\.u_inv
*7085 u_puf\.u_core\.g_ro_bank\[0\]\.u_ro\.g_inv\[6\]\.u_inv
*7086 u_puf\.u_core\.g_ro_bank\[0\]\.u_ro\.g_inv\[7\]\.u_inv
*7087 u_puf\.u_core\.g_ro_bank\[0\]\.u_ro\.g_inv\[8\]\.u_inv
*7088 u_puf\.u_core\.g_ro_bank\[0\]\.u_ro\.g_inv\[9\]\.u_inv
*7089 u_puf\.u_core\.g_ro_bank\[0\]\.u_ro\.u_buf
*7090 u_puf\.u_core\.g_ro_bank\[0\]\.u_ro\.u_nand
*7091 u_puf\.u_core\.g_ro_bank\[10\]\.u_ro\.g_inv\[10\]\.u_inv
*7092 u_puf\.u_core\.g_ro_bank\[10\]\.u_ro\.g_inv\[11\]\.u_inv
*7093 u_puf\.u_core\.g_ro_bank\[10\]\.u_ro\.g_inv\[12\]\.u_inv
*7094 u_puf\.u_core\.g_ro_bank\[10\]\.u_ro\.g_inv\[13\]\.u_inv
*7095 u_puf\.u_core\.g_ro_bank\[10\]\.u_ro\.g_inv\[14\]\.u_inv
*7096 u_puf\.u_core\.g_ro_bank\[10\]\.u_ro\.g_inv\[15\]\.u_inv
*7097 u_puf\.u_core\.g_ro_bank\[10\]\.u_ro\.g_inv\[16\]\.u_inv
*7098 u_puf\.u_core\.g_ro_bank\[10\]\.u_ro\.g_inv\[17\]\.u_inv
*7099 u_puf\.u_core\.g_ro_bank\[10\]\.u_ro\.g_inv\[18\]\.u_inv
*7100 u_puf\.u_core\.g_ro_bank\[10\]\.u_ro\.g_inv\[19\]\.u_inv
*7101 u_puf\.u_core\.g_ro_bank\[10\]\.u_ro\.g_inv\[1\]\.u_inv
*7102 u_puf\.u_core\.g_ro_bank\[10\]\.u_ro\.g_inv\[20\]\.u_inv
*7103 u_puf\.u_core\.g_ro_bank\[10\]\.u_ro\.g_inv\[21\]\.u_inv
*7104 u_puf\.u_core\.g_ro_bank\[10\]\.u_ro\.g_inv\[22\]\.u_inv
*7105 u_puf\.u_core\.g_ro_bank\[10\]\.u_ro\.g_inv\[23\]\.u_inv
*7106 u_puf\.u_core\.g_ro_bank\[10\]\.u_ro\.g_inv\[24\]\.u_inv
*7107 u_puf\.u_core\.g_ro_bank\[10\]\.u_ro\.g_inv\[25\]\.u_inv
*7108 u_puf\.u_core\.g_ro_bank\[10\]\.u_ro\.g_inv\[26\]\.u_inv
*7109 u_puf\.u_core\.g_ro_bank\[10\]\.u_ro\.g_inv\[27\]\.u_inv
*7110 u_puf\.u_core\.g_ro_bank\[10\]\.u_ro\.g_inv\[28\]\.u_inv
*7111 u_puf\.u_core\.g_ro_bank\[10\]\.u_ro\.g_inv\[29\]\.u_inv
*7112 u_puf\.u_core\.g_ro_bank\[10\]\.u_ro\.g_inv\[2\]\.u_inv
*7113 u_puf\.u_core\.g_ro_bank\[10\]\.u_ro\.g_inv\[30\]\.u_inv
*7114 u_puf\.u_core\.g_ro_bank\[10\]\.u_ro\.g_inv\[3\]\.u_inv
*7115 u_puf\.u_core\.g_ro_bank\[10\]\.u_ro\.g_inv\[4\]\.u_inv
*7116 u_puf\.u_core\.g_ro_bank\[10\]\.u_ro\.g_inv\[5\]\.u_inv
*7117 u_puf\.u_core\.g_ro_bank\[10\]\.u_ro\.g_inv\[6\]\.u_inv
*7118 u_puf\.u_core\.g_ro_bank\[10\]\.u_ro\.g_inv\[7\]\.u_inv
*7119 u_puf\.u_core\.g_ro_bank\[10\]\.u_ro\.g_inv\[8\]\.u_inv
*7120 u_puf\.u_core\.g_ro_bank\[10\]\.u_ro\.g_inv\[9\]\.u_inv
*7121 u_puf\.u_core\.g_ro_bank\[10\]\.u_ro\.u_buf
*7122 u_puf\.u_core\.g_ro_bank\[10\]\.u_ro\.u_nand
*7123 u_puf\.u_core\.g_ro_bank\[11\]\.u_ro\.g_inv\[10\]\.u_inv
*7124 u_puf\.u_core\.g_ro_bank\[11\]\.u_ro\.g_inv\[11\]\.u_inv
*7125 u_puf\.u_core\.g_ro_bank\[11\]\.u_ro\.g_inv\[12\]\.u_inv
*7126 u_puf\.u_core\.g_ro_bank\[11\]\.u_ro\.g_inv\[13\]\.u_inv
*7127 u_puf\.u_core\.g_ro_bank\[11\]\.u_ro\.g_inv\[14\]\.u_inv
*7128 u_puf\.u_core\.g_ro_bank\[11\]\.u_ro\.g_inv\[15\]\.u_inv
*7129 u_puf\.u_core\.g_ro_bank\[11\]\.u_ro\.g_inv\[16\]\.u_inv
*7130 u_puf\.u_core\.g_ro_bank\[11\]\.u_ro\.g_inv\[17\]\.u_inv
*7131 u_puf\.u_core\.g_ro_bank\[11\]\.u_ro\.g_inv\[18\]\.u_inv
*7132 u_puf\.u_core\.g_ro_bank\[11\]\.u_ro\.g_inv\[19\]\.u_inv
*7133 u_puf\.u_core\.g_ro_bank\[11\]\.u_ro\.g_inv\[1\]\.u_inv
*7134 u_puf\.u_core\.g_ro_bank\[11\]\.u_ro\.g_inv\[20\]\.u_inv
*7135 u_puf\.u_core\.g_ro_bank\[11\]\.u_ro\.g_inv\[21\]\.u_inv
*7136 u_puf\.u_core\.g_ro_bank\[11\]\.u_ro\.g_inv\[22\]\.u_inv
*7137 u_puf\.u_core\.g_ro_bank\[11\]\.u_ro\.g_inv\[23\]\.u_inv
*7138 u_puf\.u_core\.g_ro_bank\[11\]\.u_ro\.g_inv\[24\]\.u_inv
*7139 u_puf\.u_core\.g_ro_bank\[11\]\.u_ro\.g_inv\[25\]\.u_inv
*7140 u_puf\.u_core\.g_ro_bank\[11\]\.u_ro\.g_inv\[26\]\.u_inv
*7141 u_puf\.u_core\.g_ro_bank\[11\]\.u_ro\.g_inv\[27\]\.u_inv
*7142 u_puf\.u_core\.g_ro_bank\[11\]\.u_ro\.g_inv\[28\]\.u_inv
*7143 u_puf\.u_core\.g_ro_bank\[11\]\.u_ro\.g_inv\[29\]\.u_inv
*7144 u_puf\.u_core\.g_ro_bank\[11\]\.u_ro\.g_inv\[2\]\.u_inv
*7145 u_puf\.u_core\.g_ro_bank\[11\]\.u_ro\.g_inv\[30\]\.u_inv
*7146 u_puf\.u_core\.g_ro_bank\[11\]\.u_ro\.g_inv\[3\]\.u_inv
*7147 u_puf\.u_core\.g_ro_bank\[11\]\.u_ro\.g_inv\[4\]\.u_inv
*7148 u_puf\.u_core\.g_ro_bank\[11\]\.u_ro\.g_inv\[5\]\.u_inv
*7149 u_puf\.u_core\.g_ro_bank\[11\]\.u_ro\.g_inv\[6\]\.u_inv
*7150 u_puf\.u_core\.g_ro_bank\[11\]\.u_ro\.g_inv\[7\]\.u_inv
*7151 u_puf\.u_core\.g_ro_bank\[11\]\.u_ro\.g_inv\[8\]\.u_inv
*7152 u_puf\.u_core\.g_ro_bank\[11\]\.u_ro\.g_inv\[9\]\.u_inv
*7153 u_puf\.u_core\.g_ro_bank\[11\]\.u_ro\.u_buf
*7154 u_puf\.u_core\.g_ro_bank\[11\]\.u_ro\.u_nand
*7155 u_puf\.u_core\.g_ro_bank\[12\]\.u_ro\.g_inv\[10\]\.u_inv
*7156 u_puf\.u_core\.g_ro_bank\[12\]\.u_ro\.g_inv\[11\]\.u_inv
*7157 u_puf\.u_core\.g_ro_bank\[12\]\.u_ro\.g_inv\[12\]\.u_inv
*7158 u_puf\.u_core\.g_ro_bank\[12\]\.u_ro\.g_inv\[13\]\.u_inv
*7159 u_puf\.u_core\.g_ro_bank\[12\]\.u_ro\.g_inv\[14\]\.u_inv
*7160 u_puf\.u_core\.g_ro_bank\[12\]\.u_ro\.g_inv\[15\]\.u_inv
*7161 u_puf\.u_core\.g_ro_bank\[12\]\.u_ro\.g_inv\[16\]\.u_inv
*7162 u_puf\.u_core\.g_ro_bank\[12\]\.u_ro\.g_inv\[17\]\.u_inv
*7163 u_puf\.u_core\.g_ro_bank\[12\]\.u_ro\.g_inv\[18\]\.u_inv
*7164 u_puf\.u_core\.g_ro_bank\[12\]\.u_ro\.g_inv\[19\]\.u_inv
*7165 u_puf\.u_core\.g_ro_bank\[12\]\.u_ro\.g_inv\[1\]\.u_inv
*7166 u_puf\.u_core\.g_ro_bank\[12\]\.u_ro\.g_inv\[20\]\.u_inv
*7167 u_puf\.u_core\.g_ro_bank\[12\]\.u_ro\.g_inv\[21\]\.u_inv
*7168 u_puf\.u_core\.g_ro_bank\[12\]\.u_ro\.g_inv\[22\]\.u_inv
*7169 u_puf\.u_core\.g_ro_bank\[12\]\.u_ro\.g_inv\[23\]\.u_inv
*7170 u_puf\.u_core\.g_ro_bank\[12\]\.u_ro\.g_inv\[24\]\.u_inv
*7171 u_puf\.u_core\.g_ro_bank\[12\]\.u_ro\.g_inv\[25\]\.u_inv
*7172 u_puf\.u_core\.g_ro_bank\[12\]\.u_ro\.g_inv\[26\]\.u_inv
*7173 u_puf\.u_core\.g_ro_bank\[12\]\.u_ro\.g_inv\[27\]\.u_inv
*7174 u_puf\.u_core\.g_ro_bank\[12\]\.u_ro\.g_inv\[28\]\.u_inv
*7175 u_puf\.u_core\.g_ro_bank\[12\]\.u_ro\.g_inv\[29\]\.u_inv
*7176 u_puf\.u_core\.g_ro_bank\[12\]\.u_ro\.g_inv\[2\]\.u_inv
*7177 u_puf\.u_core\.g_ro_bank\[12\]\.u_ro\.g_inv\[30\]\.u_inv
*7178 u_puf\.u_core\.g_ro_bank\[12\]\.u_ro\.g_inv\[3\]\.u_inv
*7179 u_puf\.u_core\.g_ro_bank\[12\]\.u_ro\.g_inv\[4\]\.u_inv
*7180 u_puf\.u_core\.g_ro_bank\[12\]\.u_ro\.g_inv\[5\]\.u_inv
*7181 u_puf\.u_core\.g_ro_bank\[12\]\.u_ro\.g_inv\[6\]\.u_inv
*7182 u_puf\.u_core\.g_ro_bank\[12\]\.u_ro\.g_inv\[7\]\.u_inv
*7183 u_puf\.u_core\.g_ro_bank\[12\]\.u_ro\.g_inv\[8\]\.u_inv
*7184 u_puf\.u_core\.g_ro_bank\[12\]\.u_ro\.g_inv\[9\]\.u_inv
*7185 u_puf\.u_core\.g_ro_bank\[12\]\.u_ro\.u_buf
*7186 u_puf\.u_core\.g_ro_bank\[12\]\.u_ro\.u_nand
*7187 u_puf\.u_core\.g_ro_bank\[13\]\.u_ro\.g_inv\[10\]\.u_inv
*7188 u_puf\.u_core\.g_ro_bank\[13\]\.u_ro\.g_inv\[11\]\.u_inv
*7189 u_puf\.u_core\.g_ro_bank\[13\]\.u_ro\.g_inv\[12\]\.u_inv
*7190 u_puf\.u_core\.g_ro_bank\[13\]\.u_ro\.g_inv\[13\]\.u_inv
*7191 u_puf\.u_core\.g_ro_bank\[13\]\.u_ro\.g_inv\[14\]\.u_inv
*7192 u_puf\.u_core\.g_ro_bank\[13\]\.u_ro\.g_inv\[15\]\.u_inv
*7193 u_puf\.u_core\.g_ro_bank\[13\]\.u_ro\.g_inv\[16\]\.u_inv
*7194 u_puf\.u_core\.g_ro_bank\[13\]\.u_ro\.g_inv\[17\]\.u_inv
*7195 u_puf\.u_core\.g_ro_bank\[13\]\.u_ro\.g_inv\[18\]\.u_inv
*7196 u_puf\.u_core\.g_ro_bank\[13\]\.u_ro\.g_inv\[19\]\.u_inv
*7197 u_puf\.u_core\.g_ro_bank\[13\]\.u_ro\.g_inv\[1\]\.u_inv
*7198 u_puf\.u_core\.g_ro_bank\[13\]\.u_ro\.g_inv\[20\]\.u_inv
*7199 u_puf\.u_core\.g_ro_bank\[13\]\.u_ro\.g_inv\[21\]\.u_inv
*7200 u_puf\.u_core\.g_ro_bank\[13\]\.u_ro\.g_inv\[22\]\.u_inv
*7201 u_puf\.u_core\.g_ro_bank\[13\]\.u_ro\.g_inv\[23\]\.u_inv
*7202 u_puf\.u_core\.g_ro_bank\[13\]\.u_ro\.g_inv\[24\]\.u_inv
*7203 u_puf\.u_core\.g_ro_bank\[13\]\.u_ro\.g_inv\[25\]\.u_inv
*7204 u_puf\.u_core\.g_ro_bank\[13\]\.u_ro\.g_inv\[26\]\.u_inv
*7205 u_puf\.u_core\.g_ro_bank\[13\]\.u_ro\.g_inv\[27\]\.u_inv
*7206 u_puf\.u_core\.g_ro_bank\[13\]\.u_ro\.g_inv\[28\]\.u_inv
*7207 u_puf\.u_core\.g_ro_bank\[13\]\.u_ro\.g_inv\[29\]\.u_inv
*7208 u_puf\.u_core\.g_ro_bank\[13\]\.u_ro\.g_inv\[2\]\.u_inv
*7209 u_puf\.u_core\.g_ro_bank\[13\]\.u_ro\.g_inv\[30\]\.u_inv
*7210 u_puf\.u_core\.g_ro_bank\[13\]\.u_ro\.g_inv\[3\]\.u_inv
*7211 u_puf\.u_core\.g_ro_bank\[13\]\.u_ro\.g_inv\[4\]\.u_inv
*7212 u_puf\.u_core\.g_ro_bank\[13\]\.u_ro\.g_inv\[5\]\.u_inv
*7213 u_puf\.u_core\.g_ro_bank\[13\]\.u_ro\.g_inv\[6\]\.u_inv
*7214 u_puf\.u_core\.g_ro_bank\[13\]\.u_ro\.g_inv\[7\]\.u_inv
*7215 u_puf\.u_core\.g_ro_bank\[13\]\.u_ro\.g_inv\[8\]\.u_inv
*7216 u_puf\.u_core\.g_ro_bank\[13\]\.u_ro\.g_inv\[9\]\.u_inv
*7217 u_puf\.u_core\.g_ro_bank\[13\]\.u_ro\.u_buf
*7218 u_puf\.u_core\.g_ro_bank\[13\]\.u_ro\.u_nand
*7219 u_puf\.u_core\.g_ro_bank\[14\]\.u_ro\.g_inv\[10\]\.u_inv
*7220 u_puf\.u_core\.g_ro_bank\[14\]\.u_ro\.g_inv\[11\]\.u_inv
*7221 u_puf\.u_core\.g_ro_bank\[14\]\.u_ro\.g_inv\[12\]\.u_inv
*7222 u_puf\.u_core\.g_ro_bank\[14\]\.u_ro\.g_inv\[13\]\.u_inv
*7223 u_puf\.u_core\.g_ro_bank\[14\]\.u_ro\.g_inv\[14\]\.u_inv
*7224 u_puf\.u_core\.g_ro_bank\[14\]\.u_ro\.g_inv\[15\]\.u_inv
*7225 u_puf\.u_core\.g_ro_bank\[14\]\.u_ro\.g_inv\[16\]\.u_inv
*7226 u_puf\.u_core\.g_ro_bank\[14\]\.u_ro\.g_inv\[17\]\.u_inv
*7227 u_puf\.u_core\.g_ro_bank\[14\]\.u_ro\.g_inv\[18\]\.u_inv
*7228 u_puf\.u_core\.g_ro_bank\[14\]\.u_ro\.g_inv\[19\]\.u_inv
*7229 u_puf\.u_core\.g_ro_bank\[14\]\.u_ro\.g_inv\[1\]\.u_inv
*7230 u_puf\.u_core\.g_ro_bank\[14\]\.u_ro\.g_inv\[20\]\.u_inv
*7231 u_puf\.u_core\.g_ro_bank\[14\]\.u_ro\.g_inv\[21\]\.u_inv
*7232 u_puf\.u_core\.g_ro_bank\[14\]\.u_ro\.g_inv\[22\]\.u_inv
*7233 u_puf\.u_core\.g_ro_bank\[14\]\.u_ro\.g_inv\[23\]\.u_inv
*7234 u_puf\.u_core\.g_ro_bank\[14\]\.u_ro\.g_inv\[24\]\.u_inv
*7235 u_puf\.u_core\.g_ro_bank\[14\]\.u_ro\.g_inv\[25\]\.u_inv
*7236 u_puf\.u_core\.g_ro_bank\[14\]\.u_ro\.g_inv\[26\]\.u_inv
*7237 u_puf\.u_core\.g_ro_bank\[14\]\.u_ro\.g_inv\[27\]\.u_inv
*7238 u_puf\.u_core\.g_ro_bank\[14\]\.u_ro\.g_inv\[28\]\.u_inv
*7239 u_puf\.u_core\.g_ro_bank\[14\]\.u_ro\.g_inv\[29\]\.u_inv
*7240 u_puf\.u_core\.g_ro_bank\[14\]\.u_ro\.g_inv\[2\]\.u_inv
*7241 u_puf\.u_core\.g_ro_bank\[14\]\.u_ro\.g_inv\[30\]\.u_inv
*7242 u_puf\.u_core\.g_ro_bank\[14\]\.u_ro\.g_inv\[3\]\.u_inv
*7243 u_puf\.u_core\.g_ro_bank\[14\]\.u_ro\.g_inv\[4\]\.u_inv
*7244 u_puf\.u_core\.g_ro_bank\[14\]\.u_ro\.g_inv\[5\]\.u_inv
*7245 u_puf\.u_core\.g_ro_bank\[14\]\.u_ro\.g_inv\[6\]\.u_inv
*7246 u_puf\.u_core\.g_ro_bank\[14\]\.u_ro\.g_inv\[7\]\.u_inv
*7247 u_puf\.u_core\.g_ro_bank\[14\]\.u_ro\.g_inv\[8\]\.u_inv
*7248 u_puf\.u_core\.g_ro_bank\[14\]\.u_ro\.g_inv\[9\]\.u_inv
*7249 u_puf\.u_core\.g_ro_bank\[14\]\.u_ro\.u_buf
*7250 u_puf\.u_core\.g_ro_bank\[14\]\.u_ro\.u_nand
*7251 u_puf\.u_core\.g_ro_bank\[15\]\.u_ro\.g_inv\[10\]\.u_inv
*7252 u_puf\.u_core\.g_ro_bank\[15\]\.u_ro\.g_inv\[11\]\.u_inv
*7253 u_puf\.u_core\.g_ro_bank\[15\]\.u_ro\.g_inv\[12\]\.u_inv
*7254 u_puf\.u_core\.g_ro_bank\[15\]\.u_ro\.g_inv\[13\]\.u_inv
*7255 u_puf\.u_core\.g_ro_bank\[15\]\.u_ro\.g_inv\[14\]\.u_inv
*7256 u_puf\.u_core\.g_ro_bank\[15\]\.u_ro\.g_inv\[15\]\.u_inv
*7257 u_puf\.u_core\.g_ro_bank\[15\]\.u_ro\.g_inv\[16\]\.u_inv
*7258 u_puf\.u_core\.g_ro_bank\[15\]\.u_ro\.g_inv\[17\]\.u_inv
*7259 u_puf\.u_core\.g_ro_bank\[15\]\.u_ro\.g_inv\[18\]\.u_inv
*7260 u_puf\.u_core\.g_ro_bank\[15\]\.u_ro\.g_inv\[19\]\.u_inv
*7261 u_puf\.u_core\.g_ro_bank\[15\]\.u_ro\.g_inv\[1\]\.u_inv
*7262 u_puf\.u_core\.g_ro_bank\[15\]\.u_ro\.g_inv\[20\]\.u_inv
*7263 u_puf\.u_core\.g_ro_bank\[15\]\.u_ro\.g_inv\[21\]\.u_inv
*7264 u_puf\.u_core\.g_ro_bank\[15\]\.u_ro\.g_inv\[22\]\.u_inv
*7265 u_puf\.u_core\.g_ro_bank\[15\]\.u_ro\.g_inv\[23\]\.u_inv
*7266 u_puf\.u_core\.g_ro_bank\[15\]\.u_ro\.g_inv\[24\]\.u_inv
*7267 u_puf\.u_core\.g_ro_bank\[15\]\.u_ro\.g_inv\[25\]\.u_inv
*7268 u_puf\.u_core\.g_ro_bank\[15\]\.u_ro\.g_inv\[26\]\.u_inv
*7269 u_puf\.u_core\.g_ro_bank\[15\]\.u_ro\.g_inv\[27\]\.u_inv
*7270 u_puf\.u_core\.g_ro_bank\[15\]\.u_ro\.g_inv\[28\]\.u_inv
*7271 u_puf\.u_core\.g_ro_bank\[15\]\.u_ro\.g_inv\[29\]\.u_inv
*7272 u_puf\.u_core\.g_ro_bank\[15\]\.u_ro\.g_inv\[2\]\.u_inv
*7273 u_puf\.u_core\.g_ro_bank\[15\]\.u_ro\.g_inv\[30\]\.u_inv
*7274 u_puf\.u_core\.g_ro_bank\[15\]\.u_ro\.g_inv\[3\]\.u_inv
*7275 u_puf\.u_core\.g_ro_bank\[15\]\.u_ro\.g_inv\[4\]\.u_inv
*7276 u_puf\.u_core\.g_ro_bank\[15\]\.u_ro\.g_inv\[5\]\.u_inv
*7277 u_puf\.u_core\.g_ro_bank\[15\]\.u_ro\.g_inv\[6\]\.u_inv
*7278 u_puf\.u_core\.g_ro_bank\[15\]\.u_ro\.g_inv\[7\]\.u_inv
*7279 u_puf\.u_core\.g_ro_bank\[15\]\.u_ro\.g_inv\[8\]\.u_inv
*7280 u_puf\.u_core\.g_ro_bank\[15\]\.u_ro\.g_inv\[9\]\.u_inv
*7281 u_puf\.u_core\.g_ro_bank\[15\]\.u_ro\.u_buf
*7282 u_puf\.u_core\.g_ro_bank\[15\]\.u_ro\.u_nand
*7283 u_puf\.u_core\.g_ro_bank\[1\]\.u_ro\.g_inv\[10\]\.u_inv
*7284 u_puf\.u_core\.g_ro_bank\[1\]\.u_ro\.g_inv\[11\]\.u_inv
*7285 u_puf\.u_core\.g_ro_bank\[1\]\.u_ro\.g_inv\[12\]\.u_inv
*7286 u_puf\.u_core\.g_ro_bank\[1\]\.u_ro\.g_inv\[13\]\.u_inv
*7287 u_puf\.u_core\.g_ro_bank\[1\]\.u_ro\.g_inv\[14\]\.u_inv
*7288 u_puf\.u_core\.g_ro_bank\[1\]\.u_ro\.g_inv\[15\]\.u_inv
*7289 u_puf\.u_core\.g_ro_bank\[1\]\.u_ro\.g_inv\[16\]\.u_inv
*7290 u_puf\.u_core\.g_ro_bank\[1\]\.u_ro\.g_inv\[17\]\.u_inv
*7291 u_puf\.u_core\.g_ro_bank\[1\]\.u_ro\.g_inv\[18\]\.u_inv
*7292 u_puf\.u_core\.g_ro_bank\[1\]\.u_ro\.g_inv\[19\]\.u_inv
*7293 u_puf\.u_core\.g_ro_bank\[1\]\.u_ro\.g_inv\[1\]\.u_inv
*7294 u_puf\.u_core\.g_ro_bank\[1\]\.u_ro\.g_inv\[20\]\.u_inv
*7295 u_puf\.u_core\.g_ro_bank\[1\]\.u_ro\.g_inv\[21\]\.u_inv
*7296 u_puf\.u_core\.g_ro_bank\[1\]\.u_ro\.g_inv\[22\]\.u_inv
*7297 u_puf\.u_core\.g_ro_bank\[1\]\.u_ro\.g_inv\[23\]\.u_inv
*7298 u_puf\.u_core\.g_ro_bank\[1\]\.u_ro\.g_inv\[24\]\.u_inv
*7299 u_puf\.u_core\.g_ro_bank\[1\]\.u_ro\.g_inv\[25\]\.u_inv
*7300 u_puf\.u_core\.g_ro_bank\[1\]\.u_ro\.g_inv\[26\]\.u_inv
*7301 u_puf\.u_core\.g_ro_bank\[1\]\.u_ro\.g_inv\[27\]\.u_inv
*7302 u_puf\.u_core\.g_ro_bank\[1\]\.u_ro\.g_inv\[28\]\.u_inv
*7303 u_puf\.u_core\.g_ro_bank\[1\]\.u_ro\.g_inv\[29\]\.u_inv
*7304 u_puf\.u_core\.g_ro_bank\[1\]\.u_ro\.g_inv\[2\]\.u_inv
*7305 u_puf\.u_core\.g_ro_bank\[1\]\.u_ro\.g_inv\[30\]\.u_inv
*7306 u_puf\.u_core\.g_ro_bank\[1\]\.u_ro\.g_inv\[3\]\.u_inv
*7307 u_puf\.u_core\.g_ro_bank\[1\]\.u_ro\.g_inv\[4\]\.u_inv
*7308 u_puf\.u_core\.g_ro_bank\[1\]\.u_ro\.g_inv\[5\]\.u_inv
*7309 u_puf\.u_core\.g_ro_bank\[1\]\.u_ro\.g_inv\[6\]\.u_inv
*7310 u_puf\.u_core\.g_ro_bank\[1\]\.u_ro\.g_inv\[7\]\.u_inv
*7311 u_puf\.u_core\.g_ro_bank\[1\]\.u_ro\.g_inv\[8\]\.u_inv
*7312 u_puf\.u_core\.g_ro_bank\[1\]\.u_ro\.g_inv\[9\]\.u_inv
*7313 u_puf\.u_core\.g_ro_bank\[1\]\.u_ro\.u_buf
*7314 u_puf\.u_core\.g_ro_bank\[1\]\.u_ro\.u_nand
*7315 u_puf\.u_core\.g_ro_bank\[2\]\.u_ro\.g_inv\[10\]\.u_inv
*7316 u_puf\.u_core\.g_ro_bank\[2\]\.u_ro\.g_inv\[11\]\.u_inv
*7317 u_puf\.u_core\.g_ro_bank\[2\]\.u_ro\.g_inv\[12\]\.u_inv
*7318 u_puf\.u_core\.g_ro_bank\[2\]\.u_ro\.g_inv\[13\]\.u_inv
*7319 u_puf\.u_core\.g_ro_bank\[2\]\.u_ro\.g_inv\[14\]\.u_inv
*7320 u_puf\.u_core\.g_ro_bank\[2\]\.u_ro\.g_inv\[15\]\.u_inv
*7321 u_puf\.u_core\.g_ro_bank\[2\]\.u_ro\.g_inv\[16\]\.u_inv
*7322 u_puf\.u_core\.g_ro_bank\[2\]\.u_ro\.g_inv\[17\]\.u_inv
*7323 u_puf\.u_core\.g_ro_bank\[2\]\.u_ro\.g_inv\[18\]\.u_inv
*7324 u_puf\.u_core\.g_ro_bank\[2\]\.u_ro\.g_inv\[19\]\.u_inv
*7325 u_puf\.u_core\.g_ro_bank\[2\]\.u_ro\.g_inv\[1\]\.u_inv
*7326 u_puf\.u_core\.g_ro_bank\[2\]\.u_ro\.g_inv\[20\]\.u_inv
*7327 u_puf\.u_core\.g_ro_bank\[2\]\.u_ro\.g_inv\[21\]\.u_inv
*7328 u_puf\.u_core\.g_ro_bank\[2\]\.u_ro\.g_inv\[22\]\.u_inv
*7329 u_puf\.u_core\.g_ro_bank\[2\]\.u_ro\.g_inv\[23\]\.u_inv
*7330 u_puf\.u_core\.g_ro_bank\[2\]\.u_ro\.g_inv\[24\]\.u_inv
*7331 u_puf\.u_core\.g_ro_bank\[2\]\.u_ro\.g_inv\[25\]\.u_inv
*7332 u_puf\.u_core\.g_ro_bank\[2\]\.u_ro\.g_inv\[26\]\.u_inv
*7333 u_puf\.u_core\.g_ro_bank\[2\]\.u_ro\.g_inv\[27\]\.u_inv
*7334 u_puf\.u_core\.g_ro_bank\[2\]\.u_ro\.g_inv\[28\]\.u_inv
*7335 u_puf\.u_core\.g_ro_bank\[2\]\.u_ro\.g_inv\[29\]\.u_inv
*7336 u_puf\.u_core\.g_ro_bank\[2\]\.u_ro\.g_inv\[2\]\.u_inv
*7337 u_puf\.u_core\.g_ro_bank\[2\]\.u_ro\.g_inv\[30\]\.u_inv
*7338 u_puf\.u_core\.g_ro_bank\[2\]\.u_ro\.g_inv\[3\]\.u_inv
*7339 u_puf\.u_core\.g_ro_bank\[2\]\.u_ro\.g_inv\[4\]\.u_inv
*7340 u_puf\.u_core\.g_ro_bank\[2\]\.u_ro\.g_inv\[5\]\.u_inv
*7341 u_puf\.u_core\.g_ro_bank\[2\]\.u_ro\.g_inv\[6\]\.u_inv
*7342 u_puf\.u_core\.g_ro_bank\[2\]\.u_ro\.g_inv\[7\]\.u_inv
*7343 u_puf\.u_core\.g_ro_bank\[2\]\.u_ro\.g_inv\[8\]\.u_inv
*7344 u_puf\.u_core\.g_ro_bank\[2\]\.u_ro\.g_inv\[9\]\.u_inv
*7345 u_puf\.u_core\.g_ro_bank\[2\]\.u_ro\.u_buf
*7346 u_puf\.u_core\.g_ro_bank\[2\]\.u_ro\.u_nand
*7347 u_puf\.u_core\.g_ro_bank\[3\]\.u_ro\.g_inv\[10\]\.u_inv
*7348 u_puf\.u_core\.g_ro_bank\[3\]\.u_ro\.g_inv\[11\]\.u_inv
*7349 u_puf\.u_core\.g_ro_bank\[3\]\.u_ro\.g_inv\[12\]\.u_inv
*7350 u_puf\.u_core\.g_ro_bank\[3\]\.u_ro\.g_inv\[13\]\.u_inv
*7351 u_puf\.u_core\.g_ro_bank\[3\]\.u_ro\.g_inv\[14\]\.u_inv
*7352 u_puf\.u_core\.g_ro_bank\[3\]\.u_ro\.g_inv\[15\]\.u_inv
*7353 u_puf\.u_core\.g_ro_bank\[3\]\.u_ro\.g_inv\[16\]\.u_inv
*7354 u_puf\.u_core\.g_ro_bank\[3\]\.u_ro\.g_inv\[17\]\.u_inv
*7355 u_puf\.u_core\.g_ro_bank\[3\]\.u_ro\.g_inv\[18\]\.u_inv
*7356 u_puf\.u_core\.g_ro_bank\[3\]\.u_ro\.g_inv\[19\]\.u_inv
*7357 u_puf\.u_core\.g_ro_bank\[3\]\.u_ro\.g_inv\[1\]\.u_inv
*7358 u_puf\.u_core\.g_ro_bank\[3\]\.u_ro\.g_inv\[20\]\.u_inv
*7359 u_puf\.u_core\.g_ro_bank\[3\]\.u_ro\.g_inv\[21\]\.u_inv
*7360 u_puf\.u_core\.g_ro_bank\[3\]\.u_ro\.g_inv\[22\]\.u_inv
*7361 u_puf\.u_core\.g_ro_bank\[3\]\.u_ro\.g_inv\[23\]\.u_inv
*7362 u_puf\.u_core\.g_ro_bank\[3\]\.u_ro\.g_inv\[24\]\.u_inv
*7363 u_puf\.u_core\.g_ro_bank\[3\]\.u_ro\.g_inv\[25\]\.u_inv
*7364 u_puf\.u_core\.g_ro_bank\[3\]\.u_ro\.g_inv\[26\]\.u_inv
*7365 u_puf\.u_core\.g_ro_bank\[3\]\.u_ro\.g_inv\[27\]\.u_inv
*7366 u_puf\.u_core\.g_ro_bank\[3\]\.u_ro\.g_inv\[28\]\.u_inv
*7367 u_puf\.u_core\.g_ro_bank\[3\]\.u_ro\.g_inv\[29\]\.u_inv
*7368 u_puf\.u_core\.g_ro_bank\[3\]\.u_ro\.g_inv\[2\]\.u_inv
*7369 u_puf\.u_core\.g_ro_bank\[3\]\.u_ro\.g_inv\[30\]\.u_inv
*7370 u_puf\.u_core\.g_ro_bank\[3\]\.u_ro\.g_inv\[3\]\.u_inv
*7371 u_puf\.u_core\.g_ro_bank\[3\]\.u_ro\.g_inv\[4\]\.u_inv
*7372 u_puf\.u_core\.g_ro_bank\[3\]\.u_ro\.g_inv\[5\]\.u_inv
*7373 u_puf\.u_core\.g_ro_bank\[3\]\.u_ro\.g_inv\[6\]\.u_inv
*7374 u_puf\.u_core\.g_ro_bank\[3\]\.u_ro\.g_inv\[7\]\.u_inv
*7375 u_puf\.u_core\.g_ro_bank\[3\]\.u_ro\.g_inv\[8\]\.u_inv
*7376 u_puf\.u_core\.g_ro_bank\[3\]\.u_ro\.g_inv\[9\]\.u_inv
*7377 u_puf\.u_core\.g_ro_bank\[3\]\.u_ro\.u_buf
*7378 u_puf\.u_core\.g_ro_bank\[3\]\.u_ro\.u_nand
*7379 u_puf\.u_core\.g_ro_bank\[4\]\.u_ro\.g_inv\[10\]\.u_inv
*7380 u_puf\.u_core\.g_ro_bank\[4\]\.u_ro\.g_inv\[11\]\.u_inv
*7381 u_puf\.u_core\.g_ro_bank\[4\]\.u_ro\.g_inv\[12\]\.u_inv
*7382 u_puf\.u_core\.g_ro_bank\[4\]\.u_ro\.g_inv\[13\]\.u_inv
*7383 u_puf\.u_core\.g_ro_bank\[4\]\.u_ro\.g_inv\[14\]\.u_inv
*7384 u_puf\.u_core\.g_ro_bank\[4\]\.u_ro\.g_inv\[15\]\.u_inv
*7385 u_puf\.u_core\.g_ro_bank\[4\]\.u_ro\.g_inv\[16\]\.u_inv
*7386 u_puf\.u_core\.g_ro_bank\[4\]\.u_ro\.g_inv\[17\]\.u_inv
*7387 u_puf\.u_core\.g_ro_bank\[4\]\.u_ro\.g_inv\[18\]\.u_inv
*7388 u_puf\.u_core\.g_ro_bank\[4\]\.u_ro\.g_inv\[19\]\.u_inv
*7389 u_puf\.u_core\.g_ro_bank\[4\]\.u_ro\.g_inv\[1\]\.u_inv
*7390 u_puf\.u_core\.g_ro_bank\[4\]\.u_ro\.g_inv\[20\]\.u_inv
*7391 u_puf\.u_core\.g_ro_bank\[4\]\.u_ro\.g_inv\[21\]\.u_inv
*7392 u_puf\.u_core\.g_ro_bank\[4\]\.u_ro\.g_inv\[22\]\.u_inv
*7393 u_puf\.u_core\.g_ro_bank\[4\]\.u_ro\.g_inv\[23\]\.u_inv
*7394 u_puf\.u_core\.g_ro_bank\[4\]\.u_ro\.g_inv\[24\]\.u_inv
*7395 u_puf\.u_core\.g_ro_bank\[4\]\.u_ro\.g_inv\[25\]\.u_inv
*7396 u_puf\.u_core\.g_ro_bank\[4\]\.u_ro\.g_inv\[26\]\.u_inv
*7397 u_puf\.u_core\.g_ro_bank\[4\]\.u_ro\.g_inv\[27\]\.u_inv
*7398 u_puf\.u_core\.g_ro_bank\[4\]\.u_ro\.g_inv\[28\]\.u_inv
*7399 u_puf\.u_core\.g_ro_bank\[4\]\.u_ro\.g_inv\[29\]\.u_inv
*7400 u_puf\.u_core\.g_ro_bank\[4\]\.u_ro\.g_inv\[2\]\.u_inv
*7401 u_puf\.u_core\.g_ro_bank\[4\]\.u_ro\.g_inv\[30\]\.u_inv
*7402 u_puf\.u_core\.g_ro_bank\[4\]\.u_ro\.g_inv\[3\]\.u_inv
*7403 u_puf\.u_core\.g_ro_bank\[4\]\.u_ro\.g_inv\[4\]\.u_inv
*7404 u_puf\.u_core\.g_ro_bank\[4\]\.u_ro\.g_inv\[5\]\.u_inv
*7405 u_puf\.u_core\.g_ro_bank\[4\]\.u_ro\.g_inv\[6\]\.u_inv
*7406 u_puf\.u_core\.g_ro_bank\[4\]\.u_ro\.g_inv\[7\]\.u_inv
*7407 u_puf\.u_core\.g_ro_bank\[4\]\.u_ro\.g_inv\[8\]\.u_inv
*7408 u_puf\.u_core\.g_ro_bank\[4\]\.u_ro\.g_inv\[9\]\.u_inv
*7409 u_puf\.u_core\.g_ro_bank\[4\]\.u_ro\.u_buf
*7410 u_puf\.u_core\.g_ro_bank\[4\]\.u_ro\.u_nand
*7411 u_puf\.u_core\.g_ro_bank\[5\]\.u_ro\.g_inv\[10\]\.u_inv
*7412 u_puf\.u_core\.g_ro_bank\[5\]\.u_ro\.g_inv\[11\]\.u_inv
*7413 u_puf\.u_core\.g_ro_bank\[5\]\.u_ro\.g_inv\[12\]\.u_inv
*7414 u_puf\.u_core\.g_ro_bank\[5\]\.u_ro\.g_inv\[13\]\.u_inv
*7415 u_puf\.u_core\.g_ro_bank\[5\]\.u_ro\.g_inv\[14\]\.u_inv
*7416 u_puf\.u_core\.g_ro_bank\[5\]\.u_ro\.g_inv\[15\]\.u_inv
*7417 u_puf\.u_core\.g_ro_bank\[5\]\.u_ro\.g_inv\[16\]\.u_inv
*7418 u_puf\.u_core\.g_ro_bank\[5\]\.u_ro\.g_inv\[17\]\.u_inv
*7419 u_puf\.u_core\.g_ro_bank\[5\]\.u_ro\.g_inv\[18\]\.u_inv
*7420 u_puf\.u_core\.g_ro_bank\[5\]\.u_ro\.g_inv\[19\]\.u_inv
*7421 u_puf\.u_core\.g_ro_bank\[5\]\.u_ro\.g_inv\[1\]\.u_inv
*7422 u_puf\.u_core\.g_ro_bank\[5\]\.u_ro\.g_inv\[20\]\.u_inv
*7423 u_puf\.u_core\.g_ro_bank\[5\]\.u_ro\.g_inv\[21\]\.u_inv
*7424 u_puf\.u_core\.g_ro_bank\[5\]\.u_ro\.g_inv\[22\]\.u_inv
*7425 u_puf\.u_core\.g_ro_bank\[5\]\.u_ro\.g_inv\[23\]\.u_inv
*7426 u_puf\.u_core\.g_ro_bank\[5\]\.u_ro\.g_inv\[24\]\.u_inv
*7427 u_puf\.u_core\.g_ro_bank\[5\]\.u_ro\.g_inv\[25\]\.u_inv
*7428 u_puf\.u_core\.g_ro_bank\[5\]\.u_ro\.g_inv\[26\]\.u_inv
*7429 u_puf\.u_core\.g_ro_bank\[5\]\.u_ro\.g_inv\[27\]\.u_inv
*7430 u_puf\.u_core\.g_ro_bank\[5\]\.u_ro\.g_inv\[28\]\.u_inv
*7431 u_puf\.u_core\.g_ro_bank\[5\]\.u_ro\.g_inv\[29\]\.u_inv
*7432 u_puf\.u_core\.g_ro_bank\[5\]\.u_ro\.g_inv\[2\]\.u_inv
*7433 u_puf\.u_core\.g_ro_bank\[5\]\.u_ro\.g_inv\[30\]\.u_inv
*7434 u_puf\.u_core\.g_ro_bank\[5\]\.u_ro\.g_inv\[3\]\.u_inv
*7435 u_puf\.u_core\.g_ro_bank\[5\]\.u_ro\.g_inv\[4\]\.u_inv
*7436 u_puf\.u_core\.g_ro_bank\[5\]\.u_ro\.g_inv\[5\]\.u_inv
*7437 u_puf\.u_core\.g_ro_bank\[5\]\.u_ro\.g_inv\[6\]\.u_inv
*7438 u_puf\.u_core\.g_ro_bank\[5\]\.u_ro\.g_inv\[7\]\.u_inv
*7439 u_puf\.u_core\.g_ro_bank\[5\]\.u_ro\.g_inv\[8\]\.u_inv
*7440 u_puf\.u_core\.g_ro_bank\[5\]\.u_ro\.g_inv\[9\]\.u_inv
*7441 u_puf\.u_core\.g_ro_bank\[5\]\.u_ro\.u_buf
*7442 u_puf\.u_core\.g_ro_bank\[5\]\.u_ro\.u_nand
*7443 u_puf\.u_core\.g_ro_bank\[6\]\.u_ro\.g_inv\[10\]\.u_inv
*7444 u_puf\.u_core\.g_ro_bank\[6\]\.u_ro\.g_inv\[11\]\.u_inv
*7445 u_puf\.u_core\.g_ro_bank\[6\]\.u_ro\.g_inv\[12\]\.u_inv
*7446 u_puf\.u_core\.g_ro_bank\[6\]\.u_ro\.g_inv\[13\]\.u_inv
*7447 u_puf\.u_core\.g_ro_bank\[6\]\.u_ro\.g_inv\[14\]\.u_inv
*7448 u_puf\.u_core\.g_ro_bank\[6\]\.u_ro\.g_inv\[15\]\.u_inv
*7449 u_puf\.u_core\.g_ro_bank\[6\]\.u_ro\.g_inv\[16\]\.u_inv
*7450 u_puf\.u_core\.g_ro_bank\[6\]\.u_ro\.g_inv\[17\]\.u_inv
*7451 u_puf\.u_core\.g_ro_bank\[6\]\.u_ro\.g_inv\[18\]\.u_inv
*7452 u_puf\.u_core\.g_ro_bank\[6\]\.u_ro\.g_inv\[19\]\.u_inv
*7453 u_puf\.u_core\.g_ro_bank\[6\]\.u_ro\.g_inv\[1\]\.u_inv
*7454 u_puf\.u_core\.g_ro_bank\[6\]\.u_ro\.g_inv\[20\]\.u_inv
*7455 u_puf\.u_core\.g_ro_bank\[6\]\.u_ro\.g_inv\[21\]\.u_inv
*7456 u_puf\.u_core\.g_ro_bank\[6\]\.u_ro\.g_inv\[22\]\.u_inv
*7457 u_puf\.u_core\.g_ro_bank\[6\]\.u_ro\.g_inv\[23\]\.u_inv
*7458 u_puf\.u_core\.g_ro_bank\[6\]\.u_ro\.g_inv\[24\]\.u_inv
*7459 u_puf\.u_core\.g_ro_bank\[6\]\.u_ro\.g_inv\[25\]\.u_inv
*7460 u_puf\.u_core\.g_ro_bank\[6\]\.u_ro\.g_inv\[26\]\.u_inv
*7461 u_puf\.u_core\.g_ro_bank\[6\]\.u_ro\.g_inv\[27\]\.u_inv
*7462 u_puf\.u_core\.g_ro_bank\[6\]\.u_ro\.g_inv\[28\]\.u_inv
*7463 u_puf\.u_core\.g_ro_bank\[6\]\.u_ro\.g_inv\[29\]\.u_inv
*7464 u_puf\.u_core\.g_ro_bank\[6\]\.u_ro\.g_inv\[2\]\.u_inv
*7465 u_puf\.u_core\.g_ro_bank\[6\]\.u_ro\.g_inv\[30\]\.u_inv
*7466 u_puf\.u_core\.g_ro_bank\[6\]\.u_ro\.g_inv\[3\]\.u_inv
*7467 u_puf\.u_core\.g_ro_bank\[6\]\.u_ro\.g_inv\[4\]\.u_inv
*7468 u_puf\.u_core\.g_ro_bank\[6\]\.u_ro\.g_inv\[5\]\.u_inv
*7469 u_puf\.u_core\.g_ro_bank\[6\]\.u_ro\.g_inv\[6\]\.u_inv
*7470 u_puf\.u_core\.g_ro_bank\[6\]\.u_ro\.g_inv\[7\]\.u_inv
*7471 u_puf\.u_core\.g_ro_bank\[6\]\.u_ro\.g_inv\[8\]\.u_inv
*7472 u_puf\.u_core\.g_ro_bank\[6\]\.u_ro\.g_inv\[9\]\.u_inv
*7473 u_puf\.u_core\.g_ro_bank\[6\]\.u_ro\.u_buf
*7474 u_puf\.u_core\.g_ro_bank\[6\]\.u_ro\.u_nand
*7475 u_puf\.u_core\.g_ro_bank\[7\]\.u_ro\.g_inv\[10\]\.u_inv
*7476 u_puf\.u_core\.g_ro_bank\[7\]\.u_ro\.g_inv\[11\]\.u_inv
*7477 u_puf\.u_core\.g_ro_bank\[7\]\.u_ro\.g_inv\[12\]\.u_inv
*7478 u_puf\.u_core\.g_ro_bank\[7\]\.u_ro\.g_inv\[13\]\.u_inv
*7479 u_puf\.u_core\.g_ro_bank\[7\]\.u_ro\.g_inv\[14\]\.u_inv
*7480 u_puf\.u_core\.g_ro_bank\[7\]\.u_ro\.g_inv\[15\]\.u_inv
*7481 u_puf\.u_core\.g_ro_bank\[7\]\.u_ro\.g_inv\[16\]\.u_inv
*7482 u_puf\.u_core\.g_ro_bank\[7\]\.u_ro\.g_inv\[17\]\.u_inv
*7483 u_puf\.u_core\.g_ro_bank\[7\]\.u_ro\.g_inv\[18\]\.u_inv
*7484 u_puf\.u_core\.g_ro_bank\[7\]\.u_ro\.g_inv\[19\]\.u_inv
*7485 u_puf\.u_core\.g_ro_bank\[7\]\.u_ro\.g_inv\[1\]\.u_inv
*7486 u_puf\.u_core\.g_ro_bank\[7\]\.u_ro\.g_inv\[20\]\.u_inv
*7487 u_puf\.u_core\.g_ro_bank\[7\]\.u_ro\.g_inv\[21\]\.u_inv
*7488 u_puf\.u_core\.g_ro_bank\[7\]\.u_ro\.g_inv\[22\]\.u_inv
*7489 u_puf\.u_core\.g_ro_bank\[7\]\.u_ro\.g_inv\[23\]\.u_inv
*7490 u_puf\.u_core\.g_ro_bank\[7\]\.u_ro\.g_inv\[24\]\.u_inv
*7491 u_puf\.u_core\.g_ro_bank\[7\]\.u_ro\.g_inv\[25\]\.u_inv
*7492 u_puf\.u_core\.g_ro_bank\[7\]\.u_ro\.g_inv\[26\]\.u_inv
*7493 u_puf\.u_core\.g_ro_bank\[7\]\.u_ro\.g_inv\[27\]\.u_inv
*7494 u_puf\.u_core\.g_ro_bank\[7\]\.u_ro\.g_inv\[28\]\.u_inv
*7495 u_puf\.u_core\.g_ro_bank\[7\]\.u_ro\.g_inv\[29\]\.u_inv
*7496 u_puf\.u_core\.g_ro_bank\[7\]\.u_ro\.g_inv\[2\]\.u_inv
*7497 u_puf\.u_core\.g_ro_bank\[7\]\.u_ro\.g_inv\[30\]\.u_inv
*7498 u_puf\.u_core\.g_ro_bank\[7\]\.u_ro\.g_inv\[3\]\.u_inv
*7499 u_puf\.u_core\.g_ro_bank\[7\]\.u_ro\.g_inv\[4\]\.u_inv
*7500 u_puf\.u_core\.g_ro_bank\[7\]\.u_ro\.g_inv\[5\]\.u_inv
*7501 u_puf\.u_core\.g_ro_bank\[7\]\.u_ro\.g_inv\[6\]\.u_inv
*7502 u_puf\.u_core\.g_ro_bank\[7\]\.u_ro\.g_inv\[7\]\.u_inv
*7503 u_puf\.u_core\.g_ro_bank\[7\]\.u_ro\.g_inv\[8\]\.u_inv
*7504 u_puf\.u_core\.g_ro_bank\[7\]\.u_ro\.g_inv\[9\]\.u_inv
*7505 u_puf\.u_core\.g_ro_bank\[7\]\.u_ro\.u_buf
*7506 u_puf\.u_core\.g_ro_bank\[7\]\.u_ro\.u_nand
*7507 u_puf\.u_core\.g_ro_bank\[8\]\.u_ro\.g_inv\[10\]\.u_inv
*7508 u_puf\.u_core\.g_ro_bank\[8\]\.u_ro\.g_inv\[11\]\.u_inv
*7509 u_puf\.u_core\.g_ro_bank\[8\]\.u_ro\.g_inv\[12\]\.u_inv
*7510 u_puf\.u_core\.g_ro_bank\[8\]\.u_ro\.g_inv\[13\]\.u_inv
*7511 u_puf\.u_core\.g_ro_bank\[8\]\.u_ro\.g_inv\[14\]\.u_inv
*7512 u_puf\.u_core\.g_ro_bank\[8\]\.u_ro\.g_inv\[15\]\.u_inv
*7513 u_puf\.u_core\.g_ro_bank\[8\]\.u_ro\.g_inv\[16\]\.u_inv
*7514 u_puf\.u_core\.g_ro_bank\[8\]\.u_ro\.g_inv\[17\]\.u_inv
*7515 u_puf\.u_core\.g_ro_bank\[8\]\.u_ro\.g_inv\[18\]\.u_inv
*7516 u_puf\.u_core\.g_ro_bank\[8\]\.u_ro\.g_inv\[19\]\.u_inv
*7517 u_puf\.u_core\.g_ro_bank\[8\]\.u_ro\.g_inv\[1\]\.u_inv
*7518 u_puf\.u_core\.g_ro_bank\[8\]\.u_ro\.g_inv\[20\]\.u_inv
*7519 u_puf\.u_core\.g_ro_bank\[8\]\.u_ro\.g_inv\[21\]\.u_inv
*7520 u_puf\.u_core\.g_ro_bank\[8\]\.u_ro\.g_inv\[22\]\.u_inv
*7521 u_puf\.u_core\.g_ro_bank\[8\]\.u_ro\.g_inv\[23\]\.u_inv
*7522 u_puf\.u_core\.g_ro_bank\[8\]\.u_ro\.g_inv\[24\]\.u_inv
*7523 u_puf\.u_core\.g_ro_bank\[8\]\.u_ro\.g_inv\[25\]\.u_inv
*7524 u_puf\.u_core\.g_ro_bank\[8\]\.u_ro\.g_inv\[26\]\.u_inv
*7525 u_puf\.u_core\.g_ro_bank\[8\]\.u_ro\.g_inv\[27\]\.u_inv
*7526 u_puf\.u_core\.g_ro_bank\[8\]\.u_ro\.g_inv\[28\]\.u_inv
*7527 u_puf\.u_core\.g_ro_bank\[8\]\.u_ro\.g_inv\[29\]\.u_inv
*7528 u_puf\.u_core\.g_ro_bank\[8\]\.u_ro\.g_inv\[2\]\.u_inv
*7529 u_puf\.u_core\.g_ro_bank\[8\]\.u_ro\.g_inv\[30\]\.u_inv
*7530 u_puf\.u_core\.g_ro_bank\[8\]\.u_ro\.g_inv\[3\]\.u_inv
*7531 u_puf\.u_core\.g_ro_bank\[8\]\.u_ro\.g_inv\[4\]\.u_inv
*7532 u_puf\.u_core\.g_ro_bank\[8\]\.u_ro\.g_inv\[5\]\.u_inv
*7533 u_puf\.u_core\.g_ro_bank\[8\]\.u_ro\.g_inv\[6\]\.u_inv
*7534 u_puf\.u_core\.g_ro_bank\[8\]\.u_ro\.g_inv\[7\]\.u_inv
*7535 u_puf\.u_core\.g_ro_bank\[8\]\.u_ro\.g_inv\[8\]\.u_inv
*7536 u_puf\.u_core\.g_ro_bank\[8\]\.u_ro\.g_inv\[9\]\.u_inv
*7537 u_puf\.u_core\.g_ro_bank\[8\]\.u_ro\.u_buf
*7538 u_puf\.u_core\.g_ro_bank\[8\]\.u_ro\.u_nand
*7539 u_puf\.u_core\.g_ro_bank\[9\]\.u_ro\.g_inv\[10\]\.u_inv
*7540 u_puf\.u_core\.g_ro_bank\[9\]\.u_ro\.g_inv\[11\]\.u_inv
*7541 u_puf\.u_core\.g_ro_bank\[9\]\.u_ro\.g_inv\[12\]\.u_inv
*7542 u_puf\.u_core\.g_ro_bank\[9\]\.u_ro\.g_inv\[13\]\.u_inv
*7543 u_puf\.u_core\.g_ro_bank\[9\]\.u_ro\.g_inv\[14\]\.u_inv
*7544 u_puf\.u_core\.g_ro_bank\[9\]\.u_ro\.g_inv\[15\]\.u_inv
*7545 u_puf\.u_core\.g_ro_bank\[9\]\.u_ro\.g_inv\[16\]\.u_inv
*7546 u_puf\.u_core\.g_ro_bank\[9\]\.u_ro\.g_inv\[17\]\.u_inv
*7547 u_puf\.u_core\.g_ro_bank\[9\]\.u_ro\.g_inv\[18\]\.u_inv
*7548 u_puf\.u_core\.g_ro_bank\[9\]\.u_ro\.g_inv\[19\]\.u_inv
*7549 u_puf\.u_core\.g_ro_bank\[9\]\.u_ro\.g_inv\[1\]\.u_inv
*7550 u_puf\.u_core\.g_ro_bank\[9\]\.u_ro\.g_inv\[20\]\.u_inv
*7551 u_puf\.u_core\.g_ro_bank\[9\]\.u_ro\.g_inv\[21\]\.u_inv
*7552 u_puf\.u_core\.g_ro_bank\[9\]\.u_ro\.g_inv\[22\]\.u_inv
*7553 u_puf\.u_core\.g_ro_bank\[9\]\.u_ro\.g_inv\[23\]\.u_inv
*7554 u_puf\.u_core\.g_ro_bank\[9\]\.u_ro\.g_inv\[24\]\.u_inv
*7555 u_puf\.u_core\.g_ro_bank\[9\]\.u_ro\.g_inv\[25\]\.u_inv
*7556 u_puf\.u_core\.g_ro_bank\[9\]\.u_ro\.g_inv\[26\]\.u_inv
*7557 u_puf\.u_core\.g_ro_bank\[9\]\.u_ro\.g_inv\[27\]\.u_inv
*7558 u_puf\.u_core\.g_ro_bank\[9\]\.u_ro\.g_inv\[28\]\.u_inv
*7559 u_puf\.u_core\.g_ro_bank\[9\]\.u_ro\.g_inv\[29\]\.u_inv
*7560 u_puf\.u_core\.g_ro_bank\[9\]\.u_ro\.g_inv\[2\]\.u_inv
*7561 u_puf\.u_core\.g_ro_bank\[9\]\.u_ro\.g_inv\[30\]\.u_inv
*7562 u_puf\.u_core\.g_ro_bank\[9\]\.u_ro\.g_inv\[3\]\.u_inv
*7563 u_puf\.u_core\.g_ro_bank\[9\]\.u_ro\.g_inv\[4\]\.u_inv
*7564 u_puf\.u_core\.g_ro_bank\[9\]\.u_ro\.g_inv\[5\]\.u_inv
*7565 u_puf\.u_core\.g_ro_bank\[9\]\.u_ro\.g_inv\[6\]\.u_inv
*7566 u_puf\.u_core\.g_ro_bank\[9\]\.u_ro\.g_inv\[7\]\.u_inv
*7567 u_puf\.u_core\.g_ro_bank\[9\]\.u_ro\.g_inv\[8\]\.u_inv
*7568 u_puf\.u_core\.g_ro_bank\[9\]\.u_ro\.g_inv\[9\]\.u_inv
*7569 u_puf\.u_core\.g_ro_bank\[9\]\.u_ro\.u_buf
*7570 u_puf\.u_core\.g_ro_bank\[9\]\.u_ro\.u_nand
*7571 u_rob0
*7572 u_rob1
*7573 u_rob10
*7574 u_rob11
*7575 u_rob12
*7576 u_rob13
*7577 u_rob14
*7578 u_rob15
*7579 u_rob2
*7580 u_rob3
*7581 u_rob4
*7582 u_rob5
*7583 u_rob6
*7584 u_rob7
*7585 u_rob8
*7586 u_rob9
*7587 wire20
*7588 wire32
*7589 wire34

*PORTS
clk I
ena I
rst_n I
ui_in[0] I
ui_in[1] I
ui_in[2] I
ui_in[3] I
ui_in[4] I
ui_in[5] I
ui_in[6] I
ui_in[7] I
uio_in[0] I
uio_in[1] I
uio_in[2] I
uio_in[3] I
uio_in[4] I
uio_in[5] I
uio_in[6] I
uio_in[7] I
uio_oe[0] O
uio_oe[1] O
uio_oe[2] O
uio_oe[3] O
uio_oe[4] O
uio_oe[5] O
uio_oe[6] O
uio_oe[7] O
uio_out[0] O
uio_out[1] O
uio_out[2] O
uio_out[3] O
uio_out[4] O
uio_out[5] O
uio_out[6] O
uio_out[7] O
uo_out[0] O
uo_out[1] O
uo_out[2] O
uo_out[3] O
uo_out[4] O
uo_out[5] O
uo_out[6] O
uo_out[7] O

*D_NET *3 0.0078799
*CONN
*P clk I
*I *6894:A I *D sky130_fd_sc_hd__clkbuf_16
*CAP
1 clk 0.00304538
2 *6894:A 6.5516e-05
3 *3:16 0.0031109
4 *6894:A *6643:B 8.07313e-05
5 *3:16 *6728:A1 2.24063e-05
6 *3:16 *6812:D 5.47453e-05
7 *3:16 *6843:CLK 0
8 *3:16 *7027:A 0.000238199
9 *3:16 *7028:A 3.56723e-05
10 *3:16 *155:14 0.000548742
11 *3:16 *302:19 0.000336788
12 *3:16 *303:23 0
13 *3:16 *312:33 0
14 *3:16 *337:22 0
15 *3:16 *348:35 0
16 *3:16 *370:29 0
17 *3:16 *440:51 0.000206317
18 *3:16 *501:103 5.01223e-05
19 *3:16 *511:53 8.43729e-05
*RES
1 clk *3:16 28.4547 
2 *3:16 *6894:A 15.1571 
*END

*D_NET *4 0.00218369
*CONN
*P ena I
*I *7027:A I *D sky130_fd_sc_hd__clkdlybuf4s25_1
*CAP
1 ena 0.000679017
2 *7027:A 0.000679017
3 *7027:A *6850:RESET_B 0.000152333
4 *7027:A *7028:A 0
5 *7027:A *440:55 0.000302504
6 *7027:A *511:55 0.00013262
7 *3:16 *7027:A 0.000238199
*RES
1 ena *7027:A 25.9966 
*END

*D_NET *5 0.00219853
*CONN
*P rst_n I
*I *7028:A I *D sky130_fd_sc_hd__clkdlybuf4s25_1
*CAP
1 rst_n 0.000904365
2 *7028:A 0.000904365
3 *7028:A *6723:B2 0
4 *7028:A *6875:D 0
5 *7028:A *7029:A 0.000116446
6 *7028:A *7030:A 0.00011479
7 *7028:A *7031:A 1.7952e-05
8 *7028:A *302:97 0
9 *7028:A *511:55 0.000104937
10 *7027:A *7028:A 0
11 *3:16 *7028:A 3.56723e-05
*RES
1 rst_n *7028:A 25.2367 
*END

*D_NET *6 0.00347017
*CONN
*P ui_in[0] I
*I *7029:A I *D sky130_fd_sc_hd__clkdlybuf4s25_1
*CAP
1 ui_in[0] 0.00115442
2 *7029:A 0.00115442
3 *7029:A *6565:B 7.38699e-05
4 *7029:A *6635:A0 0
5 *7029:A *6841:RESET_B 0.000122911
6 *7029:A *6849:CLK 0.000137983
7 *7029:A *6875:D 0.000171407
8 *7029:A *6882:D 0
9 *7029:A *7020:A 0.000186669
10 *7029:A *7030:A 5.65638e-05
11 *7029:A *7031:A 0
12 *7029:A *40:16 9.25014e-06
13 *7029:A *300:12 0
14 *7029:A *302:99 0
15 *7029:A *334:10 0.000286228
16 *7029:A *359:41 0
17 *7028:A *7029:A 0.000116446
*RES
1 ui_in[0] *7029:A 40.9561 
*END

*D_NET *7 0.00480807
*CONN
*P ui_in[1] I
*I *7030:A I *D sky130_fd_sc_hd__clkdlybuf4s25_1
*CAP
1 ui_in[1] 0.00062929
2 *7030:A 0.00062929
3 *7030:A *6635:A1 0.00014258
4 *7030:A *6640:A0 0.000142856
5 *7030:A *6640:A1 7.77652e-05
6 *7030:A *6875:D 0.000358555
7 *7030:A *6951:A 0.000750344
8 *7030:A *7031:A 6.0596e-05
9 *7030:A *301:31 0.00101514
10 *7030:A *301:38 0.000477308
11 *7030:A *301:45 0.000301402
12 *7030:A *302:97 0
13 *7030:A *314:44 5.1588e-05
14 *7028:A *7030:A 0.00011479
15 *7029:A *7030:A 5.65638e-05
*RES
1 ui_in[1] *7030:A 39.9962 
*END

*D_NET *8 0.00366931
*CONN
*P ui_in[2] I
*I *7031:A I *D sky130_fd_sc_hd__clkdlybuf4s25_1
*CAP
1 ui_in[2] 0.00120895
2 *7031:A 0.00120895
3 *7031:A *6726:A2 0.000192479
4 *7031:A *6841:RESET_B 0
5 *7031:A *6875:D 3.4323e-06
6 *7031:A *7032:A 0.000176886
7 *7031:A *7033:A 0.000268409
8 *7031:A *302:99 0
9 *7031:A *359:41 0
10 *7031:A *359:47 1.94135e-05
11 *7031:A *420:10 6.05161e-06
12 *7031:A *451:20 2.59355e-05
13 *7031:A *513:83 0.000480251
14 *7028:A *7031:A 1.7952e-05
15 *7029:A *7031:A 0
16 *7030:A *7031:A 6.0596e-05
*RES
1 ui_in[2] *7031:A 41.0633 
*END

*D_NET *9 0.00202906
*CONN
*P ui_in[3] I
*I *7032:A I *D sky130_fd_sc_hd__clkdlybuf4s25_1
*CAP
1 ui_in[3] 0.000631506
2 *7032:A 0.000631506
3 *7032:A *6849:RESET_B 1.01912e-05
4 *7032:A *7033:A 0.000340814
5 *7032:A *503:55 0.00023816
6 *7031:A *7032:A 0.000176886
*RES
1 ui_in[3] *7032:A 23.0776 
*END

*D_NET *10 0.00232487
*CONN
*P ui_in[4] I
*I *7033:A I *D sky130_fd_sc_hd__clkdlybuf4s25_1
*CAP
1 ui_in[4] 0.00073778
2 *7033:A 0.00073778
3 *7033:A *6640:A1 1.0562e-05
4 *7033:A *7034:A 3.6462e-05
5 *7033:A *7035:A 0
6 *7033:A *503:55 5.40377e-05
7 *7033:A *513:83 0.000139028
8 *7031:A *7033:A 0.000268409
9 *7032:A *7033:A 0.000340814
*RES
1 ui_in[4] *7033:A 25.3786 
*END

*D_NET *11 0.00223585
*CONN
*P ui_in[5] I
*I *7034:A I *D sky130_fd_sc_hd__clkdlybuf4s25_1
*CAP
1 ui_in[5] 0.000915375
2 *7034:A 0.000915375
3 *7034:A uo_out[1] 0.000184524
4 *7034:A uo_out[6] 0
5 *7034:A *6639:A0 0
6 *7034:A *6846:RESET_B 0
7 *7034:A *7035:A 8.32949e-05
8 *7034:A *316:55 0
9 *7034:A *316:59 0
10 *7034:A *331:10 0
11 *7034:A *420:10 0
12 *7034:A *432:18 0.000100823
13 *7034:A *514:34 0
14 *7033:A *7034:A 3.6462e-05
*RES
1 ui_in[5] *7034:A 30.875 
*END

*D_NET *12 0.00465111
*CONN
*P ui_in[6] I
*I *7035:A I *D sky130_fd_sc_hd__clkdlybuf4s25_1
*CAP
1 ui_in[6] 0.00164726
2 *7035:A 0.00164726
3 *7035:A uo_out[1] 0.000277359
4 *7035:A *6723:A2 1.76727e-05
5 *7035:A *6723:B2 0.000180907
6 *7035:A *6846:D 0.00056892
7 *7035:A *6846:RESET_B 9.23759e-05
8 *7035:A *6881:D 0.000122055
9 *7035:A *316:10 1.40131e-05
10 *7033:A *7035:A 0
11 *7034:A *7035:A 8.32949e-05
*RES
1 ui_in[6] *7035:A 39.7463 
*END

*D_NET *22 0.00228813
*CONN
*P uio_oe[0] O
*I *7058:HI O *D sky130_fd_sc_hd__conb_1
*CAP
1 uio_oe[0] 0.000802852
2 *7058:HI 0.000802852
3 uio_oe[0] uio_oe[1] 3.7536e-05
4 uio_oe[0] uio_oe[2] 0.000277555
5 uio_oe[0] uio_out[7] 0.00025864
6 uio_oe[0] *442:24 0.000108696
*RES
1 *7058:HI uio_oe[0] 23.5883 
*END

*D_NET *23 0.00183233
*CONN
*P uio_oe[1] O
*I *7044:LO O *D sky130_fd_sc_hd__conb_1
*CAP
1 uio_oe[1] 0.000646783
2 *7044:LO 0.000646783
3 uio_oe[1] uio_oe[2] 3.7536e-05
4 uio_oe[1] uio_oe[3] 0.000463691
5 uio_oe[0] uio_oe[1] 3.7536e-05
*RES
1 *7044:LO uio_oe[1] 23.919 
*END

*D_NET *24 0.00179215
*CONN
*P uio_oe[2] O
*I *7045:LO O *D sky130_fd_sc_hd__conb_1
*CAP
1 uio_oe[2] 0.000712308
2 *7045:LO 0.000712308
3 uio_oe[2] uio_oe[3] 5.24482e-05
4 uio_oe[2] uio_oe[5] 0
5 uio_oe[2] *7004:A 0
6 uio_oe[0] uio_oe[2] 0.000277555
7 uio_oe[1] uio_oe[2] 3.7536e-05
*RES
1 *7045:LO uio_oe[2] 22.7611 
*END

*D_NET *25 0.0016172
*CONN
*P uio_oe[3] O
*I *7046:LO O *D sky130_fd_sc_hd__conb_1
*CAP
1 uio_oe[3] 0.000362394
2 *7046:LO 0.000362394
3 uio_oe[3] uio_oe[4] 0.000376276
4 uio_oe[1] uio_oe[3] 0.000463691
5 uio_oe[2] uio_oe[3] 5.24482e-05
*RES
1 *7046:LO uio_oe[3] 22.7698 
*END

*D_NET *26 0.00113911
*CONN
*P uio_oe[4] O
*I *7047:LO O *D sky130_fd_sc_hd__conb_1
*CAP
1 uio_oe[4] 0.000339209
2 *7047:LO 0.000339209
3 uio_oe[4] uio_oe[5] 7.8631e-05
4 uio_oe[4] uio_oe[6] 5.7836e-06
5 uio_oe[3] uio_oe[4] 0.000376276
*RES
1 *7047:LO uio_oe[4] 22.053 
*END

*D_NET *27 0.000823859
*CONN
*P uio_oe[5] O
*I *7048:LO O *D sky130_fd_sc_hd__conb_1
*CAP
1 uio_oe[5] 0.000333207
2 *7048:LO 0.000333207
3 uio_oe[5] uio_oe[6] 7.88136e-05
4 uio_oe[2] uio_oe[5] 0
5 uio_oe[4] uio_oe[5] 7.8631e-05
*RES
1 *7048:LO uio_oe[5] 21.9371 
*END

*D_NET *28 0.000417562
*CONN
*P uio_oe[6] O
*I *7049:LO O *D sky130_fd_sc_hd__conb_1
*CAP
1 uio_oe[6] 0.000124184
2 *7049:LO 0.000124184
3 uio_oe[6] uio_oe[7] 8.45972e-05
4 uio_oe[4] uio_oe[6] 5.7836e-06
5 uio_oe[5] uio_oe[6] 7.88136e-05
*RES
1 *7049:LO uio_oe[6] 21.4044 
*END

*D_NET *29 0.000504761
*CONN
*P uio_oe[7] O
*I *7050:LO O *D sky130_fd_sc_hd__conb_1
*CAP
1 uio_oe[7] 0.000210082
2 *7050:LO 0.000210082
3 uio_oe[6] uio_oe[7] 8.45972e-05
*RES
1 *7050:LO uio_oe[7] 21.5485 
*END

*D_NET *30 0.00150101
*CONN
*P uio_out[0] O
*I *6893:X O *D sky130_fd_sc_hd__buf_2
*CAP
1 uio_out[0] 0.000589475
2 *6893:X 0.000589475
3 uio_out[0] uio_out[1] 7.88136e-05
4 uio_out[0] uo_out[7] 0.000237468
5 uio_out[0] *6883:D 0
6 uio_out[0] *6934:A 5.7836e-06
7 uio_out[0] *442:24 0
*RES
1 *6893:X uio_out[0] 22.6891 
*END

*D_NET *31 0.000569345
*CONN
*P uio_out[1] O
*I *7051:LO O *D sky130_fd_sc_hd__conb_1
*CAP
1 uio_out[1] 0.000192661
2 *7051:LO 0.000192661
3 uio_out[1] uio_out[2] 8.45972e-05
4 uio_out[1] *440:36 2.06112e-05
5 uio_out[0] uio_out[1] 7.88136e-05
*RES
1 *7051:LO uio_out[1] 21.4765 
*END

*D_NET *32 0.000684055
*CONN
*P uio_out[2] O
*I *7052:LO O *D sky130_fd_sc_hd__conb_1
*CAP
1 uio_out[2] 0.000260322
2 *7052:LO 0.000260322
3 uio_out[2] uio_out[3] 7.88136e-05
4 uio_out[1] uio_out[2] 8.45972e-05
*RES
1 *7052:LO uio_out[2] 21.6927 
*END

*D_NET *33 0.00105813
*CONN
*P uio_out[3] O
*I *7053:LO O *D sky130_fd_sc_hd__conb_1
*CAP
1 uio_out[3] 0.000427853
2 *7053:LO 0.000427853
3 uio_out[3] uio_out[4] 0.000123612
4 uio_out[2] uio_out[3] 7.88136e-05
*RES
1 *7053:LO uio_out[3] 22.1251 
*END

*D_NET *34 0.00143542
*CONN
*P uio_out[4] O
*I *7054:LO O *D sky130_fd_sc_hd__conb_1
*CAP
1 uio_out[4] 0.000550327
2 *7054:LO 0.000550327
3 uio_out[4] uio_out[5] 0.000177159
4 uio_out[4] *151:8 2.11419e-05
5 uio_out[4] *442:24 0
6 uio_out[4] *479:48 1.28585e-05
7 uio_out[3] uio_out[4] 0.000123612
*RES
1 *7054:LO uio_out[4] 22.5857 
*END

*D_NET *35 0.00187731
*CONN
*P uio_out[5] O
*I *7055:LO O *D sky130_fd_sc_hd__conb_1
*CAP
1 uio_out[5] 0.000573554
2 *7055:LO 0.000573554
3 uio_out[5] uio_out[6] 0.000430105
4 uio_out[5] *151:8 2.04825e-05
5 uio_out[5] *315:25 5.52302e-05
6 uio_out[5] *442:24 4.7224e-05
7 uio_out[4] uio_out[5] 0.000177159
*RES
1 *7055:LO uio_out[5] 23.7167 
*END

*D_NET *36 0.00352796
*CONN
*P uio_out[6] O
*I *7056:LO O *D sky130_fd_sc_hd__conb_1
*CAP
1 uio_out[6] 0.00103392
2 *7056:LO 0.00103392
3 uio_out[6] uio_out[7] 0.000343347
4 uio_out[6] *6559:C 0.000558197
5 uio_out[6] *152:8 2.64807e-05
6 uio_out[6] *442:24 0
7 uio_out[6] *480:39 0.000101989
8 uio_out[5] uio_out[6] 0.000430105
*RES
1 *7056:LO uio_out[6] 24.9349 
*END

*D_NET *37 0.00164933
*CONN
*P uio_out[7] O
*I *7057:LO O *D sky130_fd_sc_hd__conb_1
*CAP
1 uio_out[7] 0.000444658
2 *7057:LO 0.000444658
3 uio_out[7] *6832:RESET_B 0
4 uio_out[7] *442:24 0.000147839
5 uio_out[7] *480:39 1.01912e-05
6 uio_oe[0] uio_out[7] 0.00025864
7 uio_out[6] uio_out[7] 0.000343347
*RES
1 *7057:LO uio_out[7] 22.9335 
*END

*D_NET *38 0.00280013
*CONN
*P uo_out[0] O
*I *6634:X O *D sky130_fd_sc_hd__mux2_1
*CAP
1 uo_out[0] 0.00130754
2 *6634:X 0.00130754
3 uo_out[0] uo_out[1] 6.62957e-05
4 uo_out[0] uo_out[5] 0
5 uo_out[0] *316:10 0.000118752
6 uo_out[0] *442:24 0
*RES
1 *6634:X uo_out[0] 23.6259 
*END

*D_NET *39 0.0076867
*CONN
*P uo_out[1] O
*I *6635:X O *D sky130_fd_sc_hd__mux2_1
*CAP
1 uo_out[1] 0.00166608
2 *6635:X 0.00166608
3 uo_out[1] uo_out[2] 1.63602e-05
4 uo_out[1] uo_out[4] 0
5 uo_out[1] uo_out[5] 0.00190852
6 uo_out[1] uo_out[6] 0.00109792
7 uo_out[1] *301:31 0.000111084
8 uo_out[1] *302:23 0.00012071
9 uo_out[1] *314:44 0.000471389
10 uo_out[1] *421:6 0.000100388
11 uo_out[0] uo_out[1] 6.62957e-05
12 *7034:A uo_out[1] 0.000184524
13 *7035:A uo_out[1] 0.000277359
*RES
1 *6635:X uo_out[1] 29.8598 
*END

*D_NET *40 0.0139407
*CONN
*P uo_out[2] O
*I *6636:X O *D sky130_fd_sc_hd__mux2_1
*CAP
1 uo_out[2] 0.000940381
2 *6636:X 0.00175458
3 *40:16 0.00269496
4 uo_out[2] uo_out[3] 1.63602e-05
5 uo_out[2] uo_out[6] 0.000787017
6 uo_out[2] *6830:RESET_B 1.17968e-05
7 uo_out[2] *6961:A 0.000254173
8 uo_out[2] *314:27 0
9 uo_out[2] *419:23 4.43046e-05
10 uo_out[2] *419:25 0.00013254
11 uo_out[2] *440:36 0.000161646
12 *40:16 *6559:C 3.86644e-05
13 *40:16 *6635:A0 0.000109268
14 *40:16 *6717:B2 0.000740479
15 *40:16 *6882:D 0.000185643
16 *40:16 *6895:A 8.19661e-06
17 *40:16 *7020:A 0.000438788
18 *40:16 *302:99 0
19 *40:16 *302:105 0
20 *40:16 *302:135 8.48967e-06
21 *40:16 *303:10 5.12625e-05
22 *40:16 *310:8 0.000271898
23 *40:16 *312:14 0.000112186
24 *40:16 *442:24 0.00274765
25 *40:16 *503:55 0.000629681
26 *40:16 *504:76 0.00177511
27 uo_out[1] uo_out[2] 1.63602e-05
28 *7029:A *40:16 9.25014e-06
*RES
1 *6636:X *40:16 42.2168 
2 *40:16 uo_out[2] 19.8218 
*END

*D_NET *41 0.0218767
*CONN
*P uo_out[3] O
*I *6637:X O *D sky130_fd_sc_hd__mux2_1
*CAP
1 uo_out[3] 0.00102385
2 *6637:X 0.00272357
3 *41:14 0.00374743
4 uo_out[3] uo_out[4] 1.63602e-05
5 uo_out[3] uo_out[6] 0.000465995
6 uo_out[3] *6834:RESET_B 7.47832e-05
7 uo_out[3] *7037:A 0
8 uo_out[3] *42:28 0.000611921
9 uo_out[3] *302:56 0.00012632
10 uo_out[3] *314:12 0
11 uo_out[3] *314:58 0
12 uo_out[3] *481:14 0.000107282
13 uo_out[3] *481:18 0.00017913
14 *41:14 *6559:C 0.000341599
15 *41:14 *6618:A0 0.000793028
16 *41:14 *6618:A2 2.87939e-05
17 *41:14 *6637:A0 0
18 *41:14 *6721:A1 4.13465e-05
19 *41:14 *6721:A2 0.000297509
20 *41:14 *6729:A1 0.000281186
21 *41:14 *6729:A2 7.03479e-05
22 *41:14 *6729:B2 7.9062e-05
23 *41:14 *6852:D 5.05573e-05
24 *41:14 *45:16 0
25 *41:14 *153:12 0.000581217
26 *41:14 *154:35 0.00118629
27 *41:14 *290:15 0.00136114
28 *41:14 *312:20 0.000174461
29 *41:14 *335:16 0.000147085
30 *41:14 *337:46 0.00045791
31 *41:14 *451:20 0.00427071
32 *41:14 *477:18 0.00152803
33 *41:14 *507:38 0.00109339
34 uo_out[2] uo_out[3] 1.63602e-05
*RES
1 *6637:X *41:14 47.5612 
2 *41:14 uo_out[3] 24.7816 
*END

*D_NET *42 0.0270256
*CONN
*P uo_out[4] O
*I *6638:X O *D sky130_fd_sc_hd__mux2_1
*CAP
1 uo_out[4] 0.000743014
2 *6638:X 0.00299564
3 *42:28 0.00252813
4 *42:22 0.00524965
5 *42:18 0.00646018
6 uo_out[4] uo_out[5] 9.05068e-05
7 uo_out[4] uo_out[7] 0
8 *42:18 *6638:A0 0
9 *42:18 *6727:B2 4.73953e-05
10 *42:18 *6852:CLK 0
11 *42:18 *503:55 4.98422e-05
12 *42:22 *7576:en 0.000301534
13 *42:22 *154:25 0.00490889
14 *42:22 *205:12 0.000226704
15 *42:22 *481:20 0.000838693
16 *42:28 *6695:A1 0.00012697
17 *42:28 *6949:A 0
18 *42:28 *442:24 0.00012564
19 *42:28 *478:10 0
20 *42:28 *481:18 0.00170457
21 uo_out[1] uo_out[4] 0
22 uo_out[3] uo_out[4] 1.63602e-05
23 uo_out[3] *42:28 0.000611921
*RES
1 *6638:X *42:18 37.8911 
2 *42:18 *42:22 16.1768 
3 *42:22 *42:28 49.442 
4 *42:28 uo_out[4] 5.11297 
*END

*D_NET *43 0.00735924
*CONN
*P uo_out[5] O
*I *6639:X O *D sky130_fd_sc_hd__mux2_1
*CAP
1 uo_out[5] 0.00208277
2 *6639:X 0.00208277
3 uo_out[5] uo_out[6] 0.000301098
4 uo_out[5] uo_out[7] 0
5 uo_out[5] *6639:A1 3.34366e-05
6 uo_out[5] *6723:A2 0
7 uo_out[5] *6877:RESET_B 0.000134807
8 uo_out[5] *6935:A 0
9 uo_out[5] *6951:A 2.89016e-05
10 uo_out[5] *314:44 0.000245009
11 uo_out[5] *421:6 0.000436935
12 uo_out[5] *432:18 1.44903e-05
13 uo_out[0] uo_out[5] 0
14 uo_out[1] uo_out[5] 0.00190852
15 uo_out[4] uo_out[5] 9.05068e-05
*RES
1 *6639:X uo_out[5] 28.2303 
*END

*D_NET *44 0.00898721
*CONN
*P uo_out[6] O
*I *6640:X O *D sky130_fd_sc_hd__mux2_1
*CAP
1 uo_out[6] 0.00165974
2 *6640:X 0.00165974
3 uo_out[6] uo_out[7] 4.09662e-05
4 uo_out[6] *6877:D 0.000436935
5 uo_out[6] *6935:A 0
6 uo_out[6] *302:23 0.00105872
7 uo_out[6] *432:18 1.26686e-05
8 uo_out[6] *440:36 0.000593943
9 uo_out[6] *440:51 0.000872469
10 uo_out[1] uo_out[6] 0.00109792
11 uo_out[2] uo_out[6] 0.000787017
12 uo_out[3] uo_out[6] 0.000465995
13 uo_out[5] uo_out[6] 0.000301098
14 *7034:A uo_out[6] 0
*RES
1 *6640:X uo_out[6] 48.7003 
*END

*D_NET *45 0.0198513
*CONN
*P uo_out[7] O
*I *6641:X O *D sky130_fd_sc_hd__mux2_1
*CAP
1 uo_out[7] 0.00144481
2 *6641:X 0.00466995
3 *45:16 0.00611476
4 *45:16 *6637:A0 9.92967e-05
5 *45:16 *6641:A1 0
6 *45:16 *6721:A2 0
7 *45:16 *6729:A2 0
8 *45:16 *6729:B2 0
9 *45:16 *6852:D 0
10 *45:16 *6855:D 0.000124655
11 *45:16 *6855:RESET_B 0
12 *45:16 *300:18 0.00671365
13 *45:16 *335:16 0
14 *45:16 *348:47 0
15 *45:16 *502:45 0.000405793
16 uio_out[0] uo_out[7] 0.000237468
17 uo_out[4] uo_out[7] 0
18 uo_out[5] uo_out[7] 0
19 uo_out[6] uo_out[7] 4.09662e-05
20 *41:14 *45:16 0
*RES
1 *6641:X *45:16 49.8601 
2 *45:16 uo_out[7] 7.56323 
*END

*D_NET *46 0.00037139
*CONN
*I *6872:D I *D sky130_fd_sc_hd__dfrtp_2
*I *6613:X O *D sky130_fd_sc_hd__or2_2
*CAP
1 *6872:D 8.65659e-05
2 *6613:X 8.65659e-05
3 *6872:D *6872:CLK 5.33005e-05
4 *6872:D *221:24 0.000144958
*RES
1 *6613:X *6872:D 20.9214 
*END

*D_NET *47 0.000278674
*CONN
*I *6874:D I *D sky130_fd_sc_hd__dfrtp_2
*I *6610:Y O *D sky130_fd_sc_hd__o21ai_2
*CAP
1 *6874:D 7.79299e-05
2 *6610:Y 7.79299e-05
3 *6874:D *6768:RESET_B 0.000122814
4 *6874:D *433:21 0
*RES
1 *6610:Y *6874:D 29.2429 
*END

*D_NET *48 0.000349022
*CONN
*I *6795:D I *D sky130_fd_sc_hd__dfrtp_2
*I *6505:Y O *D sky130_fd_sc_hd__inv_2
*CAP
1 *6795:D 0.000127424
2 *6505:Y 0.000127424
3 *6795:D *6505:A 1.58163e-05
4 *6795:D *532:10 7.83587e-05
*RES
1 *6505:Y *6795:D 29.7786 
*END

*D_NET *49 0.00133257
*CONN
*I *6769:D I *D sky130_fd_sc_hd__dfrtp_2
*I *6515:Y O *D sky130_fd_sc_hd__inv_2
*CAP
1 *6769:D 0.000304849
2 *6515:Y 0.000304849
3 *6769:D *6769:RESET_B 0.000118154
4 *6769:D *6863:RESET_B 7.10955e-05
5 *6769:D *7016:A 5.49489e-05
6 *6769:D *501:65 0.000119291
7 *6769:D *533:12 4.38128e-05
8 *6769:D *533:28 0.00031557
*RES
1 *6515:Y *6769:D 35.1357 
*END

*D_NET *50 0.00121695
*CONN
*I *6768:D I *D sky130_fd_sc_hd__dfrtp_2
*I *6516:Y O *D sky130_fd_sc_hd__inv_2
*CAP
1 *6768:D 0.000216657
2 *6516:Y 0.000216657
3 *6768:D *6768:RESET_B 0.000125877
4 *6768:D *6984:A 0.000172609
5 *6768:D *431:10 9.40167e-05
6 *6768:D *431:16 0.000220185
7 *6768:D *501:65 0.000170945
*RES
1 *6516:Y *6768:D 34.6714 
*END

*D_NET *51 0.000616079
*CONN
*I *6767:D I *D sky130_fd_sc_hd__dfrtp_2
*I *6517:Y O *D sky130_fd_sc_hd__inv_2
*CAP
1 *6767:D 0.000232561
2 *6517:Y 0.000232561
3 *6767:D *438:20 0.000122055
4 *6767:D *501:8 0
5 *6767:D *501:14 0
6 *6767:D *501:65 2.89016e-05
7 *6767:D *502:12 0
*RES
1 *6517:Y *6767:D 32.2429 
*END

*D_NET *52 0.000523038
*CONN
*I *6766:D I *D sky130_fd_sc_hd__dfrtp_2
*I *6518:Y O *D sky130_fd_sc_hd__inv_2
*CAP
1 *6766:D 0.000154705
2 *6518:Y 0.000154705
3 *6766:D *6809:CLK 5.01213e-05
4 *6766:D *6810:CLK 2.06507e-05
5 *6766:D *438:45 0.000142856
*RES
1 *6518:Y *6766:D 30.2964 
*END

*D_NET *53 0.000397583
*CONN
*I *6765:D I *D sky130_fd_sc_hd__dfrtp_2
*I *6519:Y O *D sky130_fd_sc_hd__inv_2
*CAP
1 *6765:D 0.000135296
2 *6519:Y 0.000135296
3 *6765:D *6519:A 0.000102207
4 *6765:D *537:6 2.47833e-05
*RES
1 *6519:Y *6765:D 21.1893 
*END

*D_NET *54 0.000971861
*CONN
*I *6764:D I *D sky130_fd_sc_hd__dfrtp_2
*I *6520:Y O *D sky130_fd_sc_hd__inv_2
*CAP
1 *6764:D 0.000286506
2 *6520:Y 0.000286506
3 *6764:D *6520:A 3.18676e-05
4 *6764:D *6764:CLK 0.000187326
5 *6764:D *308:73 0
6 *6764:D *309:8 0.000179656
*RES
1 *6520:Y *6764:D 34.6357 
*END

*D_NET *55 0.000298213
*CONN
*I *6794:D I *D sky130_fd_sc_hd__dfrtp_2
*I *6506:Y O *D sky130_fd_sc_hd__inv_2
*CAP
1 *6794:D 0.000142086
2 *6506:Y 0.000142086
3 *6794:D *6771:RESET_B 0
4 *6794:D *6772:D 2.51343e-06
5 *6794:D *539:14 1.15281e-05
*RES
1 *6506:Y *6794:D 29.7786 
*END

*D_NET *56 0.000873371
*CONN
*I *6793:D I *D sky130_fd_sc_hd__dfrtp_2
*I *6507:Y O *D sky130_fd_sc_hd__inv_2
*CAP
1 *6793:D 0.000323455
2 *6507:Y 0.000323455
3 *6793:D *6507:A 0
4 *6793:D *6761:A 0
5 *6793:D *6762:A 0
6 *6793:D *302:314 8.53294e-05
7 *6793:D *317:8 0.000141132
*RES
1 *6507:Y *6793:D 32.35 
*END

*D_NET *57 0.000906739
*CONN
*I *6792:D I *D sky130_fd_sc_hd__dfrtp_2
*I *6508:Y O *D sky130_fd_sc_hd__inv_2
*CAP
1 *6792:D 0.000348388
2 *6508:Y 0.000348388
3 *6792:D *6792:CLK 7.0272e-05
4 *6792:D *7008:A 5.57914e-05
5 *6792:D *403:47 8.39e-05
*RES
1 *6508:Y *6792:D 34.6 
*END

*D_NET *58 0.000350118
*CONN
*I *6791:D I *D sky130_fd_sc_hd__dfrtp_2
*I *6509:Y O *D sky130_fd_sc_hd__inv_2
*CAP
1 *6791:D 0.000159125
2 *6509:Y 0.000159125
3 *6791:D *6509:A 3.18676e-05
*RES
1 *6509:Y *6791:D 29.8857 
*END

*D_NET *59 0.000236374
*CONN
*I *6790:D I *D sky130_fd_sc_hd__dfrtp_2
*I *6510:Y O *D sky130_fd_sc_hd__inv_2
*CAP
1 *6790:D 0.000118187
2 *6510:Y 0.000118187
3 *6790:D *6775:CLK 0
*RES
1 *6510:Y *6790:D 29.2295 
*END

*D_NET *60 0.000771645
*CONN
*I *6789:D I *D sky130_fd_sc_hd__dfrtp_2
*I *6511:Y O *D sky130_fd_sc_hd__inv_2
*CAP
1 *6789:D 0.000134574
2 *6511:Y 0.000134574
3 *6789:D *6758:A 4.6025e-06
4 *6789:D *6788:CLK 1.10866e-05
5 *6789:D *6789:CLK 9.69712e-05
6 *6789:D *303:64 9.31209e-05
7 *6789:D *544:6 0.000180777
8 *6789:D *544:21 0.00011594
*RES
1 *6511:Y *6789:D 31.3143 
*END

*D_NET *61 0.000572148
*CONN
*I *6788:D I *D sky130_fd_sc_hd__dfrtp_2
*I *6512:Y O *D sky130_fd_sc_hd__inv_2
*CAP
1 *6788:D 6.07487e-05
2 *6512:Y 6.07487e-05
3 *6788:D *6512:A 6.84283e-05
4 *6788:D *6788:CLK 0.000144773
5 *6788:D *402:80 0.000237449
*RES
1 *6512:Y *6788:D 21.7429 
*END

*D_NET *62 0.000551086
*CONN
*I *6787:D I *D sky130_fd_sc_hd__dfrtp_2
*I *6513:Y O *D sky130_fd_sc_hd__inv_2
*CAP
1 *6787:D 7.68825e-05
2 *6513:Y 7.68825e-05
3 *6787:D *6513:A 0.000100823
4 *6787:D *6781:D 7.32173e-05
5 *6787:D *6788:RESET_B 8.33803e-05
6 *6787:D *512:57 0.0001399
*RES
1 *6513:Y *6787:D 30.2964 
*END

*D_NET *63 0.000657094
*CONN
*I *6770:D I *D sky130_fd_sc_hd__dfrtp_2
*I *6514:Y O *D sky130_fd_sc_hd__inv_2
*CAP
1 *6770:D 0.000235748
2 *6514:Y 0.000235748
3 *6770:D *6770:RESET_B 0
4 *6770:D *6787:RESET_B 0.000125877
5 *6770:D *512:57 5.97211e-05
*RES
1 *6514:Y *6770:D 32.5464 
*END

*D_NET *64 0.000953066
*CONN
*I *6764:CLK I *D sky130_fd_sc_hd__dfrtp_2
*I *6749:Y O *D sky130_fd_sc_hd__inv_2
*CAP
1 *6764:CLK 0.000289207
2 *6749:Y 0.000289207
3 *6764:CLK *6749:A 0.000187326
4 *6764:D *6764:CLK 0.000187326
*RES
1 *6749:Y *6764:CLK 35.0464 
*END

*D_NET *65 0.000574571
*CONN
*I *6765:CLK I *D sky130_fd_sc_hd__dfrtp_2
*I *6750:Y O *D sky130_fd_sc_hd__inv_2
*CAP
1 *6765:CLK 0.000170085
2 *6750:Y 0.000170085
3 *6765:CLK *6867:RESET_B 5.16852e-05
4 *6765:CLK *309:38 7.03393e-05
5 *6765:CLK *518:8 5.52302e-05
6 *6765:CLK *536:28 5.71472e-05
*RES
1 *6750:Y *6765:CLK 31.3143 
*END

*D_NET *66 0.000724371
*CONN
*I *6766:CLK I *D sky130_fd_sc_hd__dfrtp_2
*I *6751:Y O *D sky130_fd_sc_hd__inv_2
*CAP
1 *6766:CLK 0.000247427
2 *6751:Y 0.000247427
3 *6766:CLK *6783:D 8.25843e-06
4 *6766:CLK *6809:CLK 0
5 *6766:CLK *6810:CLK 0.000128146
6 *6766:CLK *307:71 9.3111e-05
*RES
1 *6751:Y *6766:CLK 31.4214 
*END

*D_NET *67 0.00128443
*CONN
*I *6767:CLK I *D sky130_fd_sc_hd__dfrtp_2
*I *6752:Y O *D sky130_fd_sc_hd__inv_2
*CAP
1 *6767:CLK 0.000363009
2 *6752:Y 0.000363009
3 *6767:CLK *6869:RESET_B 0.000202621
4 *6767:CLK *307:28 1.19402e-05
5 *6767:CLK *307:58 3.25247e-05
6 *6767:CLK *438:20 2.27416e-05
7 *6767:CLK *438:65 0
8 *6767:CLK *439:25 0
9 *6767:CLK *501:65 0.000288586
*RES
1 *6752:Y *6767:CLK 36.725 
*END

*D_NET *68 0.000184681
*CONN
*I *6768:CLK I *D sky130_fd_sc_hd__dfrtp_2
*I *6753:Y O *D sky130_fd_sc_hd__inv_2
*CAP
1 *6768:CLK 2.58925e-05
2 *6753:Y 2.58925e-05
3 *6768:CLK *6768:RESET_B 9.80173e-05
4 *6768:CLK *501:65 3.4879e-05
*RES
1 *6753:Y *6768:CLK 19.5464 
*END

*D_NET *69 0.000900667
*CONN
*I *6769:CLK I *D sky130_fd_sc_hd__dfrtp_2
*I *6754:Y O *D sky130_fd_sc_hd__inv_2
*CAP
1 *6769:CLK 0.000115052
2 *6754:Y 0.000115052
3 *6769:CLK *6740:B2 0.000363528
4 *6769:CLK *6769:RESET_B 9.38453e-05
5 *6769:CLK *6973:A 0.00014285
6 *6769:CLK *311:87 7.03393e-05
*RES
1 *6754:Y *6769:CLK 23.7786 
*END

*D_NET *70 0.000236687
*CONN
*I *6770:CLK I *D sky130_fd_sc_hd__dfrtp_2
*I *6755:Y O *D sky130_fd_sc_hd__inv_2
*CAP
1 *6770:CLK 4.59573e-05
2 *6755:Y 4.59573e-05
3 *6770:CLK *6787:RESET_B 0.000144773
*RES
1 *6755:Y *6770:CLK 19.9571 
*END

*D_NET *71 0.000532131
*CONN
*I *6787:CLK I *D sky130_fd_sc_hd__dfrtp_2
*I *6756:Y O *D sky130_fd_sc_hd__inv_2
*CAP
1 *6787:CLK 0.000176292
2 *6756:Y 0.000176292
3 *6787:CLK *6513:A 0
4 *6787:CLK *6778:RESET_B 0.000144773
5 *6787:CLK *425:10 3.47737e-05
*RES
1 *6756:Y *6787:CLK 30.6 
*END

*D_NET *72 0.00172251
*CONN
*I *6788:CLK I *D sky130_fd_sc_hd__dfrtp_2
*I *6757:Y O *D sky130_fd_sc_hd__inv_2
*CAP
1 *6788:CLK 0.0003627
2 *6757:Y 0.0003627
3 *6788:CLK *6512:A 0.000186669
4 *6788:CLK *6590:C1 5.32236e-05
5 *6788:CLK *6757:A 5.71472e-05
6 *6788:CLK *6777:RESET_B 0
7 *6788:CLK *6789:CLK 6.87975e-06
8 *6788:CLK *6861:RESET_B 9.93135e-05
9 *6788:CLK *7011:A 0
10 *6788:CLK *396:57 0
11 *6788:CLK *402:80 0.000287795
12 *6788:CLK *544:21 9.49984e-05
13 *6788:CLK *1084:28 5.52238e-05
14 *6788:D *6788:CLK 0.000144773
15 *6789:D *6788:CLK 1.10866e-05
*RES
1 *6757:Y *6788:CLK 36.7429 
*END

*D_NET *73 0.000526927
*CONN
*I *6789:CLK I *D sky130_fd_sc_hd__dfrtp_2
*I *6758:Y O *D sky130_fd_sc_hd__inv_2
*CAP
1 *6789:CLK 0.000135814
2 *6758:Y 0.000135814
3 *6789:CLK *396:57 5.04881e-05
4 *6789:CLK *1084:28 0.00010096
5 *6788:CLK *6789:CLK 6.87975e-06
6 *6789:D *6789:CLK 9.69712e-05
*RES
1 *6758:Y *6789:CLK 30.1893 
*END

*D_NET *74 0.000698873
*CONN
*I *6790:CLK I *D sky130_fd_sc_hd__dfrtp_2
*I *6759:Y O *D sky130_fd_sc_hd__inv_2
*CAP
1 *6790:CLK 0.000222513
2 *6759:Y 0.000222513
3 *6790:CLK *6759:A 5.71472e-05
4 *6790:CLK *6775:CLK 0.000196699
*RES
1 *6759:Y *6790:CLK 31.4214 
*END

*D_NET *75 0.000646667
*CONN
*I *6791:CLK I *D sky130_fd_sc_hd__dfrtp_2
*I *6760:Y O *D sky130_fd_sc_hd__inv_2
*CAP
1 *6791:CLK 0.000311963
2 *6760:Y 0.000311963
3 *6791:CLK *6760:A 2.27416e-05
*RES
1 *6760:Y *6791:CLK 31.8321 
*END

*D_NET *76 0.00111828
*CONN
*I *6792:CLK I *D sky130_fd_sc_hd__dfrtp_2
*I *6761:Y O *D sky130_fd_sc_hd__inv_2
*CAP
1 *6792:CLK 0.000455078
2 *6761:Y 0.000455078
3 *6792:CLK *6734:A1 6.05161e-06
4 *6792:CLK *6734:A2 1.7491e-05
5 *6792:CLK *6761:A 0.000100447
6 *6792:CLK *6774:CLK 7.01943e-06
7 *6792:CLK *541:32 6.8445e-06
8 *6792:D *6792:CLK 7.0272e-05
*RES
1 *6761:Y *6792:CLK 34.3857 
*END

*D_NET *77 0.00024627
*CONN
*I *6793:CLK I *D sky130_fd_sc_hd__dfrtp_2
*I *6762:Y O *D sky130_fd_sc_hd__inv_2
*CAP
1 *6793:CLK 5.07484e-05
2 *6762:Y 5.07484e-05
3 *6793:CLK *403:21 0.000144773
*RES
1 *6762:Y *6793:CLK 19.9571 
*END

*D_NET *78 0.000373848
*CONN
*I *6794:CLK I *D sky130_fd_sc_hd__dfrtp_2
*I *6763:Y O *D sky130_fd_sc_hd__inv_2
*CAP
1 *6794:CLK 0.000168391
2 *6763:Y 0.000168391
3 *6794:CLK *6763:A 3.18676e-05
4 *6794:CLK *6771:RESET_B 0
5 *6794:CLK *499:12 5.19842e-06
*RES
1 *6763:Y *6794:CLK 30.1893 
*END

*D_NET *79 0.000191114
*CONN
*I *6812:D I *D sky130_fd_sc_hd__dfrtp_2
*I *6643:Y O *D sky130_fd_sc_hd__nor2_2
*CAP
1 *6812:D 6.81845e-05
2 *6643:Y 6.81845e-05
3 *6812:D *337:22 0
4 *3:16 *6812:D 5.47453e-05
*RES
1 *6643:Y *6812:D 28.9393 
*END

*D_NET *80 0.000830365
*CONN
*I *6813:D I *D sky130_fd_sc_hd__dfrtp_2
*I *6645:X O *D sky130_fd_sc_hd__mux2_1
*CAP
1 *6813:D 0.000276195
2 *6645:X 0.000276195
3 *6813:D *6813:CLK 0.000136571
4 *6813:D *317:27 2.8078e-05
5 *6813:D *317:42 3.63281e-05
6 *6813:D *531:18 7.6997e-05
*RES
1 *6645:X *6813:D 32.6 
*END

*D_NET *81 0.000370984
*CONN
*I *6814:D I *D sky130_fd_sc_hd__dfrtp_2
*I *6647:X O *D sky130_fd_sc_hd__mux2_1
*CAP
1 *6814:D 0.00013483
2 *6647:X 0.00013483
3 *6814:D *6647:A0 5.62995e-05
4 *6814:D *6814:RESET_B 1.02504e-05
5 *6814:D *6820:CLK 3.47737e-05
6 *6814:D *435:73 0
*RES
1 *6647:X *6814:D 29.8857 
*END

*D_NET *82 0.000575781
*CONN
*I *6815:D I *D sky130_fd_sc_hd__dfrtp_2
*I *6649:X O *D sky130_fd_sc_hd__a32o_2
*CAP
1 *6815:D 0.0002845
2 *6649:X 0.0002845
3 *6815:D *6649:A2 6.78055e-06
4 *6815:D *6818:RESET_B 0
5 *6815:D *305:83 0
6 *6815:D *435:20 0
7 *6815:D *439:60 0
*RES
1 *6649:X *6815:D 31.9036 
*END

*D_NET *83 0.000325748
*CONN
*I *6816:D I *D sky130_fd_sc_hd__dfrtp_2
*I *6652:X O *D sky130_fd_sc_hd__and2_2
*CAP
1 *6816:D 8.16318e-05
2 *6652:X 8.16318e-05
3 *6816:D *6650:A1 5.52238e-05
4 *6816:D *6818:CLK 0
5 *6816:D *197:21 7.83587e-05
6 *6816:D *381:92 2.89016e-05
*RES
1 *6652:X *6816:D 29.475 
*END

*D_NET *84 0.00064198
*CONN
*I *6817:D I *D sky130_fd_sc_hd__dfrtp_2
*I *6654:X O *D sky130_fd_sc_hd__a22o_2
*CAP
1 *6817:D 0.000271607
2 *6654:X 0.000271607
3 *6817:D *6653:A 5.35217e-05
4 *6817:D *6653:B 0
5 *6817:D *6654:A2 1.18064e-05
6 *6817:D *6818:CLK 3.34366e-05
7 *6817:D *6920:A 0
8 *6817:D *6976:A 0
9 *6817:D *398:14 0
*RES
1 *6654:X *6817:D 32.8857 
*END

*D_NET *85 0.00155571
*CONN
*I *6818:D I *D sky130_fd_sc_hd__dfrtp_2
*I *6658:X O *D sky130_fd_sc_hd__a32o_2
*CAP
1 *6818:D 0.000239101
2 *6658:X 0.000239101
3 *6818:D *6818:RESET_B 2.0714e-05
4 *6818:D *193:18 0.000213406
5 *6818:D *381:107 0.0004903
6 *6818:D *397:92 0.000353086
*RES
1 *6658:X *6818:D 27.7607 
*END

*D_NET *86 0.00110267
*CONN
*I *6819:D I *D sky130_fd_sc_hd__dfrtp_2
*I *6662:X O *D sky130_fd_sc_hd__a32o_2
*CAP
1 *6819:D 0.000391004
2 *6662:X 0.000391004
3 *6819:D *6605:B 6.5185e-05
4 *6819:D *6605:C 0.000149489
5 *6819:D *6916:A 2.59093e-05
6 *6819:D *1096:10 8.00806e-05
*RES
1 *6662:X *6819:D 35.5286 
*END

*D_NET *87 0.000805859
*CONN
*I *6820:D I *D sky130_fd_sc_hd__dfrtp_2
*I *6665:X O *D sky130_fd_sc_hd__a32o_2
*CAP
1 *6820:D 0.000228288
2 *6665:X 0.000228288
3 *6820:D *6656:A 0
4 *6820:D *6665:B1 4.25622e-05
5 *6820:D *381:135 3.72932e-05
6 *6820:D *397:101 0.000269428
*RES
1 *6665:X *6820:D 32.6536 
*END

*D_NET *88 0.000986158
*CONN
*I *6821:D I *D sky130_fd_sc_hd__dfrtp_2
*I *6670:X O *D sky130_fd_sc_hd__a32o_2
*CAP
1 *6821:D 0.000294168
2 *6670:X 0.000294168
3 *6821:D *6670:B1 6.47484e-05
4 *6821:D *6670:B2 0.000301654
5 *6821:D *397:33 3.14193e-05
*RES
1 *6670:X *6821:D 25.2964 
*END

*D_NET *89 0.00110613
*CONN
*I *6822:D I *D sky130_fd_sc_hd__dfrtp_2
*I *6673:X O *D sky130_fd_sc_hd__a2bb2o_2
*CAP
1 *6822:D 0.000388347
2 *6673:X 0.000388347
3 *6822:D *6673:B1 2.31176e-05
4 *6822:D *1099:24 8.46829e-05
5 *6822:D *1099:32 0.000221634
*RES
1 *6673:X *6822:D 23.6714 
*END

*D_NET *90 0.000618245
*CONN
*I *6823:D I *D sky130_fd_sc_hd__dfrtp_2
*I *6676:X O *D sky130_fd_sc_hd__a2bb2o_2
*CAP
1 *6823:D 0.000215788
2 *6676:X 0.000215788
3 *6823:D *6679:A3 0
4 *6823:D *1100:22 0.000186669
*RES
1 *6676:X *6823:D 30.7071 
*END

*D_NET *91 0.000991616
*CONN
*I *6824:D I *D sky130_fd_sc_hd__dfrtp_2
*I *6679:X O *D sky130_fd_sc_hd__a32o_2
*CAP
1 *6824:D 0.00039756
2 *6679:X 0.00039756
3 *6824:D *6824:RESET_B 9.84792e-05
4 *6824:D *1086:8 9.80173e-05
*RES
1 *6679:X *6824:D 26.1179 
*END

*D_NET *92 0.00181261
*CONN
*I *6825:D I *D sky130_fd_sc_hd__dfrtp_2
*I *6684:X O *D sky130_fd_sc_hd__a31o_2
*CAP
1 *6825:D 0.000714263
2 *6684:X 0.000714263
3 *6825:D *6680:C 0.000126639
4 *6825:D *6825:CLK 3.17211e-05
5 *6825:D *6825:RESET_B 4.60179e-05
6 *6825:D *6999:A 2.89016e-05
7 *6825:D *246:12 4.92614e-05
8 *6825:D *1087:10 0.000101545
*RES
1 *6684:X *6825:D 37.8723 
*END

*D_NET *93 0.000659859
*CONN
*I *6826:D I *D sky130_fd_sc_hd__dfrtp_2
*I *6686:X O *D sky130_fd_sc_hd__a31o_2
*CAP
1 *6826:D 0.00028985
2 *6686:X 0.00028985
3 *6826:D *6614:A2 5.26184e-05
4 *6826:D *6620:A1 1.02504e-05
5 *6826:D *6686:A2 1.72894e-05
6 *6826:D *6826:RESET_B 0
*RES
1 *6686:X *6826:D 32.5464 
*END

*D_NET *94 0.00106495
*CONN
*I *6827:D I *D sky130_fd_sc_hd__dfrtp_2
*I *6689:X O *D sky130_fd_sc_hd__a32o_2
*CAP
1 *6827:D 0.000498943
2 *6689:X 0.000498943
3 *6827:D *6614:B2 0
4 *6827:D *7221:A 0
5 *6827:D *205:32 6.70624e-05
*RES
1 *6689:X *6827:D 35.9214 
*END

*D_NET *95 0.00111384
*CONN
*I *6828:D I *D sky130_fd_sc_hd__dfrtp_2
*I *6692:X O *D sky130_fd_sc_hd__o22a_2
*CAP
1 *6828:D 0.00041312
2 *6692:X 0.00041312
3 *6828:D *428:75 0.000145771
4 *6828:D *1090:6 0.00014183
*RES
1 *6692:X *6828:D 26.5286 
*END

*D_NET *96 0.000433672
*CONN
*I *6829:D I *D sky130_fd_sc_hd__dfrtp_2
*I *6694:X O *D sky130_fd_sc_hd__a31o_2
*CAP
1 *6829:D 9.91956e-05
2 *6694:X 9.91956e-05
3 *6829:D *6606:C 3.18676e-05
4 *6829:D *6690:A1 0
5 *6829:D *6693:A2 5.52238e-05
6 *6829:D *6829:RESET_B 0.000148189
*RES
1 *6694:X *6829:D 30.0821 
*END

*D_NET *97 0.000776995
*CONN
*I *6830:D I *D sky130_fd_sc_hd__dfrtp_2
*I *6695:X O *D sky130_fd_sc_hd__mux2_1
*CAP
1 *6830:D 0.0003602
2 *6695:X 0.0003602
3 *6830:D *6695:A1 5.65955e-05
4 *6830:D *6830:CLK 0
*RES
1 *6695:X *6830:D 33.2786 
*END

*D_NET *98 0.000809392
*CONN
*I *6831:D I *D sky130_fd_sc_hd__dfrtp_2
*I *6696:X O *D sky130_fd_sc_hd__mux2_1
*CAP
1 *6831:D 0.000249204
2 *6696:X 0.000249204
3 *6831:D *6831:RESET_B 0
4 *6831:D *7026:A 0.000276211
5 *6831:D *335:16 3.47737e-05
*RES
1 *6696:X *6831:D 31.5286 
*END

*D_NET *99 0.0015361
*CONN
*I *6832:D I *D sky130_fd_sc_hd__dfrtp_2
*I *6697:X O *D sky130_fd_sc_hd__mux2_1
*CAP
1 *6832:D 0.000554072
2 *6697:X 0.000554072
3 *6832:D *315:25 0.000427961
*RES
1 *6697:X *6832:D 26.1759 
*END

*D_NET *100 0.000915719
*CONN
*I *6833:D I *D sky130_fd_sc_hd__dfrtp_2
*I *6698:X O *D sky130_fd_sc_hd__mux2_1
*CAP
1 *6833:D 0.000301755
2 *6698:X 0.000301755
3 *6833:D *151:8 0
4 *6833:D *152:8 0
5 *6833:D *480:20 0.000312209
*RES
1 *6698:X *6833:D 31.9393 
*END

*D_NET *101 0.000857152
*CONN
*I *6834:D I *D sky130_fd_sc_hd__dfrtp_2
*I *6699:X O *D sky130_fd_sc_hd__mux2_1
*CAP
1 *6834:D 0.000231142
2 *6699:X 0.000231142
3 *6834:D *6695:A1 0.00032592
4 *6834:D *6949:A 5.56943e-05
5 *6834:D *478:39 1.32552e-05
*RES
1 *6699:X *6834:D 31.5286 
*END

*D_NET *102 0.0011516
*CONN
*I *6835:D I *D sky130_fd_sc_hd__dfrtp_2
*I *6707:X O *D sky130_fd_sc_hd__a21o_2
*CAP
1 *6835:D 0.000189041
2 *6707:X 0.000189041
3 *6835:D *6504:A 7.77751e-05
4 *6835:D *6835:CLK 0.000467103
5 *6835:D *6835:RESET_B 0.000125877
6 *6835:D *6964:A 0.000102765
*RES
1 *6707:X *6835:D 26.5286 
*END

*D_NET *103 0.000720298
*CONN
*I *6836:D I *D sky130_fd_sc_hd__dfrtp_2
*I *6708:X O *D sky130_fd_sc_hd__o22a_2
*CAP
1 *6836:D 0.000270874
2 *6708:X 0.000270874
3 *6836:D *6706:C 0
4 *6836:D *6708:B1 5.52238e-05
5 *6836:D *6708:B2 6.24386e-05
6 *6836:D *256:12 2.06413e-05
7 *6836:D *302:272 4.02462e-05
*RES
1 *6708:X *6836:D 32.1714 
*END

*D_NET *104 0.000372572
*CONN
*I *6837:D I *D sky130_fd_sc_hd__dfrtp_2
*I *6709:X O *D sky130_fd_sc_hd__and2_2
*CAP
1 *6837:D 9.91583e-05
2 *6709:X 9.91583e-05
3 *6837:D *305:59 0.00010096
4 *6837:D *305:68 7.32955e-05
*RES
1 *6709:X *6837:D 20.7786 
*END

*D_NET *105 0.000890274
*CONN
*I *6838:D I *D sky130_fd_sc_hd__dfrtp_2
*I *6713:Y O *D sky130_fd_sc_hd__a21oi_2
*CAP
1 *6838:D 0.000286596
2 *6713:Y 0.000286596
3 *6838:D *6713:B1 0
4 *6838:D *143:8 0.000317082
*RES
1 *6713:Y *6838:D 31.9393 
*END

*D_NET *106 0.000761919
*CONN
*I *6839:D I *D sky130_fd_sc_hd__dfrtp_2
*I *6714:X O *D sky130_fd_sc_hd__a22o_2
*CAP
1 *6839:D 0.000231585
2 *6714:X 0.000231585
3 *6839:D *6838:CLK 0.000199706
4 *6839:D *6839:CLK 9.90431e-05
*RES
1 *6714:X *6839:D 32.3321 
*END

*D_NET *107 0.00130208
*CONN
*I *6840:D I *D sky130_fd_sc_hd__dfrtp_2
*I *6717:X O *D sky130_fd_sc_hd__a22o_2
*CAP
1 *6840:D 0.000121293
2 *6717:X 0.000121293
3 *6840:D *6717:B2 2.3224e-05
4 *6840:D *6725:A1 0.000104974
5 *6840:D *337:85 0
6 *6840:D *475:124 0.00036192
7 *6840:D *477:10 0.00010326
8 *6840:D *477:18 0.000102282
9 *6840:D *478:39 0.000363837
*RES
1 *6717:X *6840:D 33.5643 
*END

*D_NET *108 0.000687947
*CONN
*I *6841:D I *D sky130_fd_sc_hd__dfrtp_2
*I *6718:X O *D sky130_fd_sc_hd__a22o_2
*CAP
1 *6841:D 0.000211166
2 *6718:X 0.000211166
3 *6841:D *6718:A1 0.000173226
4 *6841:D *475:110 9.23883e-05
*RES
1 *6718:X *6841:D 30.6313 
*END

*D_NET *109 0.00217601
*CONN
*I *6842:D I *D sky130_fd_sc_hd__dfrtp_2
*I *6719:X O *D sky130_fd_sc_hd__a22o_2
*CAP
1 *6842:D 0.000512915
2 *6719:X 0.000512915
3 *6842:D *6618:A2 3.10885e-05
4 *6842:D *6718:A1 8.92551e-05
5 *6842:D *6719:B1 0.000185124
6 *6842:D *6842:CLK 0.000117543
7 *6842:D *290:15 1.38167e-05
8 *6842:D *300:12 2.33602e-05
9 *6842:D *310:10 0
10 *6842:D *310:14 0
11 *6842:D *337:46 0.000399519
12 *6842:D *422:64 0.000212057
13 *6842:D *513:59 7.84126e-05
*RES
1 *6719:X *6842:D 40.3679 
*END

*D_NET *110 0.00110122
*CONN
*I *6843:D I *D sky130_fd_sc_hd__dfrtp_2
*I *6720:X O *D sky130_fd_sc_hd__a22o_2
*CAP
1 *6843:D 0.000285938
2 *6720:X 0.000285938
3 *6843:D *6637:A0 0.000118592
4 *6843:D *6720:A1 0.000164204
5 *6843:D *6720:A2 2.03618e-05
6 *6843:D *6720:B2 5.52302e-05
7 *6843:D *302:17 0
8 *6843:D *501:103 0.000170955
*RES
1 *6720:X *6843:D 34.2964 
*END

*D_NET *111 0.00189404
*CONN
*I *6844:D I *D sky130_fd_sc_hd__dfrtp_2
*I *6721:X O *D sky130_fd_sc_hd__a22o_2
*CAP
1 *6844:D 0.00030081
2 *6721:X 0.00030081
3 *6844:D *6844:RESET_B 1.035e-05
4 *6844:D *337:24 0.000666739
5 *6844:D *440:76 0.000615331
*RES
1 *6721:X *6844:D 36.4393 
*END

*D_NET *112 0.00204869
*CONN
*I *6845:D I *D sky130_fd_sc_hd__dfrtp_2
*I *6722:X O *D sky130_fd_sc_hd__a22o_2
*CAP
1 *6845:D 0.00027595
2 *6722:X 0.00027595
3 *6845:D *272:10 0.000189021
4 *6845:D *337:71 0.000186669
5 *6845:D *337:77 0.000359997
6 *6845:D *337:105 0
7 *6845:D *475:124 5.45686e-05
8 *6845:D *478:39 0.000706537
*RES
1 *6722:X *6845:D 36.85 
*END

*D_NET *113 0.00124006
*CONN
*I *6846:D I *D sky130_fd_sc_hd__dfrtp_2
*I *6723:X O *D sky130_fd_sc_hd__a22o_2
*CAP
1 *6846:D 9.36135e-05
2 *6723:X 9.36135e-05
3 *6846:D *6723:B2 0.000483915
4 *7035:A *6846:D 0.00056892
*RES
1 *6723:X *6846:D 23.9884 
*END

*D_NET *114 0.000739237
*CONN
*I *6847:D I *D sky130_fd_sc_hd__dfrtp_2
*I *6724:X O *D sky130_fd_sc_hd__a22o_2
*CAP
1 *6847:D 0.000200024
2 *6724:X 0.000200024
3 *6847:D *311:18 0.000181796
4 *6847:D *348:41 9.47456e-05
5 *6847:D *370:31 6.26466e-05
*RES
1 *6724:X *6847:D 31.6179 
*END

*D_NET *115 0.00124559
*CONN
*I *6848:D I *D sky130_fd_sc_hd__dfrtp_2
*I *6725:X O *D sky130_fd_sc_hd__a22o_2
*CAP
1 *6848:D 0.000437694
2 *6725:X 0.000437694
3 *6848:D *6634:A0 0
4 *6848:D *6717:A2 5.54183e-05
5 *6848:D *6840:RESET_B 4.75521e-05
6 *6848:D *6884:RESET_B 0.000119065
7 *6848:D *6961:A 0.000148167
8 *6848:D *419:25 0
*RES
1 *6725:X *6848:D 36.6357 
*END

*D_NET *116 0.00046934
*CONN
*I *6849:D I *D sky130_fd_sc_hd__dfrtp_2
*I *6726:X O *D sky130_fd_sc_hd__a22o_2
*CAP
1 *6849:D 0.000131848
2 *6726:X 0.000131848
3 *6849:D *6640:A1 0.000177234
4 *6849:D *6723:B2 2.84109e-05
5 *6849:D *6849:RESET_B 0
6 *6849:D *6875:D 0
7 *6849:D *334:10 0
*RES
1 *6726:X *6849:D 30.3857 
*END

*D_NET *117 0.00240041
*CONN
*I *6850:D I *D sky130_fd_sc_hd__dfrtp_2
*I *6727:X O *D sky130_fd_sc_hd__a22o_2
*CAP
1 *6850:D 0.000818831
2 *6727:X 0.000818831
3 *6850:D *6636:A0 0.000123673
4 *6850:D *6719:A1 0.0002302
5 *6850:D *6844:RESET_B 0.00021355
6 *6850:D *6850:RESET_B 0
7 *6850:D *6882:RESET_B 0.000166926
8 *6850:D *301:45 2.84026e-05
9 *6850:D *310:10 0
*RES
1 *6727:X *6850:D 41.975 
*END

*D_NET *118 0.0031033
*CONN
*I *6851:D I *D sky130_fd_sc_hd__dfrtp_2
*I *6728:X O *D sky130_fd_sc_hd__a22o_2
*CAP
1 *6851:D 0.000784132
2 *6728:X 0.000784132
3 *6851:D *6637:A1 9.90367e-05
4 *6851:D *6641:A0 6.50734e-05
5 *6851:D *6851:RESET_B 4.33438e-05
6 *6851:D *6966:A 0.000185939
7 *6851:D *311:18 0.000954682
8 *6851:D *312:29 7.77652e-05
9 *6851:D *321:6 5.33005e-05
10 *6851:D *332:10 5.59013e-05
11 *6851:D *348:35 0
*RES
1 *6728:X *6851:D 40.975 
*END

*D_NET *119 0.00206654
*CONN
*I *6852:D I *D sky130_fd_sc_hd__dfrtp_2
*I *6729:X O *D sky130_fd_sc_hd__a22o_2
*CAP
1 *6852:D 0.00069043
2 *6729:X 0.00069043
3 *6852:D *6637:A0 3.47641e-06
4 *6852:D *6729:A2 5.4826e-05
5 *6852:D *6852:RESET_B 0.000215528
6 *6852:D *6855:RESET_B 0.000214967
7 *6852:D *303:10 0.000146321
8 *41:14 *6852:D 5.05573e-05
9 *45:16 *6852:D 0
*RES
1 *6729:X *6852:D 37.7964 
*END

*D_NET *120 0.00074722
*CONN
*I *6853:D I *D sky130_fd_sc_hd__dfrtp_2
*I *6730:X O *D sky130_fd_sc_hd__a22o_2
*CAP
1 *6853:D 0.000156589
2 *6730:X 0.000156589
3 *6853:D *6723:A2 0
4 *6853:D *6730:A1 1.99877e-05
5 *6853:D *6935:A 9.44259e-05
6 *6853:D *7038:A 0.000169973
7 *6853:D *323:10 7.77652e-05
8 *6853:D *359:89 2.14302e-05
9 *6853:D *432:18 5.04589e-05
*RES
1 *6730:X *6853:D 32.1223 
*END

*D_NET *121 0.00128589
*CONN
*I *6854:D I *D sky130_fd_sc_hd__dfrtp_2
*I *6731:X O *D sky130_fd_sc_hd__a22o_2
*CAP
1 *6854:D 0.000386351
2 *6731:X 0.000386351
3 *6854:D *6731:B2 0
4 *6854:D *6854:CLK 0.000125543
5 *6854:D *337:67 5.33005e-05
6 *6854:D *359:79 5.55405e-05
7 *6854:D *451:20 0.000273025
8 *6854:D *478:39 5.7836e-06
*RES
1 *6731:X *6854:D 34.1402 
*END

*D_NET *122 0.00128558
*CONN
*I *6855:D I *D sky130_fd_sc_hd__dfrtp_2
*I *6732:X O *D sky130_fd_sc_hd__a22o_2
*CAP
1 *6855:D 0.000453795
2 *6732:X 0.000453795
3 *6855:D *6641:A1 0
4 *6855:D *6812:RESET_B 3.36426e-05
5 *6855:D *348:41 0
6 *6855:D *505:81 0.000219692
7 *45:16 *6855:D 0.000124655
*RES
1 *6732:X *6855:D 34.2964 
*END

*D_NET *123 0.000946291
*CONN
*I *6856:D I *D sky130_fd_sc_hd__dfrtp_2
*I *6733:X O *D sky130_fd_sc_hd__a22o_2
*CAP
1 *6856:D 0.000340941
2 *6733:X 0.000340941
3 *6856:D *6716:A 0
4 *6856:D *6733:B2 0.000185118
5 *6856:D *6856:CLK 8.6229e-06
6 *6856:D *187:12 7.06672e-05
*RES
1 *6733:X *6856:D 32.8857 
*END

*D_NET *124 0.00139975
*CONN
*I *6857:D I *D sky130_fd_sc_hd__dfrtp_2
*I *6734:X O *D sky130_fd_sc_hd__a22o_2
*CAP
1 *6857:D 0.000386105
2 *6734:X 0.000386105
3 *6857:D *6734:B1 0
4 *6857:D *6734:B2 0
5 *6857:D *506:27 0.000129868
6 *6857:D *522:10 1.02504e-05
7 *6857:D *541:32 0.000487423
*RES
1 *6734:X *6857:D 33.8857 
*END

*D_NET *125 0.000325171
*CONN
*I *6858:D I *D sky130_fd_sc_hd__dfrtp_2
*I *6735:X O *D sky130_fd_sc_hd__a22o_2
*CAP
1 *6858:D 0.000129407
2 *6735:X 0.000129407
3 *6858:D *6708:B2 0
4 *6858:D *6836:CLK 6.63569e-05
5 *6858:D *6858:RESET_B 0
*RES
1 *6735:X *6858:D 30.1536 
*END

*D_NET *126 0.000355373
*CONN
*I *6859:D I *D sky130_fd_sc_hd__dfrtp_2
*I *6736:X O *D sky130_fd_sc_hd__a22o_2
*CAP
1 *6859:D 0.000126588
2 *6736:X 0.000126588
3 *6859:D *508:48 0.000102197
*RES
1 *6736:X *6859:D 21.2071 
*END

*D_NET *127 0.00084868
*CONN
*I *6860:D I *D sky130_fd_sc_hd__dfrtp_2
*I *6737:X O *D sky130_fd_sc_hd__a22o_2
*CAP
1 *6860:D 0.000229262
2 *6737:X 0.000229262
3 *6860:D *6742:A2 0.000289196
4 *6860:D *306:8 0
5 *6860:D *396:130 0.00010096
*RES
1 *6737:X *6860:D 32.3143 
*END

*D_NET *128 0.000981771
*CONN
*I *6861:D I *D sky130_fd_sc_hd__dfrtp_2
*I *6738:X O *D sky130_fd_sc_hd__a22o_2
*CAP
1 *6861:D 0.000355789
2 *6738:X 0.000355789
3 *6861:D *6738:A2 0
4 *6861:D *6861:CLK 5.70897e-05
5 *6861:D *303:70 3.55569e-05
6 *6861:D *402:99 0
7 *6861:D *510:23 0.000177547
*RES
1 *6738:X *6861:D 33.3634 
*END

*D_NET *129 0.00254569
*CONN
*I *6862:D I *D sky130_fd_sc_hd__dfrtp_2
*I *6739:X O *D sky130_fd_sc_hd__a22o_2
*CAP
1 *6862:D 0.000522865
2 *6739:X 0.000522865
3 *6862:D *6739:A2 1.46576e-05
4 *6862:D *6739:B2 0.000125238
5 *6862:D *6779:RESET_B 0
6 *6862:D *6862:RESET_B 0.000149904
7 *6862:D *311:24 0.000750308
8 *6862:D *426:17 0
9 *6862:D *511:22 6.57032e-05
10 *6862:D *512:73 0.000355537
11 *6862:D *513:12 3.86136e-05
*RES
1 *6739:X *6862:D 41.225 
*END

*D_NET *130 0.000612647
*CONN
*I *6863:D I *D sky130_fd_sc_hd__dfrtp_2
*I *6740:X O *D sky130_fd_sc_hd__a22o_2
*CAP
1 *6863:D 0.000243413
2 *6740:X 0.000243413
3 *6863:D *6863:CLK 5.52302e-05
4 *6863:D *528:18 6.05161e-06
5 *6863:D *528:26 6.45381e-05
*RES
1 *6740:X *6863:D 22.975 
*END

*D_NET *131 0.00242603
*CONN
*I *6864:D I *D sky130_fd_sc_hd__dfrtp_2
*I *6741:X O *D sky130_fd_sc_hd__a22o_2
*CAP
1 *6864:D 0.000726964
2 *6741:X 0.000726964
3 *6864:D *6843:RESET_B 0.000102197
4 *6864:D *6864:CLK 0
5 *6864:D *265:12 0.000656833
6 *6864:D *266:14 0.000141734
7 *6864:D *303:51 1.4862e-05
8 *6864:D *440:91 5.64715e-05
*RES
1 *6741:X *6864:D 38.9393 
*END

*D_NET *132 0.000410346
*CONN
*I *6865:D I *D sky130_fd_sc_hd__dfrtp_2
*I *6742:X O *D sky130_fd_sc_hd__a22o_2
*CAP
1 *6865:D 0.00014462
2 *6742:X 0.00014462
3 *6865:D *6768:RESET_B 6.48068e-05
4 *6865:D *6865:CLK 5.62995e-05
5 *6865:D *514:10 0
6 *6865:D *514:12 0
*RES
1 *6742:X *6865:D 30.1893 
*END

*D_NET *133 0.00136348
*CONN
*I *6866:D I *D sky130_fd_sc_hd__dfrtp_2
*I *6743:X O *D sky130_fd_sc_hd__a22o_2
*CAP
1 *6866:D 0.000466323
2 *6743:X 0.000466323
3 *6866:D *6584:C 5.52302e-05
4 *6866:D *6743:A1 6.85461e-05
5 *6866:D *6743:B1 1.14483e-05
6 *6866:D *6781:CLK 9.29472e-06
7 *6866:D *6856:RESET_B 0
8 *6866:D *6866:RESET_B 1.66679e-05
9 *6866:D *500:35 0.000235324
10 *6866:D *527:10 3.4323e-05
*RES
1 *6743:X *6866:D 36.2384 
*END

*D_NET *134 0.0010279
*CONN
*I *6867:D I *D sky130_fd_sc_hd__dfrtp_2
*I *6744:X O *D sky130_fd_sc_hd__a22o_2
*CAP
1 *6867:D 0.000209657
2 *6744:X 0.000209657
3 *6867:D *6573:B 2.06468e-05
4 *6867:D *6744:A2 3.79521e-05
5 *6867:D *6744:B1 2.59355e-05
6 *6867:D *6748:B1 0.000334369
7 *6867:D *302:239 0
8 *6867:D *309:29 0.000189685
*RES
1 *6744:X *6867:D 32.9393 
*END

*D_NET *135 0.000911582
*CONN
*I *6868:D I *D sky130_fd_sc_hd__dfrtp_2
*I *6745:X O *D sky130_fd_sc_hd__a22o_2
*CAP
1 *6868:D 0.000223071
2 *6745:X 0.000223071
3 *6868:D *6592:B 4.87953e-05
4 *6868:D *6745:B1 0.000173083
5 *6868:D *6745:B2 0.000174805
6 *6868:D *502:12 6.87574e-05
*RES
1 *6745:X *6868:D 32.0286 
*END

*D_NET *136 0.00177531
*CONN
*I *6869:D I *D sky130_fd_sc_hd__dfrtp_2
*I *6746:X O *D sky130_fd_sc_hd__a22o_2
*CAP
1 *6869:D 0.000534378
2 *6746:X 0.000534378
3 *6869:D *6569:A 5.07726e-05
4 *6869:D *6593:C 0.000258783
5 *6869:D *6746:B2 7.83587e-05
6 *6869:D *6748:B1 0.000177815
7 *6869:D *6859:RESET_B 0
8 *6869:D *302:219 1.43476e-05
9 *6869:D *396:130 5.71472e-05
10 *6869:D *402:118 4.81894e-05
11 *6869:D *503:55 2.11419e-05
*RES
1 *6746:X *6869:D 38.4036 
*END

*D_NET *137 0.000461755
*CONN
*I *6870:D I *D sky130_fd_sc_hd__dfrtp_2
*I *6747:X O *D sky130_fd_sc_hd__a22o_2
*CAP
1 *6870:D 0.000157697
2 *6747:X 0.000157697
3 *6870:D *186:54 5.65955e-05
4 *6870:D *306:21 6.61006e-05
5 *6870:D *306:25 2.36643e-05
*RES
1 *6747:X *6870:D 20.6938 
*END

*D_NET *138 0.00049732
*CONN
*I *6871:D I *D sky130_fd_sc_hd__dfrtp_2
*I *6748:X O *D sky130_fd_sc_hd__a22o_2
*CAP
1 *6871:D 0.000158415
2 *6748:X 0.000158415
3 *6871:D *308:18 0.000136697
4 *6871:D *521:6 4.37931e-05
*RES
1 *6748:X *6871:D 21.6357 
*END

*D_NET *139 0.000953012
*CONN
*I *6521:A I *D sky130_fd_sc_hd__and2_2
*I *6622:C1 I *D sky130_fd_sc_hd__a211o_2
*I *6499:Y O *D sky130_fd_sc_hd__inv_2
*CAP
1 *6521:A 6.88729e-05
2 *6622:C1 0.000225553
3 *6499:Y 0.000294426
4 *6521:A *7236:A 0
5 *6521:A *481:46 0.000127446
6 *6622:C1 *6499:A 2.59355e-05
7 *6622:C1 *6632:C1 0.000123594
8 *6622:C1 *150:59 0
9 *6622:C1 *201:20 8.71847e-05
*RES
1 *6499:Y *6622:C1 31.9571 
2 *6499:Y *6521:A 29.2429 
*END

*D_NET *140 0.000341037
*CONN
*I *6686:A1 I *D sky130_fd_sc_hd__a31o_2
*I *6500:Y O *D sky130_fd_sc_hd__inv_2
*CAP
1 *6686:A1 0.000129915
2 *6500:Y 0.000129915
3 *6686:A1 *6500:A 2.89016e-05
4 *6686:A1 *6686:A3 5.23057e-05
*RES
1 *6500:Y *6686:A1 20.3679 
*END

*D_NET *141 0.00109685
*CONN
*I *6694:A1 I *D sky130_fd_sc_hd__a31o_2
*I *6501:Y O *D sky130_fd_sc_hd__inv_2
*CAP
1 *6694:A1 0.00038362
2 *6501:Y 0.00038362
3 *6694:A1 *6693:A2 2.88018e-06
4 *6694:A1 *6693:B1 1.39726e-05
5 *6694:A1 *6694:B1 0.00014183
6 *6694:A1 *253:14 5.33005e-05
7 *6694:A1 *381:65 0.000117621
*RES
1 *6501:Y *6694:A1 23.6536 
*END

*D_NET *142 0.00107971
*CONN
*I *6690:A1 I *D sky130_fd_sc_hd__o21a_2
*I *6502:Y O *D sky130_fd_sc_hd__inv_2
*CAP
1 *6690:A1 0.00022338
2 *6502:Y 0.00022338
3 *6690:A1 *6690:A2 4.87854e-05
4 *6690:A1 *6692:B2 0.000114925
5 *6690:A1 *6693:A2 5.52302e-05
6 *6690:A1 *6829:CLK 0.000315158
7 *6690:A1 *6829:RESET_B 0
8 *6690:A1 *222:12 0
9 *6690:A1 *252:12 4.16984e-05
10 *6690:A1 *1090:25 5.71472e-05
11 *6829:D *6690:A1 0
*RES
1 *6502:Y *6690:A1 33.3857 
*END

*D_NET *143 0.00421848
*CONN
*I *6713:A1 I *D sky130_fd_sc_hd__a21oi_2
*I *6596:C1 I *D sky130_fd_sc_hd__o211a_2
*I *6710:A I *D sky130_fd_sc_hd__nor2_2
*I *6503:Y O *D sky130_fd_sc_hd__inv_2
*CAP
1 *6713:A1 0
2 *6596:C1 0.000648724
3 *6710:A 0
4 *6503:Y 0.000597867
5 *143:16 0.00078208
6 *143:8 0.000731223
7 *6596:C1 *6596:A1 2.89016e-05
8 *6596:C1 *6596:A2 0
9 *6596:C1 *6703:A2 0.00014285
10 *6596:C1 *6703:B1 2.44318e-05
11 *6596:C1 *6704:C_N 8.6945e-05
12 *6596:C1 *6710:B 9.44173e-05
13 *6596:C1 *258:30 0.000370957
14 *6596:C1 *302:253 4.54968e-05
15 *6596:C1 *439:43 0
16 *6596:C1 *1079:20 0.000140933
17 *143:8 *6503:A 5.65955e-05
18 *143:16 *6710:B 5.52302e-05
19 *143:16 *6713:A2 9.47456e-05
20 *143:16 *6713:B1 0
21 *6838:D *143:8 0.000317082
*RES
1 *6503:Y *143:8 20.1214 
2 *143:8 *143:16 11.7857 
3 *143:16 *6710:A 9.3 
4 *143:16 *6596:C1 33.4429 
5 *143:8 *6713:A1 9.3 
*END

*D_NET *144 0.00166889
*CONN
*I *6705:A I *D sky130_fd_sc_hd__nor2_2
*I *6706:B I *D sky130_fd_sc_hd__and3b_2
*I *6504:Y O *D sky130_fd_sc_hd__inv_2
*CAP
1 *6705:A 9.28381e-05
2 *6706:B 0.000186998
3 *6504:Y 0.000331062
4 *144:10 0.000610898
5 *6705:A *6706:C 0
6 *6705:A *259:16 7.8327e-05
7 *6706:B *6706:A_N 6.23021e-05
8 *6706:B *6707:B1 9.90431e-05
9 *144:10 *6707:A2 0.000167424
10 *144:10 *259:16 4.00025e-05
11 *144:10 *305:12 0
*RES
1 *6504:Y *144:10 18.9429 
2 *144:10 *6706:B 16.3893 
3 *144:10 *6705:A 15.7464 
*END

*D_NET *145 0.00725678
*CONN
*I *6926:A I *D sky130_fd_sc_hd__clkdlybuf4s25_1
*I *6925:A I *D sky130_fd_sc_hd__clkdlybuf4s25_1
*I *6521:X O *D sky130_fd_sc_hd__and2_2
*CAP
1 *6926:A 0.000129001
2 *6925:A 0.000904163
3 *6521:X 0.000213074
4 *145:12 0.00124624
5 *6925:A *6540:A 0.00012401
6 *6925:A *6540:B 0.000324167
7 *6925:A *6543:C 0.000397092
8 *6925:A *6614:A1 0.0002085
9 *6925:A *6615:A2 0
10 *6925:A *6633:B1 6.97972e-05
11 *6925:A *6795:CLK 0.00018
12 *6925:A *7144:A 0.000176234
13 *6925:A *7214:A 0.000148911
14 *6925:A *7218:B 2.91794e-05
15 *6925:A *152:67 2.28541e-05
16 *6925:A *152:77 1.18927e-05
17 *6925:A *153:51 7.80167e-05
18 *6925:A *406:18 0.00120476
19 *6925:A *406:20 0.00027338
20 *6925:A *408:22 6.39262e-05
21 *6925:A *414:93 0
22 *6926:A *6795:CLK 5.84171e-05
23 *6926:A *7578:en 4.48113e-05
24 *6926:A *153:51 5.59013e-05
25 *6926:A *205:12 0.000183726
26 *6926:A *406:18 1.17968e-05
27 *6926:A *408:10 7.3237e-05
28 *6926:A *408:22 0
29 *145:12 *6521:B 5.52238e-05
30 *145:12 *7250:A 0.00013785
31 *145:12 *285:9 0.00034611
32 *145:12 *406:12 0.00034756
33 *145:12 *406:18 0.000136958
*RES
1 *6521:X *145:12 21.4607 
2 *145:12 *6925:A 43.7286 
3 *145:12 *6926:A 17.8179 
*END

*D_NET *146 0.0131569
*CONN
*I *7589:A I *D sky130_fd_sc_hd__clkbuf_4
*I *6932:A I *D sky130_fd_sc_hd__clkdlybuf4s25_1
*I *6522:Y O *D sky130_fd_sc_hd__nor2_2
*CAP
1 *7589:A 0.000504411
2 *6932:A 0
3 *6522:Y 0.00178024
4 *146:10 0.00127583
5 *7589:A *6522:B 0.000841273
6 *7589:A *6556:C 0.00046288
7 *7589:A *148:18 0.000216437
8 *7589:A *412:10 5.71472e-05
9 *7589:A *412:26 0.00153894
10 *7589:A *478:79 0.000873148
11 *146:10 *6547:B 0.000583398
12 *146:10 *6548:B 0.00143086
13 *146:10 *6552:A 3.2065e-05
14 *146:10 *6552:C 3.18676e-05
15 *146:10 *7571:en 9.90367e-05
16 *146:10 *7581:en 0.000188586
17 *146:10 *407:49 0.00137153
18 *146:10 *407:53 0.000675084
19 *146:10 *412:26 0.00119416
*RES
1 *6522:Y *146:10 48.4786 
2 *146:10 *6932:A 9.3 
3 *6522:Y *7589:A 49.6179 
*END

*D_NET *147 0.00093652
*CONN
*I *7588:A I *D sky130_fd_sc_hd__clkbuf_8
*I *6523:Y O *D sky130_fd_sc_hd__nor2_4
*CAP
1 *7588:A 0.000239253
2 *6523:Y 0.000239253
3 *7588:A *6697:A1 2.79092e-05
4 *7588:A *6697:S 4.91348e-05
5 *7588:A *6948:A 0
6 *7588:A *479:35 0.000217163
7 *7588:A *479:48 4.97876e-05
8 *7588:A *480:20 3.18676e-05
9 *7588:A *480:35 0
10 *7588:A *480:39 8.21535e-05
*RES
1 *6523:Y *7588:A 33.4214 
*END

*D_NET *148 0.0379377
*CONN
*I *6931:A I *D sky130_fd_sc_hd__clkdlybuf4s25_1
*I *6627:B1 I *D sky130_fd_sc_hd__a22o_2
*I *6623:A2 I *D sky130_fd_sc_hd__a22o_2
*I *6629:A2 I *D sky130_fd_sc_hd__a22o_2
*I *6625:A2 I *D sky130_fd_sc_hd__a22o_2
*I *6525:X O *D sky130_fd_sc_hd__and2b_2
*CAP
1 *6931:A 0
2 *6627:B1 0.00182273
3 *6623:A2 0.000494584
4 *6629:A2 2.64934e-05
5 *6625:A2 5.6217e-06
6 *6525:X 0.000469144
7 *148:84 0.00504446
8 *148:65 0.00286229
9 *148:54 0.00151893
10 *148:44 0.00303039
11 *148:34 0.00732476
12 *148:32 0.00652469
13 *148:18 0.00129479
14 *6623:A2 *6623:A1 1.57155e-05
15 *6623:A2 *6624:C1 4.34948e-06
16 *6623:A2 *6628:A2 4.6025e-06
17 *6623:A2 *149:84 1.01912e-05
18 *6623:A2 *152:105 6.90381e-06
19 *6625:A2 *6625:A1 7.13226e-06
20 *6625:A2 *151:113 1.46576e-05
21 *6629:A2 *6629:A1 3.4911e-05
22 *6629:A2 *149:84 7.12879e-05
23 *148:18 *412:20 2.59004e-05
24 *148:18 *412:26 0.000495276
25 *148:18 *478:79 0.000184745
26 *148:32 *6619:A0 0.000235495
27 *148:32 *151:52 0.000113449
28 *148:32 *206:10 0
29 *148:32 *283:8 0.000120158
30 *148:32 *407:14 6.12253e-05
31 *148:32 *407:94 0.000128249
32 *148:32 *415:14 0.00133049
33 *148:32 *477:71 0.000103646
34 *148:32 *478:73 0.000871926
35 *148:32 *478:79 0.000103646
36 *148:34 *151:65 0
37 *148:34 *408:42 0
38 *148:34 *411:34 0
39 *148:34 *413:52 0
40 *148:34 *413:71 0
41 *148:44 *7445:A 9.58318e-06
42 *148:44 *7450:A 4.1452e-05
43 *148:44 *7451:A 4.43371e-05
44 *148:44 *7452:A 0.000141276
45 *148:44 *7454:A 2.41765e-05
46 *148:44 *7455:A 0.000140146
47 *148:44 *415:18 0.00129548
48 *148:44 *415:28 0
49 *148:54 *6533:C 0
50 *148:54 *7317:A 1.37493e-05
51 *148:54 *7318:A 5.17013e-05
52 *148:54 *7319:A 1.93849e-05
53 *148:54 *7322:A 5.48859e-05
54 *148:54 *7323:A 1.64433e-05
55 *148:54 *7326:A 9.11048e-06
56 *148:54 *7444:A 1.37743e-05
57 *148:54 *7445:A 6.41166e-05
58 *148:54 *7446:A 5.20124e-05
59 *148:54 *7447:A 0.000153937
60 *148:54 *415:28 0.000145621
61 *148:65 *6626:C1 7.33804e-05
62 *148:65 *405:66 0
63 *148:65 *415:28 0.000203925
64 *148:84 *6524:B 0.000109778
65 *148:84 *6626:C1 8.23597e-06
66 *148:84 *152:109 0.00023988
67 *148:84 *213:10 0.000265233
68 *148:84 *415:28 1.1459e-05
69 *148:84 *415:49 0.000155341
70 *7589:A *148:18 0.000216437
*RES
1 *6525:X *148:18 26.5143 
2 *148:18 *148:32 23.6253 
3 *148:32 *148:34 107.732 
4 *148:34 *148:44 42.0804 
5 *148:44 *148:54 24.2232 
6 *148:54 *6625:A2 13.9473 
7 *148:54 *148:65 2.85714 
8 *148:65 *6629:A2 14.5143 
9 *148:65 *148:84 12.66 
10 *148:84 *6623:A2 21.9919 
11 *148:84 *6627:B1 24.016 
12 *148:18 *6931:A 9.3 
*END

*D_NET *149 0.0377832
*CONN
*I *6629:B1 I *D sky130_fd_sc_hd__a22o_2
*I *6628:A2 I *D sky130_fd_sc_hd__a221o_2
*I *6623:B1 I *D sky130_fd_sc_hd__a22o_2
*I *6625:B1 I *D sky130_fd_sc_hd__a22o_2
*I *6930:A I *D sky130_fd_sc_hd__clkdlybuf4s25_1
*I *6527:X O *D sky130_fd_sc_hd__and2b_2
*CAP
1 *6629:B1 0
2 *6628:A2 0.000787464
3 *6623:B1 0
4 *6625:B1 0.000153972
5 *6930:A 0
6 *6527:X 0.0014535
7 *149:84 0.00218947
8 *149:61 0.00159778
9 *149:57 0.000704486
10 *149:49 0.00264053
11 *149:41 0.00278578
12 *149:37 0.00221021
13 *149:20 0.00285578
14 *6625:B1 *6629:B2 3.58558e-05
15 *6625:B1 *151:113 5.49544e-05
16 *6625:B1 *415:28 9.03121e-05
17 *6628:A2 *6614:A2 0.000427246
18 *6628:A2 *6621:B1 0.000118
19 *6628:A2 *6628:B2 6.10112e-05
20 *6628:A2 *6631:A2 0.0002253
21 *6628:A2 *7159:A 0
22 *6628:A2 *7175:A 0
23 *6628:A2 *7186:B 7.83659e-05
24 *6628:A2 *7513:A 0
25 *6628:A2 *412:108 0.000238658
26 *149:20 *6529:B 2.65105e-05
27 *149:20 *6549:A 4.69432e-05
28 *149:20 *6553:C 5.52302e-05
29 *149:20 *7579:en 5.25759e-05
30 *149:20 *150:12 0.000416178
31 *149:20 *150:20 0.000134925
32 *149:20 *415:14 0.000338449
33 *149:20 *477:28 0.0002494
34 *149:37 *150:20 0.00408079
35 *149:37 *408:60 0.000424897
36 *149:37 *408:70 0.000172536
37 *149:37 *415:14 0.000713351
38 *149:41 *6550:B 0.000169451
39 *149:41 *150:20 5.52238e-05
40 *149:41 *151:77 0.00241523
41 *149:41 *408:60 0.000183152
42 *149:41 *409:6 0.000624484
43 *149:41 *409:17 0.00250478
44 *149:41 *415:14 0.000816475
45 *149:49 *7389:A 6.06291e-06
46 *149:49 *7400:A 0.00033559
47 *149:49 *415:18 0.00182859
48 *149:57 *6629:A1 1.02132e-05
49 *149:57 *7391:A 2.524e-05
50 *149:57 *7392:A 0.000116298
51 *149:57 *7393:A 0.000236515
52 *149:57 *7394:A 5.86723e-06
53 *149:57 *216:16 0.000200914
54 *149:61 *6629:A1 3.69047e-06
55 *149:61 *216:16 5.49489e-05
56 *149:84 *6524:B 8.80392e-05
57 *149:84 *6538:B 4.56594e-05
58 *149:84 *6629:A1 0.000144224
59 *149:84 *7061:A 6.5185e-05
60 *149:84 *7100:A 8.00806e-05
61 *149:84 *7104:A 0.000154762
62 *149:84 *7108:A 0
63 *149:84 *151:130 0
64 *149:84 *216:16 0.000125125
65 *149:84 *412:77 0.000541331
66 *149:84 *412:108 0.000880706
67 *149:84 *413:111 0.00053508
68 *149:84 *413:127 2.37761e-05
69 *6623:A2 *6628:A2 4.6025e-06
70 *6623:A2 *149:84 1.01912e-05
71 *6629:A2 *149:84 7.12879e-05
*RES
1 *6527:X *149:20 31.6571 
2 *149:20 *6930:A 9.3 
3 *149:20 *149:37 41.7321 
4 *149:37 *149:41 42 
5 *149:41 *149:49 45.8661 
6 *149:49 *149:57 13.5268 
7 *149:57 *149:61 0.964286 
8 *149:61 *6625:B1 21.3893 
9 *149:61 *149:84 42.3214 
10 *149:84 *6623:B1 13.8 
11 *149:84 *6628:A2 32.3804 
12 *149:57 *6629:B1 9.3 
*END

*D_NET *150 0.0400447
*CONN
*I *6628:B1 I *D sky130_fd_sc_hd__a221o_2
*I *6624:B1 I *D sky130_fd_sc_hd__a221o_2
*I *6615:B1 I *D sky130_fd_sc_hd__a221o_2
*I *6562:A I *D sky130_fd_sc_hd__and3_2
*I *6929:A I *D sky130_fd_sc_hd__clkdlybuf4s25_1
*I *6529:X O *D sky130_fd_sc_hd__and2_2
*CAP
1 *6628:B1 0
2 *6624:B1 0.000556814
3 *6615:B1 0
4 *6562:A 0.000240454
5 *6929:A 6.37214e-05
6 *6529:X 0.000423382
7 *150:85 0.00204499
8 *150:59 0.00068821
9 *150:49 0.00290986
10 *150:45 0.00301239
11 *150:37 0.00267771
12 *150:33 0.00293864
13 *150:20 0.00309087
14 *150:12 0.00115114
15 *6562:A *153:28 0.0001399
16 *6562:A *153:34 7.80167e-05
17 *6562:A *285:9 1.21258e-05
18 *6562:A *406:18 0.000239892
19 *6562:A *408:22 7.60406e-05
20 *6624:B1 *6614:A2 8.03868e-05
21 *6624:B1 *6627:A2 0.00088994
22 *6624:B1 *6628:A1 1.02504e-05
23 *6624:B1 *6628:C1 4.62632e-05
24 *6624:B1 *7163:A 1.31516e-05
25 *6624:B1 *411:129 0
26 *6624:B1 *414:120 0.00029513
27 *6929:A *6550:C 0
28 *150:12 *6549:A 5.99973e-05
29 *150:12 *6549:B 5.12581e-05
30 *150:12 *415:14 0.000199689
31 *150:20 *6549:B 9.83388e-05
32 *150:20 *6550:B 0.000316184
33 *150:20 *6553:C 2.59355e-05
34 *150:20 *7579:en 9.58126e-05
35 *150:20 *7583:en 1.54142e-05
36 *150:20 *408:70 0.0034269
37 *150:20 *411:6 0.000561817
38 *150:20 *415:14 0.000782475
39 *150:37 *7574:en 0.00134245
40 *150:37 *206:12 0.00150989
41 *150:37 *269:20 0.00223803
42 *150:37 *414:63 0.000449991
43 *150:45 *7145:A 7.48912e-05
44 *150:45 *406:41 8.8829e-05
45 *150:49 *6621:A2 0
46 *150:49 *6622:B1 0
47 *150:49 *6632:C1 6.38668e-05
48 *150:49 *7188:A 0
49 *150:49 *7191:A 0
50 *150:49 *7206:A 6.42338e-05
51 *150:59 *6614:A1 0.000165535
52 *150:59 *6615:A1 5.33005e-05
53 *150:59 *6615:A2 0.000202235
54 *150:59 *6622:A2 9.60875e-05
55 *150:59 *6622:B1 4.6387e-05
56 *150:59 *6632:C1 0
57 *150:59 *153:57 7.20097e-05
58 *150:59 *299:9 1.21258e-05
59 *150:85 *6614:A1 0.00133009
60 *150:85 *6614:A2 7.24878e-05
61 *150:85 *6628:A1 0.000100823
62 *150:85 *411:129 0
63 *150:85 *411:141 6.12009e-05
64 *6622:C1 *150:59 0
65 *149:20 *150:12 0.000416178
66 *149:20 *150:20 0.000134925
67 *149:37 *150:20 0.00408079
68 *149:41 *150:20 5.52238e-05
*RES
1 *6529:X *150:12 19.8536 
2 *150:12 *150:20 49.5357 
3 *150:20 *6929:A 14.5321 
4 *150:20 *150:33 49.5536 
5 *150:33 *150:37 40.7679 
6 *150:37 *150:45 43.375 
7 *150:45 *150:49 19.4725 
8 *150:49 *150:59 14.8071 
9 *150:59 *6562:A 23.6571 
10 *150:59 *6615:B1 9.3 
11 *150:49 *150:85 10.4908 
12 *150:85 *6624:B1 28.4964 
13 *150:85 *6628:B1 13.8 
*END

*D_NET *151 0.075044
*CONN
*I *6554:B I *D sky130_fd_sc_hd__and3_2
*I *6621:A1 I *D sky130_fd_sc_hd__a21o_2
*I *6631:B2 I *D sky130_fd_sc_hd__a22o_2
*I *6535:C I *D sky130_fd_sc_hd__and3_2
*I *6533:C I *D sky130_fd_sc_hd__and3_2
*I *6532:C I *D sky130_fd_sc_hd__and3_2
*I *6534:C I *D sky130_fd_sc_hd__and3_2
*I *6553:B I *D sky130_fd_sc_hd__and3_2
*I *6552:B I *D sky130_fd_sc_hd__and3_2
*I *6551:B I *D sky130_fd_sc_hd__and3_2
*I *6531:X O *D sky130_fd_sc_hd__and2b_2
*CAP
1 *6554:B 0
2 *6621:A1 0.000785871
3 *6631:B2 7.39035e-05
4 *6535:C 3.2467e-05
5 *6533:C 0.000675338
6 *6532:C 0.000369909
7 *6534:C 0
8 *6553:B 0.000134867
9 *6552:B 4.85613e-05
10 *6551:B 0.00170907
11 *6531:X 0
12 *151:149 0.00173314
13 *151:130 0.00135966
14 *151:113 0.00169286
15 *151:90 0.00186506
16 *151:79 0.00137846
17 *151:77 0.00222689
18 *151:71 0.00191086
19 *151:65 0.00201352
20 *151:63 0.00188255
21 *151:52 0.00402494
22 *151:33 0.00444432
23 *151:10 0.00221475
24 *151:8 0.00479796
25 *151:6 0.00479796
26 *6532:C *6532:A 3.47797e-05
27 *6532:C *7401:A 0.000131085
28 *6532:C *7410:A 0.000152115
29 *6532:C *7410:B 2.64233e-05
30 *6533:C *7329:A 0
31 *6533:C *7334:A 7.83587e-05
32 *6533:C *405:95 5.52238e-05
33 *6533:C *405:113 0.00014183
34 *6533:C *413:96 0.000497949
35 *6535:C *6616:A2 1.92789e-05
36 *6551:B *6547:B 0.000162223
37 *6551:B *6555:B 0.0023257
38 *6551:B *7571:en 1.21289e-05
39 *6551:B *7581:en 2.44318e-05
40 *6551:B *7585:en 2.21972e-05
41 *6551:B *414:26 4.10364e-05
42 *6552:B *6556:B 0
43 *6552:B *407:39 7.83587e-05
44 *6553:B *407:94 0
45 *6621:A1 *6542:C 7.6644e-05
46 *6621:A1 *6545:B 0.000424848
47 *6621:A1 *6621:A2 5.71472e-05
48 *6621:A1 *6621:B1 0.000783691
49 *6621:A1 *7185:A 0.000168491
50 *6621:A1 *7191:A 7.18982e-05
51 *6621:A1 *7192:A 8.98296e-05
52 *6621:A1 *153:90 0.000785704
53 *6621:A1 *153:92 0.000657597
54 *6621:A1 *206:46 0.000188218
55 *6621:A1 *218:20 8.14902e-05
56 *6621:A1 *411:129 0.000118871
57 *6631:B2 *218:20 4.82865e-05
58 *151:8 *6697:S 0.000192745
59 *151:8 *6887:D 6.26653e-05
60 *151:8 *7003:A 6.74911e-05
61 *151:8 *152:8 0
62 *151:8 *413:10 0.00583062
63 *151:8 *479:35 6.12696e-05
64 *151:8 *479:48 0.000174172
65 *151:33 *6555:B 0.000447622
66 *151:33 *413:52 0.000190917
67 *151:52 *6619:A0 0
68 *151:52 *6619:A1 0
69 *151:52 *152:10 0
70 *151:52 *279:12 0.000635999
71 *151:52 *407:14 9.07743e-05
72 *151:52 *407:39 0.000432609
73 *151:52 *407:94 0.00239266
74 *151:52 *413:52 0.000651912
75 *151:65 *411:34 0.00560573
76 *151:65 *413:71 0.000264212
77 *151:71 *7584:en 0
78 *151:77 *7584:en 0.000276211
79 *151:77 *409:17 0.000656694
80 *151:77 *415:14 0.000410561
81 *151:79 *7453:A 8.00806e-05
82 *151:79 *7474:A 6.75007e-05
83 *151:79 *7474:B 0
84 *151:90 *7397:A 0
85 *151:90 *7399:A 0
86 *151:90 *7444:A 6.42242e-05
87 *151:90 *7450:A 0
88 *151:90 *7453:A 4.56437e-05
89 *151:90 *7464:A 0
90 *151:90 *7468:A 0
91 *151:90 *7471:A 0.00011833
92 *151:90 *7474:A 5.80706e-06
93 *151:113 *6532:A 0.00125346
94 *151:113 *6625:A1 0.000128216
95 *151:113 *6625:B2 0.000138217
96 *151:113 *7345:A 9.83442e-05
97 *151:113 *7394:A 2.80853e-05
98 *151:113 *7395:A 9.57215e-05
99 *151:113 *7396:A 9.2765e-05
100 *151:113 *7397:A 4.62699e-05
101 *151:113 *7399:A 6.42215e-05
102 *151:113 *7401:A 2.36493e-05
103 *151:113 *405:89 0.000129515
104 *151:130 *6524:B 0.000295137
105 *151:130 *7313:A 0.000125717
106 *151:130 *405:62 0.000214856
107 *151:130 *405:66 0.000261133
108 *151:130 *413:96 2.84494e-05
109 *151:130 *413:111 0.000279021
110 *151:130 *413:127 8.07879e-05
111 *151:149 *6524:B 0.000613486
112 *151:149 *6626:B1 3.38136e-05
113 *151:149 *6631:A2 7.40229e-05
114 *151:149 *7122:A 0.000196269
115 *151:149 *152:109 4.038e-06
116 *151:149 *218:20 9.39369e-05
117 *151:149 *409:55 0.000266602
118 *151:149 *411:129 0.000784906
119 *151:149 *414:120 0.000598211
120 uio_out[4] *151:8 2.11419e-05
121 uio_out[5] *151:8 2.04825e-05
122 *6625:A2 *151:113 1.46576e-05
123 *6625:B1 *151:113 5.49544e-05
124 *6833:D *151:8 0
125 *148:32 *151:52 0.000113449
126 *148:34 *151:65 0
127 *148:54 *6533:C 0
128 *149:41 *151:77 0.00241523
129 *149:84 *151:130 0
*RES
1 *6531:X *151:6 13.8 
2 *151:6 *151:8 138.554 
3 *151:8 *151:10 4.5 
4 *151:10 *6551:B 44.5679 
5 *151:10 *151:33 12.0179 
6 *151:33 *6552:B 14.8357 
7 *151:33 *151:52 22.7338 
8 *151:52 *6553:B 15.7464 
9 *151:52 *151:63 4.5 
10 *151:63 *151:65 57.2143 
11 *151:65 *151:71 10.9464 
12 *151:71 *151:77 43.25 
13 *151:77 *151:79 8.625 
14 *151:79 *6534:C 13.8 
15 *151:79 *151:90 19.1964 
16 *151:90 *6532:C 15.4607 
17 *151:90 *151:113 21.3929 
18 *151:113 *6533:C 27.6393 
19 *151:113 *151:130 14.75 
20 *151:130 *6535:C 14.3357 
21 *151:130 *151:149 32.3571 
22 *151:149 *6631:B2 10.675 
23 *151:149 *6621:A1 44.2821 
24 *151:71 *6554:B 9.3 
*END

*D_NET *152 0.0669481
*CONN
*I *6622:A1 I *D sky130_fd_sc_hd__a211o_2
*I *6631:A1 I *D sky130_fd_sc_hd__a22o_2
*I *6537:C I *D sky130_fd_sc_hd__and3_2
*I *6539:C I *D sky130_fd_sc_hd__and3_2
*I *6538:C I *D sky130_fd_sc_hd__and3_2
*I *6558:B I *D sky130_fd_sc_hd__and3_2
*I *6557:B I *D sky130_fd_sc_hd__and3_2
*I *6540:C I *D sky130_fd_sc_hd__and3_2
*I *6555:B I *D sky130_fd_sc_hd__and3_2
*I *6556:B I *D sky130_fd_sc_hd__and3_2
*I *6536:X O *D sky130_fd_sc_hd__and2b_2
*CAP
1 *6622:A1 0.000228842
2 *6631:A1 5.56892e-05
3 *6537:C 0.000336892
4 *6539:C 0.000120402
5 *6538:C 0.000466463
6 *6558:B 0
7 *6557:B 0.000262285
8 *6540:C 0
9 *6555:B 0.00069961
10 *6556:B 0.00216943
11 *6536:X 0
12 *152:109 0.000907236
13 *152:107 0.000727146
14 *152:105 0.00163557
15 *152:77 0.000906164
16 *152:67 0.00220786
17 *152:56 0.000633233
18 *152:48 0.0101886
19 *152:10 0.00673836
20 *152:8 0.0160896
21 *152:6 0.0028398
22 *6537:C *6623:B2 7.02611e-05
23 *6537:C *6624:C1 1.74782e-05
24 *6537:C *412:108 7.83587e-05
25 *6537:C *415:49 7.83587e-05
26 *6538:C *6538:A 0.000524093
27 *6538:C *6538:B 1.03968e-05
28 *6538:C *213:10 7.83587e-05
29 *6538:C *409:55 3.69697e-05
30 *6539:C *6630:A2 2.59355e-05
31 *6539:C *7122:A 6.05161e-06
32 *6539:C *415:49 2.83192e-05
33 *6555:B *413:18 0.000928544
34 *6555:B *413:52 0.000348579
35 *6556:B *6522:A 0.0010765
36 *6556:B *6548:B 0.000276211
37 *6556:B *407:39 0
38 *6556:B *412:26 0.000530425
39 *6556:B *477:71 0.000667309
40 *6557:B *6557:A 4.33308e-05
41 *6557:B *408:28 0.000293438
42 *6557:B *408:32 1.02504e-05
43 *6557:B *409:32 0
44 *6557:B *409:108 0
45 *6622:A1 *201:20 9.64744e-05
46 *6622:A1 *406:18 1.94879e-05
47 *6622:A1 *408:22 5.58875e-06
48 *6631:A1 *213:10 0.000176303
49 *6631:A1 *411:129 0.00018532
50 *152:8 *6878:D 0.00116043
51 *152:8 *6878:RESET_B 0
52 *152:8 *6887:D 0
53 *152:8 *413:10 0
54 *152:10 *413:10 0
55 *152:48 *6615:A1 0.000301654
56 *152:48 *298:11 0.0024533
57 *152:48 *411:145 0
58 *152:56 *6540:A 0.00015656
59 *152:56 *7144:A 2.07491e-05
60 *152:56 *7154:A 3.99614e-06
61 *152:56 *406:18 0.00114592
62 *152:56 *406:20 0.000266551
63 *152:56 *408:22 0.000821733
64 *152:67 *7144:A 1.92789e-05
65 *152:67 *414:93 6.8194e-05
66 *152:77 *6540:B 0.000275294
67 *152:77 *6558:A 3.14078e-05
68 *152:77 *7361:A 8.98131e-05
69 *152:77 *7363:A 0.000128154
70 *152:77 *7365:A 0.000146474
71 *152:77 *7574:en 9.90431e-05
72 *152:77 *405:28 1.08616e-05
73 *152:77 *409:121 0.000160733
74 *152:77 *414:93 0.000994144
75 *152:105 *6543:B 0
76 *152:107 *213:10 0.000223216
77 *152:107 *411:129 0.000231759
78 *152:109 *213:10 0.00114325
79 *152:109 *409:55 5.10822e-05
80 *152:109 *411:129 0.00103359
81 uio_out[6] *152:8 2.64807e-05
82 *6551:B *6555:B 0.0023257
83 *6552:B *6556:B 0
84 *6623:A2 *152:105 6.90381e-06
85 *6833:D *152:8 0
86 *6925:A *152:67 2.28541e-05
87 *6925:A *152:77 1.18927e-05
88 *148:84 *152:109 0.00023988
89 *151:8 *152:8 0
90 *151:33 *6555:B 0.000447622
91 *151:52 *152:10 0
92 *151:149 *152:109 4.038e-06
*RES
1 *6536:X *152:6 13.8 
2 *152:6 *152:8 59.7768 
3 *152:8 *152:10 78.5982 
4 *152:10 *6556:B 47.3357 
5 *152:10 *6555:B 49.8536 
6 *152:8 *152:48 36.2702 
7 *152:48 *152:56 25.7946 
8 *152:56 *6540:C 9.3 
9 *152:56 *152:67 5.91964 
10 *152:67 *152:77 22.9018 
11 *152:77 *6557:B 24.0679 
12 *152:77 *6558:B 9.3 
13 *152:67 *152:105 9.8938 
14 *152:105 *152:107 3.00893 
15 *152:107 *152:109 14.6964 
16 *152:109 *6538:C 20.7107 
17 *152:109 *6539:C 15.1571 
18 *152:107 *6537:C 27.2464 
19 *152:105 *6631:A1 16.2018 
20 *152:48 *6622:A1 17.5054 
*END

*D_NET *153 0.0581479
*CONN
*I *6559:B I *D sky130_fd_sc_hd__and3_2
*I *6560:B I *D sky130_fd_sc_hd__and3_2
*I *6561:B I *D sky130_fd_sc_hd__and3_2
*I *6544:C I *D sky130_fd_sc_hd__and3_2
*I *6632:A1 I *D sky130_fd_sc_hd__a221o_2
*I *6620:A1 I *D sky130_fd_sc_hd__a22o_2
*I *6545:C I *D sky130_fd_sc_hd__and3_2
*I *6542:C I *D sky130_fd_sc_hd__and3_2
*I *6543:C I *D sky130_fd_sc_hd__and3_2
*I *6562:B I *D sky130_fd_sc_hd__and3_2
*I *6541:X O *D sky130_fd_sc_hd__and2_2
*CAP
1 *6559:B 0.000653815
2 *6560:B 0.000241113
3 *6561:B 0.000682977
4 *6544:C 0
5 *6632:A1 0
6 *6620:A1 0.000650383
7 *6545:C 0.00013587
8 *6542:C 0.000163351
9 *6543:C 0.0004518
10 *6562:B 4.18948e-05
11 *6541:X 0
12 *153:92 0.000533399
13 *153:90 0.00150672
14 *153:80 0.000909754
15 *153:57 0.00105231
16 *153:51 0.000653136
17 *153:34 0.000411949
18 *153:28 0.00174689
19 *153:26 0.00190635
20 *153:22 0.000872266
21 *153:20 0.00495551
22 *153:14 0.00519662
23 *153:12 0.0043893
24 *153:10 0.00444539
25 *153:4 0.000709903
26 *6542:C *7186:A 4.85049e-06
27 *6542:C *411:129 7.6644e-05
28 *6542:C *414:105 3.69047e-06
29 *6542:C *414:120 8.68315e-06
30 *6543:C *6615:A2 0.00057477
31 *6543:C *6633:B1 7.42303e-05
32 *6543:C *7187:A 2.3541e-05
33 *6543:C *7188:A 3.28686e-05
34 *6543:C *7214:A 0.000148911
35 *6543:C *7218:B 0.000154762
36 *6543:C *218:20 0
37 *6545:C *6545:B 4.00276e-06
38 *6545:C *7282:A 1.24368e-05
39 *6559:B *6541:B 5.33433e-05
40 *6559:B *6559:C 0.000172674
41 *6559:B *271:8 0.000493352
42 *6560:B *6560:C 0.000287039
43 *6560:B *272:10 1.3807e-05
44 *6560:B *359:99 5.33005e-05
45 *6560:B *407:124 8.44353e-05
46 *6560:B *412:149 0.000427199
47 *6561:B *6720:B2 0
48 *6561:B *6864:CLK 1.49682e-05
49 *6561:B *265:12 5.52302e-05
50 *6561:B *408:121 0.00271162
51 *6561:B *411:147 0.00272505
52 *6561:B *440:91 0
53 *6562:B *285:9 5.33005e-05
54 *6620:A1 *6614:A2 0
55 *6620:A1 *6620:B2 0.000130635
56 *6620:A1 *6826:CLK 0.000187882
57 *6620:A1 *6826:RESET_B 0
58 *6620:A1 *206:46 0.000822187
59 *6620:A1 *411:129 0.00012401
60 *6620:A1 *720:12 9.25014e-06
61 *6620:A1 *1088:10 3.18676e-05
62 *153:10 *6880:D 4.15914e-05
63 *153:12 *288:9 0.000141644
64 *153:12 *451:20 0.000676005
65 *153:20 *272:10 0.00094871
66 *153:20 *412:149 0.00245808
67 *153:26 *408:121 0.000893698
68 *153:26 *411:147 0.000955932
69 *153:28 *205:12 0
70 *153:28 *285:9 0.002921
71 *153:28 *411:145 0.000901433
72 *153:34 *408:22 7.80167e-05
73 *153:51 *6795:CLK 0.000122946
74 *153:51 *285:9 0.000219711
75 *153:51 *406:12 9.90367e-05
76 *153:51 *406:18 9.60939e-05
77 *153:57 *6544:B 1.90936e-05
78 *153:57 *6615:A2 0.000359051
79 *153:57 *6622:B1 0.000219244
80 *153:57 *6632:C1 0
81 *153:57 *6795:CLK 8.01886e-05
82 *153:57 *7187:A 9.25014e-06
83 *153:57 *481:46 0
84 *153:80 *6632:B2 2.85551e-05
85 *153:80 *6632:C1 0.00036192
86 *153:80 *6633:A2 0.000623771
87 *153:80 *6633:B1 0.00018372
88 *153:80 *218:20 8.18483e-05
89 *153:90 *6621:B1 1.21258e-05
90 *153:90 *6632:A2 0
91 *153:90 *217:10 0.000102545
92 *153:92 *206:46 1.0033e-05
93 *153:92 *411:129 0.000689061
94 *6562:A *153:28 0.0001399
95 *6562:A *153:34 7.80167e-05
96 *6621:A1 *6542:C 7.6644e-05
97 *6621:A1 *153:90 0.000785704
98 *6621:A1 *153:92 0.000657597
99 *6826:D *6620:A1 1.02504e-05
100 *6925:A *6543:C 0.000397092
101 *6925:A *153:51 7.80167e-05
102 *6926:A *153:51 5.59013e-05
103 *41:14 *153:12 0.000581217
104 *150:59 *153:57 7.20097e-05
*RES
1 *6541:X *153:4 9.3 
2 *153:4 *153:10 10.0357 
3 *153:10 *153:12 51.0536 
4 *153:12 *153:14 4.5 
5 *153:14 *153:20 47.408 
6 *153:20 *153:22 3.41 
7 *153:22 *153:26 16.3125 
8 *153:26 *153:28 49.4107 
9 *153:28 *153:34 10.0357 
10 *153:34 *6562:B 9.83571 
11 *153:34 *153:51 14.5893 
12 *153:51 *153:57 17.3214 
13 *153:57 *6543:C 31.8536 
14 *153:57 *153:80 9.625 
15 *153:80 *153:90 22.7679 
16 *153:90 *153:92 8.92857 
17 *153:92 *6542:C 16.1929 
18 *153:92 *6545:C 15.1571 
19 *153:90 *6620:A1 39.9607 
20 *153:80 *6632:A1 9.3 
21 *153:51 *6544:C 9.3 
22 *153:22 *6561:B 49.5232 
23 *153:14 *6560:B 20.2286 
24 *153:4 *6559:B 21.7821 
*END

*D_NET *154 0.0321744
*CONN
*I *6927:A I *D sky130_fd_sc_hd__clkdlybuf4s25_1
*I *6928:A I *D sky130_fd_sc_hd__clkdlybuf4s25_1
*I *6546:X O *D sky130_fd_sc_hd__and2_2
*CAP
1 *6927:A 0
2 *6928:A 9.17925e-05
3 *6546:X 0.000251015
4 *154:35 0.00231732
5 *154:25 0.00756854
6 *154:8 0.00559403
7 *6928:A *7578:en 0.000137556
8 *154:8 *481:36 6.09804e-05
9 *154:8 *481:46 0.000185643
10 *154:25 *7577:en 0.000265462
11 *154:25 *7578:en 0.00322456
12 *154:25 *408:117 0
13 *154:25 *411:145 0
14 *154:25 *481:20 0.00209509
15 *154:25 *481:36 0.00143473
16 *154:25 *514:30 0.00166721
17 *154:35 *6717:A2 1.89507e-06
18 *154:35 *477:18 0.00118342
19 *41:14 *154:35 0.00118629
20 *42:22 *154:25 0.00490889
*RES
1 *6546:X *154:8 17.2107 
2 *154:8 *6928:A 15.7464 
3 *154:8 *154:25 28.635 
4 *154:25 *154:35 48.2312 
5 *154:35 *6927:A 13.8 
*END

*D_NET *155 0.0335698
*CONN
*I *6600:B I *D sky130_fd_sc_hd__and2_2
*I *6566:B I *D sky130_fd_sc_hd__and2_2
*I *6601:B I *D sky130_fd_sc_hd__nand2_2
*I *6564:A I *D sky130_fd_sc_hd__inv_2
*I *6612:B I *D sky130_fd_sc_hd__and2_2
*I *6599:B I *D sky130_fd_sc_hd__nand2_2
*I *6598:B I *D sky130_fd_sc_hd__and2_2
*I *6563:Y O *D sky130_fd_sc_hd__nand2b_2
*CAP
1 *6600:B 0.000214934
2 *6566:B 0
3 *6601:B 0.000121054
4 *6564:A 0
5 *6612:B 0.000274578
6 *6599:B 0.000352688
7 *6598:B 0.000162197
8 *6563:Y 0.000435503
9 *155:101 0.00026889
10 *155:88 0.00026803
11 *155:81 0.000104626
12 *155:68 0.000945014
13 *155:51 0.00406467
14 *155:18 0.00374184
15 *155:14 0.00225215
16 *155:12 0.00216117
17 *6598:B *6598:A 5.04841e-06
18 *6598:B *6733:B2 9.42321e-05
19 *6598:B *187:12 0.000144801
20 *6598:B *1084:28 9.43891e-05
21 *6599:B *475:54 0.000123352
22 *6599:B *509:12 4.00276e-06
23 *6599:B *509:33 2.48109e-05
24 *6600:B *6701:A_N 0.000223599
25 *6600:B *6835:RESET_B 0.000181796
26 *6600:B *1082:10 9.25014e-06
27 *6601:B *6610:B1 0
28 *6601:B *6872:RESET_B 0.000150618
29 *6601:B *198:10 4.1331e-06
30 *6601:B *433:23 6.98302e-05
31 *6612:B *6612:A 6.30196e-05
32 *6612:B *6646:A1 5.59013e-05
33 *6612:B *6646:A3 0
34 *6612:B *6923:A 2.8266e-06
35 *6612:B *198:10 0
36 *6612:B *514:24 0
37 *155:12 *6636:S 0
38 *155:12 *6727:A1 0
39 *155:12 *303:10 3.18676e-05
40 *155:12 *320:10 0.000150625
41 *155:12 *440:55 0
42 *155:14 *302:19 0.000983212
43 *155:14 *440:93 4.70078e-05
44 *155:14 *511:53 0.00263826
45 *155:18 *6572:A 0.000191881
46 *155:18 *6743:A1 6.71787e-05
47 *155:18 *6743:B1 0.000144531
48 *155:18 *6856:RESET_B 0
49 *155:18 *187:12 0.000394066
50 *155:18 *187:27 0.000493189
51 *155:18 *500:35 6.62299e-06
52 *155:18 *511:53 2.47093e-05
53 *155:18 *527:10 0.000113038
54 *155:51 *6590:C1 0.00340172
55 *155:51 *6768:RESET_B 0.000596846
56 *155:51 *6777:D 0.000148878
57 *155:51 *302:191 0.000114211
58 *155:51 *303:64 0.000254013
59 *155:51 *395:81 6.35412e-05
60 *155:51 *396:57 0.000142231
61 *155:51 *401:16 4.54479e-05
62 *155:51 *401:33 0.000241451
63 *155:51 *433:21 0
64 *155:51 *499:26 0.000249645
65 *155:51 *499:28 0.000590522
66 *155:51 *504:76 0.00078137
67 *155:51 *505:81 0.000311318
68 *155:51 *509:33 2.26714e-05
69 *155:51 *510:55 0.00178301
70 *155:51 *514:20 0
71 *155:51 *520:31 0.000221363
72 *155:51 *544:6 0.000139179
73 *155:68 *6610:A2 0.000195134
74 *155:68 *6610:B1 0
75 *155:68 *6768:RESET_B 0
76 *155:68 *6773:RESET_B 0
77 *155:68 *6799:D 0
78 *155:68 *6923:A 1.68257e-05
79 *155:68 *7007:A 0
80 *155:68 *186:42 0.000310165
81 *155:68 *498:14 0.000478013
82 *155:81 *428:41 5.52302e-05
83 *155:81 *475:8 5.52302e-05
84 *155:88 *6566:A 0.000269428
85 *155:88 *6646:A3 8.57023e-05
86 *155:88 *428:41 0.000170379
87 *155:88 *475:8 5.71472e-05
88 *155:88 *498:14 0.000157399
89 *155:101 *6566:A 4.08637e-05
90 *155:101 *6835:RESET_B 9.71197e-05
91 *155:101 *498:14 1.98839e-05
92 *3:16 *155:14 0.000548742
*RES
1 *6563:Y *155:12 25.9429 
2 *155:12 *155:14 49.4107 
3 *155:14 *155:18 17.5268 
4 *155:18 *6598:B 18.0589 
5 *155:18 *155:51 31.8049 
6 *155:51 *6599:B 22.9429 
7 *155:51 *155:68 20.7143 
8 *155:68 *6612:B 18.7821 
9 *155:68 *155:81 5.03571 
10 *155:81 *6564:A 9.3 
11 *155:81 *155:88 4.23214 
12 *155:88 *6601:B 21.1571 
13 *155:88 *155:101 1.35714 
14 *155:101 *6566:B 9.3 
15 *155:101 *6600:B 22.925 
*END

*D_NET *156 0.00133788
*CONN
*I *6589:A1 I *D sky130_fd_sc_hd__a22o_2
*I *6567:Y O *D sky130_fd_sc_hd__nand2_2
*CAP
1 *6589:A1 0.000277846
2 *6567:Y 0.000277846
3 *6589:A1 *6568:B 0.000244065
4 *6589:A1 *6589:A2 0.000177821
5 *6589:A1 *6589:B2 5.33005e-05
6 *6589:A1 *302:191 9.52948e-05
7 *6589:A1 *403:61 0.000211706
*RES
1 *6567:Y *6589:A1 34.2786 
*END

*D_NET *157 0.000767894
*CONN
*I *6589:A2 I *D sky130_fd_sc_hd__a22o_2
*I *6568:X O *D sky130_fd_sc_hd__or2_2
*CAP
1 *6589:A2 0.000232078
2 *6568:X 0.000232078
3 *6589:A2 *6740:B1 5.48198e-05
4 *6589:A2 *302:191 1.79846e-05
5 *6589:A2 *401:16 5.31122e-05
6 *6589:A1 *6589:A2 0.000177821
*RES
1 *6568:X *6589:A2 31.3902 
*END

*D_NET *158 0.000920635
*CONN
*I *6593:A I *D sky130_fd_sc_hd__or4_2
*I *6569:X O *D sky130_fd_sc_hd__xor2_2
*CAP
1 *6593:A 0.000170166
2 *6569:X 0.000170166
3 *6593:A *6576:A 9.47613e-05
4 *6593:A *6593:C 0.000140933
5 *6593:A *6593:D 0.000113635
6 *6593:A *6746:A1 0.000191205
7 *6593:A *6748:B1 3.97677e-05
*RES
1 *6569:X *6593:A 32.3321 
*END

*D_NET *159 0.000649478
*CONN
*I *6584:A I *D sky130_fd_sc_hd__or4_2
*I *6570:X O *D sky130_fd_sc_hd__xor2_2
*CAP
1 *6584:A 0.000278519
2 *6570:X 0.000278519
3 *6584:A *6777:RESET_B 0
4 *6584:A *6781:RESET_B 0
5 *6584:A *6806:CLK 9.24395e-05
6 *6584:A *6988:A 0
7 *6584:A *516:10 0
*RES
1 *6570:X *6584:A 32.2786 
*END

*D_NET *160 0.000578694
*CONN
*I *6594:D1 I *D sky130_fd_sc_hd__a2111oi_2
*I *6571:X O *D sky130_fd_sc_hd__xor2_2
*CAP
1 *6594:D1 0.000205255
2 *6571:X 0.000205255
3 *6594:D1 *6836:RESET_B 3.15608e-05
4 *6594:D1 *183:12 7.43578e-06
5 *6594:D1 *400:14 0.000129188
*RES
1 *6571:X *6594:D1 31.3143 
*END

*D_NET *161 0.00163684
*CONN
*I *6584:B I *D sky130_fd_sc_hd__or4_2
*I *6572:X O *D sky130_fd_sc_hd__xor2_2
*CAP
1 *6584:B 0.000434225
2 *6572:X 0.000434225
3 *6584:B *6583:A 2.62628e-05
4 *6584:B *6583:B 6.87975e-06
5 *6584:B *6584:C 0.00036192
6 *6584:B *6743:B2 0.000186662
7 *6584:B *6856:RESET_B 0
8 *6584:B *501:85 0.000186662
*RES
1 *6572:X *6584:B 35.6357 
*END

*D_NET *162 0.000891874
*CONN
*I *6591:A1 I *D sky130_fd_sc_hd__a22o_2
*I *6573:Y O *D sky130_fd_sc_hd__nand2_2
*CAP
1 *6591:A1 0.000136378
2 *6573:Y 0.000136378
3 *6591:A1 *6573:A 5.52238e-05
4 *6591:A1 *6573:B 4.13595e-05
5 *6591:A1 *6576:B 0.000114959
6 *6591:A1 *6591:A2 1.46576e-05
7 *6591:A1 *6591:B1 0.000392917
*RES
1 *6573:Y *6591:A1 22.8321 
*END

*D_NET *163 0.00225054
*CONN
*I *6591:A2 I *D sky130_fd_sc_hd__a22o_2
*I *6574:X O *D sky130_fd_sc_hd__or2_2
*CAP
1 *6591:A2 0.000489608
2 *6574:X 0.000489608
3 *6591:A2 *6576:B 1.46576e-05
4 *6591:A2 *6577:A 0
5 *6591:A2 *6591:B2 0
6 *6591:A2 *6593:B 0.000100823
7 *6591:A2 *6593:D 0.00017804
8 *6591:A2 *6746:B2 0.000356028
9 *6591:A2 *502:45 0
10 *6591:A2 *504:24 0.000607115
11 *6591:A2 *524:23 0
12 *6591:A1 *6591:A2 1.46576e-05
*RES
1 *6574:X *6591:A2 38.658 
*END

*D_NET *164 0.00136506
*CONN
*I *6593:B I *D sky130_fd_sc_hd__or4_2
*I *6575:X O *D sky130_fd_sc_hd__xor2_2
*CAP
1 *6593:B 0.000375954
2 *6575:X 0.000375954
3 *6593:B *6593:D 0.000419835
4 *6593:B *6983:A 6.87975e-06
5 *6593:B *307:28 8.27839e-05
6 *6593:B *502:45 0
7 *6593:B *519:10 2.83284e-06
8 *6591:A2 *6593:B 0.000100823
*RES
1 *6575:X *6593:B 36.2786 
*END

*D_NET *165 0.00135501
*CONN
*I *6591:B1 I *D sky130_fd_sc_hd__a22o_2
*I *6576:X O *D sky130_fd_sc_hd__or2_2
*CAP
1 *6591:B1 0.000379571
2 *6576:X 0.000379571
3 *6591:B1 *6573:B 7.55769e-05
4 *6591:B1 *6576:B 1.74352e-05
5 *6591:B1 *439:43 9.87648e-05
6 *6591:B1 *505:26 1.11775e-05
7 *6591:A1 *6591:B1 0.000392917
*RES
1 *6576:X *6591:B1 33.6 
*END

*D_NET *166 0.000706799
*CONN
*I *6591:B2 I *D sky130_fd_sc_hd__a22o_2
*I *6577:Y O *D sky130_fd_sc_hd__nand2_2
*CAP
1 *6591:B2 0.000304455
2 *6577:Y 0.000304455
3 *6591:B2 *6576:B 0
4 *6591:B2 *6577:A 7.18974e-05
5 *6591:B2 *6836:RESET_B 0
6 *6591:B2 *400:14 2.59921e-05
7 *6591:A2 *6591:B2 0
*RES
1 *6577:Y *6591:B2 32.1357 
*END

*D_NET *167 0.000646805
*CONN
*I *6594:A1 I *D sky130_fd_sc_hd__a2111oi_2
*I *6578:X O *D sky130_fd_sc_hd__or2_2
*CAP
1 *6594:A1 0.000153163
2 *6578:X 0.000153163
3 *6594:A1 *6578:A 0.00016208
4 *6594:A1 *6578:B 6.05161e-06
5 *6594:A1 *505:45 0.000154762
6 *6594:A1 *517:16 7.33323e-06
7 *6594:A1 *521:12 1.02504e-05
*RES
1 *6578:X *6594:A1 30.9036 
*END

*D_NET *168 0.000938711
*CONN
*I *6594:A2 I *D sky130_fd_sc_hd__a2111oi_2
*I *6579:Y O *D sky130_fd_sc_hd__nand2_2
*CAP
1 *6594:A2 0.00014108
2 *6579:Y 0.00014108
3 *6594:A2 *6579:A 5.52302e-05
4 *6594:A2 *6748:A1 6.42778e-05
5 *6594:A2 *308:18 1.74352e-05
6 *6594:A2 *439:43 8.18673e-05
7 *6594:A2 *505:45 0.000252098
8 *6594:A2 *521:12 0.000185643
*RES
1 *6579:Y *6594:A2 32.5464 
*END

*D_NET *169 0.00184542
*CONN
*I *6593:C I *D sky130_fd_sc_hd__or4_2
*I *6580:X O *D sky130_fd_sc_hd__xor2_2
*CAP
1 *6593:C 0.000273638
2 *6580:X 0.000273638
3 *6593:C *6576:A 1.21289e-05
4 *6593:C *6746:A1 4.45698e-05
5 *6593:C *6746:A2 1.46576e-05
6 *6593:C *6746:B2 1.69115e-05
7 *6593:C *6748:B1 0.000263524
8 *6593:C *402:118 0.00054664
9 *6593:A *6593:C 0.000140933
10 *6869:D *6593:C 0.000258783
*RES
1 *6580:X *6593:C 37.2964 
*END

*D_NET *170 0.00235072
*CONN
*I *6584:C I *D sky130_fd_sc_hd__or4_2
*I *6581:X O *D sky130_fd_sc_hd__xor2_2
*CAP
1 *6584:C 0.000597993
2 *6581:X 0.000597993
3 *6584:C *6584:D 3.18676e-05
4 *6584:C *6743:A2 0.000333188
5 *6584:C *6743:B2 0.00012685
6 *6584:C *402:20 7.79058e-05
7 *6584:C *402:59 2.77173e-05
8 *6584:C *402:80 0.00014006
9 *6584:B *6584:C 0.00036192
10 *6866:D *6584:C 5.52302e-05
*RES
1 *6581:X *6584:C 32.85 
*END

*D_NET *171 0.00235234
*CONN
*I *6590:D1 I *D sky130_fd_sc_hd__a2111oi_2
*I *6582:X O *D sky130_fd_sc_hd__xor2_2
*CAP
1 *6590:D1 0.000899086
2 *6582:X 0.000899086
3 *6590:D1 *6588:A 4.51611e-05
4 *6590:D1 *6589:B1 0.000271352
5 *6590:D1 *6590:C1 4.6025e-06
6 *6590:D1 *6863:CLK 0
7 *6590:D1 *179:22 0.000134681
8 *6590:D1 *396:28 4.5089e-05
9 *6590:D1 *504:47 9.11048e-06
10 *6590:D1 *504:76 4.41739e-05
*RES
1 *6582:X *6590:D1 39.6536 
*END

*D_NET *172 8.18297e-05
*CONN
*I *6584:D I *D sky130_fd_sc_hd__or4_2
*I *6583:X O *D sky130_fd_sc_hd__xor2_2
*CAP
1 *6584:D 9.04722e-06
2 *6583:X 9.04722e-06
3 *6584:D *402:80 3.18676e-05
4 *6584:C *6584:D 3.18676e-05
*RES
1 *6583:X *6584:D 19.1357 
*END

*D_NET *173 0.00853422
*CONN
*I *6590:C1 I *D sky130_fd_sc_hd__a2111oi_2
*I *6584:X O *D sky130_fd_sc_hd__or4_2
*CAP
1 *6590:C1 0.00179342
2 *6584:X 0.00179342
3 *6590:C1 *396:57 1.90936e-05
4 *6590:C1 *402:80 0.000272193
5 *6590:C1 *505:81 0.00119655
6 *6590:D1 *6590:C1 4.6025e-06
7 *6788:CLK *6590:C1 5.32236e-05
8 *155:51 *6590:C1 0.00340172
*RES
1 *6584:X *6590:C1 47.7464 
*END

*D_NET *174 0.00130007
*CONN
*I *6590:A1 I *D sky130_fd_sc_hd__a2111oi_2
*I *6585:Y O *D sky130_fd_sc_hd__nand2_2
*CAP
1 *6590:A1 0.000252651
2 *6585:Y 0.000252651
3 *6590:A1 *6586:B 0.000123806
4 *6590:A1 *6747:A1 0
5 *6590:A1 *6870:RESET_B 0
6 *6590:A1 *179:22 0.000352374
7 *6590:A1 *302:191 1.01912e-05
8 *6590:A1 *395:18 6.57701e-05
9 *6590:A1 *395:73 0.000172309
10 *6590:A1 *504:24 1.33343e-05
11 *6590:A1 *504:28 4.48569e-05
12 *6590:A1 *504:47 1.21258e-05
*RES
1 *6585:Y *6590:A1 34.1179 
*END

*D_NET *175 0.000674596
*CONN
*I *6590:A2 I *D sky130_fd_sc_hd__a2111oi_2
*I *6586:X O *D sky130_fd_sc_hd__or2_2
*CAP
1 *6590:A2 0.000326295
2 *6586:X 0.000326295
3 *6590:A2 *6742:B2 1.85392e-05
4 *6590:A2 *302:191 3.466e-06
*RES
1 *6586:X *6590:A2 22.7607 
*END

*D_NET *176 0.000887134
*CONN
*I *6589:B1 I *D sky130_fd_sc_hd__a22o_2
*I *6587:Y O *D sky130_fd_sc_hd__nand2_2
*CAP
1 *6589:B1 0.000164012
2 *6587:Y 0.000164012
3 *6589:B1 *6587:A 4.58976e-05
4 *6589:B1 *6587:B 5.52302e-05
5 *6589:B1 *6588:A 1.98839e-05
6 *6589:B1 *6589:B2 0.000141962
7 *6589:B1 *6863:CLK 0
8 *6589:B1 *396:28 2.47833e-05
9 *6590:D1 *6589:B1 0.000271352
*RES
1 *6587:Y *6589:B1 32.1357 
*END

*D_NET *177 0.000539157
*CONN
*I *6589:B2 I *D sky130_fd_sc_hd__a22o_2
*I *6588:X O *D sky130_fd_sc_hd__or2_2
*CAP
1 *6589:B2 8.79984e-05
2 *6588:X 8.79984e-05
3 *6589:B2 *302:191 2.59355e-05
4 *6589:B2 *401:16 0.000141962
5 *6589:A1 *6589:B2 5.33005e-05
6 *6589:B1 *6589:B2 0.000141962
*RES
1 *6588:X *6589:B2 30.0821 
*END

*D_NET *178 0.000831718
*CONN
*I *6590:B1 I *D sky130_fd_sc_hd__a2111oi_2
*I *6589:X O *D sky130_fd_sc_hd__a22o_2
*CAP
1 *6590:B1 0.000313338
2 *6589:X 0.000313338
3 *6590:B1 *302:191 0.000205042
*RES
1 *6589:X *6590:B1 24.417 
*END

*D_NET *179 0.00569429
*CONN
*I *7587:A I *D sky130_fd_sc_hd__clkdlybuf4s25_1
*I *6590:Y O *D sky130_fd_sc_hd__a2111oi_2
*CAP
1 *7587:A 0.000263713
2 *6590:Y 0.00132233
3 *179:22 0.00158604
4 *7587:A *6569:B 0
5 *7587:A *6576:B 0
6 *7587:A *6859:CLK 0
7 *7587:A *6859:RESET_B 0.000274548
8 *7587:A *395:100 0.000121366
9 *7587:A *431:62 0
10 *179:22 *6859:RESET_B 1.29251e-05
11 *179:22 *6863:CLK 0
12 *179:22 *6917:A 2.66984e-05
13 *179:22 *396:20 2.42054e-05
14 *179:22 *396:28 4.44754e-05
15 *179:22 *504:24 0.00104695
16 *179:22 *504:28 1.8461e-05
17 *179:22 *504:47 0.00032397
18 *179:22 *504:76 0.000141547
19 *6590:A1 *179:22 0.000352374
20 *6590:D1 *179:22 0.000134681
*RES
1 *6590:Y *179:22 44.6661 
2 *179:22 *7587:A 20.3982 
*END

*D_NET *180 0.000662655
*CONN
*I *6594:B1 I *D sky130_fd_sc_hd__a2111oi_2
*I *6591:X O *D sky130_fd_sc_hd__a22o_2
*CAP
1 *6594:B1 0.000247452
2 *6591:X 0.000247452
3 *6594:B1 *6576:B 5.33334e-05
4 *6594:B1 *6594:C1 0.000109219
5 *6594:B1 *6836:RESET_B 0
6 *6594:B1 *183:12 5.19842e-06
*RES
1 *6591:X *6594:B1 31.5643 
*END

*D_NET *181 0.00308518
*CONN
*I *6593:D I *D sky130_fd_sc_hd__or4_2
*I *6592:X O *D sky130_fd_sc_hd__xor2_2
*CAP
1 *6593:D 0.000770256
2 *6592:X 0.000770256
3 *6593:D *6576:A 5.71472e-05
4 *6593:D *6592:A 0.000315158
5 *6593:D *6592:B 3.03071e-05
6 *6593:D *6746:A1 0
7 *6593:D *6983:A 0.000338876
8 *6593:D *502:45 9.16671e-05
9 *6591:A2 *6593:D 0.00017804
10 *6593:A *6593:D 0.000113635
11 *6593:B *6593:D 0.000419835
*RES
1 *6592:X *6593:D 44.725 
*END

*D_NET *182 0.00142011
*CONN
*I *6594:C1 I *D sky130_fd_sc_hd__a2111oi_2
*I *6593:X O *D sky130_fd_sc_hd__or4_2
*CAP
1 *6594:C1 0.000345745
2 *6593:X 0.000345745
3 *6594:C1 *6576:A 7.32173e-05
4 *6594:C1 *6576:B 0.000142812
5 *6594:C1 *6836:RESET_B 0
6 *6594:C1 *183:12 5.71472e-05
7 *6594:C1 *439:43 2.30116e-06
8 *6594:C1 *502:45 0.000343924
9 *6594:B1 *6594:C1 0.000109219
*RES
1 *6593:X *6594:C1 34.9036 
*END

*D_NET *183 0.00136618
*CONN
*I *6597:B I *D sky130_fd_sc_hd__and3_2
*I *6595:B I *D sky130_fd_sc_hd__nand2_2
*I *6594:Y O *D sky130_fd_sc_hd__a2111oi_2
*CAP
1 *6597:B 0
2 *6595:B 0.000172749
3 *6594:Y 0.000284803
4 *183:12 0.000457552
5 *6595:B *6595:A 7.61932e-05
6 *6595:B *6597:C 3.48705e-05
7 *183:12 *6836:RESET_B 0
8 *183:12 *439:43 0.000270236
9 *6594:B1 *183:12 5.19842e-06
10 *6594:C1 *183:12 5.71472e-05
11 *6594:D1 *183:12 7.43578e-06
*RES
1 *6594:Y *183:12 23.5321 
2 *183:12 *6595:B 12.6393 
3 *183:12 *6597:B 9.3 
*END

*D_NET *184 0.00189488
*CONN
*I *6711:B I *D sky130_fd_sc_hd__nor3_2
*I *6712:B I *D sky130_fd_sc_hd__or4_2
*I *6595:Y O *D sky130_fd_sc_hd__nand2_2
*CAP
1 *6711:B 0
2 *6712:B 0.000211538
3 *6595:Y 0.000494142
4 *184:10 0.00070568
5 *6712:B *6714:A2 0
6 *6712:B *258:30 2.84494e-05
7 *6712:B *1081:36 0.000227539
8 *184:10 *6597:C 0.000227532
9 *184:10 *6714:A2 0
*RES
1 *6595:Y *184:10 22.4429 
2 *184:10 *6712:B 17.0143 
3 *184:10 *6711:B 13.8 
*END

*D_NET *185 0.00138723
*CONN
*I *6597:C I *D sky130_fd_sc_hd__and3_2
*I *6596:X O *D sky130_fd_sc_hd__o211a_2
*CAP
1 *6597:C 0.000440258
2 *6596:X 0.000440258
3 *6597:C *6595:A 0.00014183
4 *6597:C *6596:A2 4.46186e-06
5 *6597:C *6610:A1 9.80173e-05
6 *6595:B *6597:C 3.48705e-05
7 *184:10 *6597:C 0.000227532
*RES
1 *6596:X *6597:C 34.9571 
*END

*D_NET *186 0.0209079
*CONN
*I *6716:A I *D sky130_fd_sc_hd__and2_2
*I *6715:A2 I *D sky130_fd_sc_hd__a21oi_2
*I *6642:A2 I *D sky130_fd_sc_hd__a21oi_2
*I *6610:A1 I *D sky130_fd_sc_hd__o21ai_2
*I *6597:X O *D sky130_fd_sc_hd__and3_2
*CAP
1 *6716:A 0.000432112
2 *6715:A2 2.15003e-05
3 *6642:A2 0.000159666
4 *6610:A1 0.00243997
5 *6597:X 0.00177324
6 *186:70 0.00055772
7 *186:56 0.00119353
8 *186:54 0.00194933
9 *186:42 0.00223119
10 *6610:A1 *6595:A 4.14279e-05
11 *6610:A1 *6610:B1 2.89016e-05
12 *6610:A1 *6768:RESET_B 7.43578e-06
13 *6610:A1 *6799:D 0.000265859
14 *6610:A1 *400:14 0.000229456
15 *6642:A2 *6642:A1 0.000606655
16 *6642:A2 *6643:B 2.50239e-05
17 *6642:A2 *475:78 0.000674787
18 *6715:A2 *6642:A1 1.00733e-05
19 *6716:A *6733:A1 1.03447e-05
20 *6716:A *6733:A2 0.000140187
21 *6716:A *402:20 8.6229e-06
22 *6716:A *508:78 0
23 *186:42 *6747:B2 0
24 *186:42 *6768:RESET_B 2.59355e-05
25 *186:42 *6923:A 3.17067e-05
26 *186:42 *396:20 0.000316111
27 *186:42 *396:130 7.03295e-05
28 *186:42 *430:52 2.12087e-05
29 *186:42 *475:54 6.05161e-06
30 *186:42 *514:20 0.000140933
31 *186:42 *514:24 0.000154146
32 *186:54 *6740:B1 5.54547e-05
33 *186:54 *6758:A 0.000504113
34 *186:54 *7023:A 0.000399841
35 *186:54 *303:70 0.000225609
36 *186:54 *306:25 0.000658221
37 *186:54 *425:66 1.20135e-05
38 *186:54 *475:62 0.00182082
39 *186:54 *508:78 0.00013886
40 *186:54 *509:14 0.00021187
41 *186:54 *543:31 1.40306e-05
42 *186:56 *475:62 0.00109802
43 *186:56 *508:78 0.000445573
44 *186:56 *509:14 0.00077021
45 *186:70 *6642:A1 2.89016e-05
46 *186:70 *440:80 0
47 *186:70 *475:62 0.000194553
48 *186:70 *475:78 4.08637e-05
49 *186:70 *508:78 1.27473e-05
50 *186:70 *509:14 0.000237937
51 *6597:C *6610:A1 9.80173e-05
52 *6856:D *6716:A 0
53 *6870:D *186:54 5.65955e-05
54 *155:68 *186:42 0.000310165
*RES
1 *6597:X *6610:A1 42.3143 
2 *6610:A1 *186:42 41.6393 
3 *186:42 *186:54 38.4196 
4 *186:54 *186:56 18.8125 
5 *186:56 *186:70 18.0179 
6 *186:70 *6642:A2 16.55 
7 *186:70 *6715:A2 9.72857 
8 *186:56 *6716:A 23.925 
*END

*D_NET *187 0.0229843
*CONN
*I *6744:A2 I *D sky130_fd_sc_hd__a22o_2
*I *1113:DIODE I *D sky130_fd_sc_hd__diode_2
*I *6922:A I *D sky130_fd_sc_hd__clkdlybuf4s25_1
*I *6598:X O *D sky130_fd_sc_hd__and2_2
*CAP
1 *6744:A2 3.86098e-05
2 *1113:DIODE 3.86098e-05
3 *6922:A 0.000170803
4 *6598:X 0.000410505
5 *187:37 0.00168732
6 *187:29 0.00526158
7 *187:27 0.00376937
8 *187:12 0.000776419
9 *6744:A2 *6573:B 8.68158e-05
10 *6744:A2 *6748:B1 3.69999e-05
11 *6922:A *6572:B 9.41642e-05
12 *6922:A *311:43 0.000175892
13 *6922:A *501:85 0.000158368
14 *187:12 *6739:A2 7.36162e-05
15 *187:12 *6739:B1 5.58577e-05
16 *187:12 *6856:CLK 0
17 *187:12 *402:10 3.34783e-05
18 *187:27 *6739:A2 0.00018459
19 *187:27 *511:53 0.000150697
20 *187:29 *440:93 0.00542613
21 *187:37 *6574:A 0.000146625
22 *187:37 *6592:A 0
23 *187:37 *6808:CLK 0
24 *187:37 *302:239 0
25 *187:37 *439:25 0.00282707
26 *187:37 *439:43 6.47608e-05
27 *187:37 *505:81 0.000175374
28 *6598:B *187:12 0.000144801
29 *6856:D *187:12 7.06672e-05
30 *6867:D *6744:A2 3.79521e-05
31 *155:18 *187:12 0.000394066
32 *155:18 *187:27 0.000493189
*RES
1 *6598:X *187:12 22.7821 
2 *187:12 *6922:A 18.05 
3 *187:12 *187:27 11 
4 *187:27 *187:29 53.5179 
5 *187:29 *187:37 47.25 
6 *187:37 *1113:DIODE 13.8 
7 *1113:DIODE *6744:A2 20.1357 
*END

*D_NET *188 0.00087477
*CONN
*I *6610:A2 I *D sky130_fd_sc_hd__o21ai_2
*I *6599:Y O *D sky130_fd_sc_hd__nand2_2
*CAP
1 *6610:A2 0.000273333
2 *6599:Y 0.000273333
3 *6610:A2 *6768:RESET_B 5.80203e-05
4 *6610:A2 *1084:8 7.49499e-05
5 *155:68 *6610:A2 0.000195134
*RES
1 *6599:Y *6610:A2 32.8679 
*END

*D_NET *189 0.000812964
*CONN
*I *6611:B1 I *D sky130_fd_sc_hd__o31a_2
*I *6600:X O *D sky130_fd_sc_hd__and2_2
*CAP
1 *6611:B1 0.000348608
2 *6600:X 0.000348608
3 *6611:B1 *6609:D 4.35421e-05
4 *6611:B1 *197:34 2.27416e-05
5 *6611:B1 *199:8 1.15172e-05
6 *6611:B1 *1082:10 3.79467e-05
*RES
1 *6600:X *6611:B1 33.6 
*END

*D_NET *190 0.00155528
*CONN
*I *6609:A I *D sky130_fd_sc_hd__or4_2
*I *6601:Y O *D sky130_fd_sc_hd__nand2_2
*CAP
1 *6609:A 0.000327366
2 *6601:Y 0.000327366
3 *6609:A *6611:A1 3.4879e-05
4 *6609:A *6872:RESET_B 2.91794e-05
5 *6609:A *198:10 0.000344943
6 *6609:A *221:24 0.00029513
7 *6609:A *1082:10 0.000196413
*RES
1 *6601:Y *6609:A 38.1536 
*END

*D_NET *191 0.00109165
*CONN
*I *6604:C I *D sky130_fd_sc_hd__or4_2
*I *6602:Y O *D sky130_fd_sc_hd__nand2_2
*CAP
1 *6604:C 0.000480893
2 *6602:Y 0.000480893
3 *6604:C *6604:D 0.000129868
4 *6604:C *1095:10 0
5 *6604:C *1095:12 0
*RES
1 *6602:Y *6604:C 33.8857 
*END

*D_NET *192 0.00209717
*CONN
*I *6674:A I *D sky130_fd_sc_hd__nor2_2
*I *6604:D I *D sky130_fd_sc_hd__or4_2
*I *6603:Y O *D sky130_fd_sc_hd__nand2_2
*CAP
1 *6674:A 5.98654e-05
2 *6604:D 0.000647908
3 *6603:Y 0.000707774
4 *6604:D *6655:D 2.8266e-06
5 *6604:D *6661:A 0
6 *6604:D *6667:A 0
7 *6604:D *6681:C 0.000193125
8 *6604:D *227:45 0.000111997
9 *6604:D *397:12 0
10 *6604:D *439:60 0
11 *6604:D *1094:42 5.52238e-05
12 *6604:D *1095:10 0
13 *6604:D *1095:12 0
14 *6674:A *1099:34 0.000188586
15 *6604:C *6604:D 0.000129868
*RES
1 *6603:Y *6604:D 39.7964 
2 *6603:Y *6674:A 20.3679 
*END

*D_NET *193 0.00510513
*CONN
*I *6609:B I *D sky130_fd_sc_hd__or4_2
*I *6611:A1 I *D sky130_fd_sc_hd__o31a_2
*I *6604:X O *D sky130_fd_sc_hd__or4_2
*CAP
1 *6609:B 0
2 *6611:A1 0.000136935
3 *6604:X 0.00173557
4 *193:18 0.00187251
5 *6611:A1 *6609:D 0.000100823
6 *6611:A1 *6611:A2 0.000148189
7 *6611:A1 *1082:10 0
8 *193:18 *6604:B 5.19842e-06
9 *193:18 *6654:A1 0.000487467
10 *193:18 *6654:B1 7.22081e-05
11 *193:18 *6654:B2 3.32631e-05
12 *193:18 *6655:D 9.81098e-05
13 *193:18 *6818:CLK 5.04705e-05
14 *193:18 *6818:RESET_B 9.23695e-05
15 *193:18 *198:10 1.03968e-05
16 *193:18 *1094:42 1.33343e-05
17 *6609:A *6611:A1 3.4879e-05
18 *6818:D *193:18 0.000213406
*RES
1 *6604:X *193:18 41.8893 
2 *193:18 *6611:A1 21.1929 
3 *193:18 *6609:B 9.3 
*END

*D_NET *194 0.00137061
*CONN
*I *6606:D I *D sky130_fd_sc_hd__or4_2
*I *6605:X O *D sky130_fd_sc_hd__or4b_2
*CAP
1 *6606:D 0.000554855
2 *6605:X 0.000554855
3 *6606:D *6605:D_N 4.01768e-05
4 *6606:D *6916:A 0.000220724
*RES
1 *6605:X *6606:D 26.1357 
*END

*D_NET *195 0.00196677
*CONN
*I *6611:A2 I *D sky130_fd_sc_hd__o31a_2
*I *6609:C I *D sky130_fd_sc_hd__or4_2
*I *6606:X O *D sky130_fd_sc_hd__or4_2
*CAP
1 *6611:A2 0.000111818
2 *6609:C 0
3 *6606:X 0.000580355
4 *195:10 0.000692173
5 *6611:A2 *6609:D 2.23987e-05
6 *6611:A2 *381:73 0
7 *195:10 *6606:B 5.33005e-05
8 *195:10 *6606:C 9.90431e-05
9 *195:10 *6609:D 3.07555e-05
10 *195:10 *6685:A1 3.5707e-05
11 *195:10 *6694:A2 0
12 *195:10 *6829:RESET_B 0
13 *195:10 *6916:A 0.000155877
14 *195:10 *381:65 3.71496e-05
15 *195:10 *381:73 0
16 *6611:A1 *6611:A2 0.000148189
*RES
1 *6606:X *195:10 24.4071 
2 *195:10 *6609:C 13.8 
3 *195:10 *6611:A2 16.3536 
*END

*D_NET *196 0.00062317
*CONN
*I *6649:A1 I *D sky130_fd_sc_hd__a32o_2
*I *6607:Y O *D sky130_fd_sc_hd__nand2_2
*CAP
1 *6649:A1 8.933e-05
2 *6607:Y 8.933e-05
3 *6649:A1 *6607:A 5.71472e-05
4 *6649:A1 *6649:A2 6.85766e-05
5 *6649:A1 *6649:B2 2.19835e-05
6 *6649:A1 *305:83 0.000113083
7 *6649:A1 *1085:16 0.00018372
*RES
1 *6607:Y *6649:A1 21.7071 
*END

*D_NET *197 0.00493061
*CONN
*I *6611:A3 I *D sky130_fd_sc_hd__o31a_2
*I *6609:D I *D sky130_fd_sc_hd__or4_2
*I *6653:B I *D sky130_fd_sc_hd__nor2_2
*I *6650:A1 I *D sky130_fd_sc_hd__a21o_2
*I *6608:Y O *D sky130_fd_sc_hd__nand3_2
*CAP
1 *6611:A3 0
2 *6609:D 0.000157887
3 *6653:B 0.000153205
4 *6650:A1 0.000227886
5 *6608:Y 0.000521623
6 *197:34 0.000580211
7 *197:21 0.000690073
8 *197:10 0.000864054
9 *6609:D *199:8 0.000136958
10 *6609:D *1082:10 0
11 *6650:A1 *381:92 6.44866e-05
12 *6650:A1 *398:125 5.71472e-05
13 *6653:B *6653:A 1.02504e-05
14 *6653:B *6818:CLK 0
15 *197:10 *6608:A 5.52302e-05
16 *197:10 *6816:RESET_B 4.70821e-05
17 *197:10 *381:92 0.000188335
18 *197:10 *1093:8 4.37835e-05
19 *197:21 *6818:CLK 0
20 *197:34 *6652:A 1.98839e-05
21 *197:34 *6652:B 7.77652e-05
22 *197:34 *199:8 0.000558815
23 *197:34 *224:12 0.000122091
24 *6611:A1 *6609:D 0.000100823
25 *6611:A2 *6609:D 2.23987e-05
26 *6611:B1 *6609:D 4.35421e-05
27 *6611:B1 *197:34 2.27416e-05
28 *6816:D *6650:A1 5.52238e-05
29 *6816:D *197:21 7.83587e-05
30 *6817:D *6653:B 0
31 *195:10 *6609:D 3.07555e-05
*RES
1 *6608:Y *197:10 16.9607 
2 *197:10 *6650:A1 12.3 
3 *197:10 *197:21 6.75 
4 *197:21 *6653:B 16.05 
5 *197:21 *197:34 14.0714 
6 *197:34 *6609:D 22.2107 
7 *197:34 *6611:A3 9.3 
*END

*D_NET *198 0.0047913
*CONN
*I *6646:B1 I *D sky130_fd_sc_hd__o31ai_2
*I *6610:B1 I *D sky130_fd_sc_hd__o21ai_2
*I *6609:X O *D sky130_fd_sc_hd__or4_2
*CAP
1 *6646:B1 0
2 *6610:B1 0.000686099
3 *6609:X 0.000926106
4 *198:10 0.00161221
5 *6610:B1 *6646:A3 6.66939e-05
6 *6610:B1 *6773:RESET_B 8.91726e-05
7 *6610:B1 *6798:D 5.56943e-05
8 *6610:B1 *6799:D 0.000106306
9 *6610:B1 *7002:A 7.63235e-05
10 *6610:B1 *7007:A 0.000295123
11 *6610:B1 *433:21 0
12 *6610:B1 *433:23 0
13 *198:10 *6872:RESET_B 5.048e-05
14 *198:10 *221:24 2.32693e-05
15 *198:10 *222:12 0.000415455
16 *6601:B *6610:B1 0
17 *6601:B *198:10 4.1331e-06
18 *6609:A *198:10 0.000344943
19 *6610:A1 *6610:B1 2.89016e-05
20 *6612:B *198:10 0
21 *155:68 *6610:B1 0
22 *193:18 *198:10 1.03968e-05
*RES
1 *6609:X *198:10 28.9607 
2 *198:10 *6610:B1 29.2643 
3 *198:10 *6646:B1 13.8 
*END

*D_NET *199 0.00781518
*CONN
*I *6702:A I *D sky130_fd_sc_hd__or2_2
*I *6704:A I *D sky130_fd_sc_hd__or3b_2
*I *6920:A I *D sky130_fd_sc_hd__clkdlybuf4s25_1
*I *6611:X O *D sky130_fd_sc_hd__o31a_2
*CAP
1 *6702:A 0.000387855
2 *6704:A 0
3 *6920:A 0.000252514
4 *6611:X 0.000510518
5 *199:33 0.00178629
6 *199:8 0.00216147
7 *6702:A *6702:B 6.79057e-05
8 *6702:A *256:21 2.65105e-05
9 *6702:A *259:10 5.7661e-06
10 *6702:A *1079:12 0.0002214
11 *6920:A *6654:A2 0
12 *6920:A *398:14 3.17067e-05
13 *6920:A *398:104 6.5185e-05
14 *6920:A *398:125 7.6021e-05
15 *199:33 *6644:B 0
16 *199:33 *6654:A2 0
17 *199:33 *6703:B1 0.000758581
18 *199:33 *6704:C_N 0
19 *199:33 *6706:C 0.000110242
20 *199:33 *6707:B1 0.000222163
21 *199:33 *6708:A1 0.000171368
22 *199:33 *6818:CLK 0
23 *199:33 *224:12 0.000150625
24 *199:33 *256:12 6.61507e-05
25 *199:33 *302:272 0
26 *199:33 *381:73 0
27 *199:33 *398:125 3.22834e-05
28 *199:33 *398:129 0
29 *199:33 *401:107 3.33214e-06
30 *199:33 *1079:20 0
31 *6609:D *199:8 0.000136958
32 *6611:B1 *199:8 1.15172e-05
33 *6817:D *6920:A 0
34 *197:34 *199:8 0.000558815
*RES
1 *6611:X *199:8 20.9071 
2 *199:8 *6920:A 17.8714 
3 *199:8 *199:33 37.6429 
4 *199:33 *6704:A 9.3 
5 *199:33 *6702:A 16.8357 
*END

*D_NET *200 0.00188235
*CONN
*I *6613:B I *D sky130_fd_sc_hd__or2_2
*I *6645:A0 I *D sky130_fd_sc_hd__mux2_1
*I *6612:X O *D sky130_fd_sc_hd__and2_2
*CAP
1 *6613:B 0
2 *6645:A0 0.000223029
3 *6612:X 0.000435754
4 *200:12 0.000658783
5 *6645:A0 *6813:RESET_B 0.000185118
6 *6645:A0 *221:24 0.00012754
7 *6645:A0 *531:18 9.91375e-05
8 *200:12 *6829:CLK 2.41972e-05
9 *200:12 *221:24 0
10 *200:12 *317:10 7.91743e-05
11 *200:12 *428:8 4.96113e-05
*RES
1 *6612:X *200:12 25.8 
2 *200:12 *6645:A0 22.4786 
3 *200:12 *6613:B 9.3 
*END

*D_NET *201 0.004827
*CONN
*I *6615:C1 I *D sky130_fd_sc_hd__a221o_2
*I *6614:X O *D sky130_fd_sc_hd__a22o_2
*CAP
1 *6615:C1 0
2 *6614:X 0.00186597
3 *201:20 0.00186597
4 *201:20 *6614:A1 4.46921e-05
5 *201:20 *6614:A2 3.95241e-05
6 *201:20 *7224:A 1.37743e-05
7 *201:20 *7226:A 9.94194e-06
8 *201:20 *7227:A 0.000143887
9 *201:20 *7228:A 1.92674e-05
10 *201:20 *7230:A 0.000101092
11 *201:20 *7231:A 0.000142411
12 *201:20 *7232:A 1.89189e-05
13 *201:20 *7236:A 6.85154e-05
14 *201:20 *408:22 0.000221907
15 *201:20 *411:129 5.41609e-05
16 *201:20 *720:12 3.33238e-05
17 *6622:A1 *201:20 9.64744e-05
18 *6622:C1 *201:20 8.71847e-05
*RES
1 *6614:X *201:20 46.2107 
2 *201:20 *6615:C1 9.3 
*END

*D_NET *202 0.000600365
*CONN
*I *6622:A2 I *D sky130_fd_sc_hd__a211o_2
*I *6615:X O *D sky130_fd_sc_hd__a221o_2
*CAP
1 *6622:A2 0.000129206
2 *6615:X 0.000129206
3 *6622:A2 *6615:A2 0.000122933
4 *6622:A2 *6795:CLK 0.000122933
5 *150:59 *6622:A2 9.60875e-05
*RES
1 *6615:X *6622:A2 30.1893 
*END

*D_NET *203 0.00272137
*CONN
*I *6617:C1 I *D sky130_fd_sc_hd__a221o_2
*I *6616:X O *D sky130_fd_sc_hd__a22o_2
*CAP
1 *6617:C1 0.000696575
2 *6616:X 0.000696575
3 *6617:C1 *6616:A1 0.000582263
4 *6617:C1 *6616:A2 4.11553e-05
5 *6617:C1 *6616:B2 0.000447925
6 *6617:C1 *6617:A2 5.00087e-05
7 *6617:C1 *6617:B2 8.44022e-05
8 *6617:C1 *294:35 0.000122468
*RES
1 *6616:X *6617:C1 34.2786 
*END

*D_NET *204 0.00568304
*CONN
*I *6621:A2 I *D sky130_fd_sc_hd__a21o_2
*I *6617:X O *D sky130_fd_sc_hd__a221o_2
*CAP
1 *6621:A2 0.000945892
2 *6617:X 0.00093428
3 *204:10 0.00188017
4 *6621:A2 *6543:B 4.15183e-05
5 *6621:A2 *6615:A2 3.10252e-05
6 *6621:A2 *6621:B1 8.16441e-05
7 *6621:A2 *6622:B1 5.33433e-05
8 *6621:A2 *7145:A 0
9 *6621:A2 *7154:B 6.42338e-05
10 *6621:A2 *7188:A 0.000179656
11 *6621:A2 *7208:A 7.6021e-05
12 *6621:A2 *7211:A 3.71496e-05
13 *6621:A2 *7216:A 0
14 *6621:A2 *7218:A 6.42338e-05
15 *6621:A2 *414:93 0.000142089
16 *204:10 *6616:B2 8.6229e-06
17 *204:10 *7147:A 0.000126439
18 *204:10 *7148:A 0.000153047
19 *204:10 *7149:A 0
20 *204:10 *7354:A 0
21 *204:10 *7355:A 0
22 *204:10 *7369:A 0.00012401
23 *204:10 *414:69 0.000154179
24 *204:10 *414:93 0.000528334
25 *6621:A1 *6621:A2 5.71472e-05
26 *150:49 *6621:A2 0
*RES
1 *6617:X *204:10 34.8268 
2 *204:10 *6621:A2 32.9339 
*END

*D_NET *205 0.0233645
*CONN
*I *6620:A2 I *D sky130_fd_sc_hd__a22o_2
*I *6618:X O *D sky130_fd_sc_hd__mux4_2
*CAP
1 *6620:A2 1.03527e-05
2 *6618:X 0
3 *205:32 0.00219436
4 *205:12 0.00735371
5 *205:10 0.00700536
6 *205:6 0.00183566
7 *205:10 *6618:A0 0.000102553
8 *205:10 *300:12 0
9 *205:10 *477:22 0
10 *205:10 *477:24 0.00049312
11 *205:12 *7241:A 7.66725e-05
12 *205:12 *7250:B 0.000126617
13 *205:12 *7577:en 0.000534243
14 *205:12 *285:9 0
15 *205:12 *408:10 7.65804e-05
16 *205:12 *481:20 0.000859429
17 *205:12 *514:28 0
18 *205:32 *6605:C 0.000173328
19 *205:32 *6606:A 1.08359e-05
20 *205:32 *6685:A1 0.000123039
21 *205:32 *6685:B1 0.000157221
22 *205:32 *6686:A3 0
23 *205:32 *6688:A 2.95641e-05
24 *205:32 *6689:B1 0.000320185
25 *205:32 *6689:B2 3.73163e-05
26 *205:32 *6691:C 0.00017309
27 *205:32 *7219:A 1.91113e-05
28 *205:32 *7220:A 2.23488e-06
29 *205:32 *7241:A 0.000164246
30 *205:32 *207:10 3.17163e-05
31 *205:32 *251:6 7.32955e-05
32 *205:32 *253:14 9.25014e-06
33 *205:32 *304:20 0
34 *205:32 *398:28 0.000173804
35 *205:32 *428:77 2.41481e-05
36 *205:32 *1088:10 0
37 *205:32 *1088:47 0.000229456
38 *205:32 *1088:56 9.90367e-05
39 *205:32 *1089:46 0.000367446
40 *6827:D *205:32 6.70624e-05
41 *6926:A *205:12 0.000183726
42 *42:22 *205:12 0.000226704
43 *153:28 *205:12 0
*RES
1 *6618:X *205:6 13.8 
2 *205:6 *205:10 45 
3 *205:10 *205:12 110.196 
4 *205:12 *205:32 49.4286 
5 *205:32 *6620:A2 13.9473 
*END

*D_NET *206 0.0339866
*CONN
*I *6620:B1 I *D sky130_fd_sc_hd__a22o_2
*I *6619:X O *D sky130_fd_sc_hd__mux4_2
*CAP
1 *6620:B1 0
2 *6619:X 0
3 *206:46 0.0018317
4 *206:26 0.00378633
5 *206:12 0.00696925
6 *206:10 0.0072349
7 *206:6 0.00222028
8 *206:12 *7574:en 0.00019557
9 *206:12 *269:20 0.00115147
10 *206:12 *414:63 0.00569067
11 *206:26 *7188:A 1.22159e-05
12 *206:26 *7212:A 0.000180823
13 *206:26 *7213:A 0.000100996
14 *206:26 *408:22 0
15 *206:26 *408:28 0
16 *206:46 *6620:B2 0.000236248
17 *206:46 *6627:A1 0.000202707
18 *206:46 *6627:B2 0.000143375
19 *206:46 *6628:A1 0.000225609
20 *206:46 *6628:C1 5.33005e-05
21 *206:46 *6826:CLK 1.02821e-05
22 *206:46 *7188:A 9.27788e-05
23 *206:46 *7189:A 0.000180404
24 *206:46 *7190:A 0.00022716
25 *206:46 *7191:A 1.06618e-05
26 *206:46 *7194:A 5.72806e-05
27 *206:46 *7195:A 8.98296e-05
28 *206:46 *7196:A 7.71303e-05
29 *206:46 *7217:A 0.000106117
30 *206:46 *7225:A 5.52302e-05
31 *206:46 *218:20 0.00027672
32 *206:46 *687:14 3.72587e-05
33 *6620:A1 *206:46 0.000822187
34 *6621:A1 *206:46 0.000188218
35 *148:32 *206:10 0
36 *150:37 *206:12 0.00150989
37 *153:92 *206:46 1.0033e-05
*RES
1 *6619:X *206:6 13.8 
2 *206:6 *206:10 48.3393 
3 *206:10 *206:12 117.179 
4 *206:12 *206:26 45.7589 
5 *206:26 *206:46 44.4196 
6 *206:46 *6620:B1 9.3 
*END

*D_NET *207 0.00557985
*CONN
*I *6621:B1 I *D sky130_fd_sc_hd__a21o_2
*I *6620:X O *D sky130_fd_sc_hd__a22o_2
*CAP
1 *6621:B1 0.000869695
2 *6620:X 0.000175901
3 *207:10 0.0010456
4 *6621:B1 *6620:B2 0.000712837
5 *6621:B1 *6628:B2 0.000440323
6 *6621:B1 *6632:A2 0.00086114
7 *6621:B1 *7168:A 7.18982e-05
8 *6621:B1 *7169:A 9.27788e-05
9 *6621:B1 *7170:A 6.55493e-05
10 *6621:B1 *7191:A 7.18982e-05
11 *6621:B1 *7192:A 8.98296e-05
12 *6621:B1 *7281:A 5.52238e-05
13 *207:10 *304:20 0
14 *207:10 *304:26 0
15 *6621:A1 *6621:B1 0.000783691
16 *6621:A2 *6621:B1 8.16441e-05
17 *6628:A2 *6621:B1 0.000118
18 *153:90 *6621:B1 1.21258e-05
19 *205:32 *207:10 3.17163e-05
*RES
1 *6620:X *207:10 21.4607 
2 *207:10 *6621:B1 38.6036 
*END

*D_NET *208 0.000929995
*CONN
*I *6622:B1 I *D sky130_fd_sc_hd__a211o_2
*I *6621:X O *D sky130_fd_sc_hd__a21o_2
*CAP
1 *6622:B1 0.000244798
2 *6621:X 0.000244798
3 *6622:B1 *7187:A 1.81709e-05
4 *6622:B1 *7188:A 0.000103253
5 *6621:A2 *6622:B1 5.33433e-05
6 *150:49 *6622:B1 0
7 *150:59 *6622:B1 4.6387e-05
8 *153:57 *6622:B1 0.000219244
*RES
1 *6621:X *6622:B1 33.225 
*END

*D_NET *209 0.000995512
*CONN
*I *6633:B1 I *D sky130_fd_sc_hd__o21a_2
*I *6622:X O *D sky130_fd_sc_hd__a211o_2
*CAP
1 *6633:B1 0.000152119
2 *6622:X 0.000152119
3 *6633:B1 *6615:A2 1.14477e-05
4 *6633:B1 *6795:CLK 0.000328538
5 *6633:B1 *7187:A 2.3541e-05
6 *6543:C *6633:B1 7.42303e-05
7 *6925:A *6633:B1 6.97972e-05
8 *153:80 *6633:B1 0.00018372
*RES
1 *6622:X *6633:B1 32.6536 
*END

*D_NET *210 0.00219342
*CONN
*I *6624:C1 I *D sky130_fd_sc_hd__a221o_2
*I *6623:X O *D sky130_fd_sc_hd__a22o_2
*CAP
1 *6624:C1 0.00083957
2 *6623:X 0.00083957
3 *6624:C1 *6545:B 0.000143862
4 *6624:C1 *6623:A1 3.90453e-05
5 *6624:C1 *6623:B2 4.88631e-05
6 *6624:C1 *6624:B2 0.000218685
7 *6624:C1 *621:12 4.1993e-05
8 *6537:C *6624:C1 1.74782e-05
9 *6623:A2 *6624:C1 4.34948e-06
*RES
1 *6623:X *6624:C1 38.8321 
*END

*D_NET *211 0.00107996
*CONN
*I *6631:A2 I *D sky130_fd_sc_hd__a22o_2
*I *6624:X O *D sky130_fd_sc_hd__a221o_2
*CAP
1 *6631:A2 0.00027767
2 *6624:X 0.00027767
3 *6631:A2 *412:108 0.0002253
4 *6628:A2 *6631:A2 0.0002253
5 *151:149 *6631:A2 7.40229e-05
*RES
1 *6624:X *6631:A2 33.6357 
*END

*D_NET *212 0.00168131
*CONN
*I *6626:C1 I *D sky130_fd_sc_hd__a221o_2
*I *6625:X O *D sky130_fd_sc_hd__a22o_2
*CAP
1 *6626:C1 0.000428243
2 *6625:X 0.000428243
3 *6626:C1 *6626:A1 2.42538e-05
4 *6626:C1 *6626:B2 0.000360568
5 *6626:C1 *405:66 0.000259461
6 *6626:C1 *415:28 9.892e-05
7 *148:65 *6626:C1 7.33804e-05
8 *148:84 *6626:C1 8.23597e-06
*RES
1 *6625:X *6626:C1 38.6 
*END

*D_NET *213 0.00601257
*CONN
*I *6631:B1 I *D sky130_fd_sc_hd__a22o_2
*I *6626:X O *D sky130_fd_sc_hd__a221o_2
*CAP
1 *6631:B1 0
2 *6626:X 0.000837887
3 *213:10 0.000837887
4 *213:10 *6545:B 0.00119314
5 *213:10 *6626:B1 0.000138437
6 *213:10 *7062:A 6.42242e-05
7 *213:10 *7112:A 0.000124083
8 *213:10 *405:66 0
9 *213:10 *409:55 6.6667e-05
10 *213:10 *415:32 0.000863886
11 *6538:C *213:10 7.83587e-05
12 *6631:A1 *213:10 0.000176303
13 *148:84 *213:10 0.000265233
14 *152:107 *213:10 0.000223216
15 *152:109 *213:10 0.00114325
*RES
1 *6626:X *213:10 48.7821 
2 *213:10 *6631:B1 9.3 
*END

*D_NET *214 0.000834532
*CONN
*I *6628:C1 I *D sky130_fd_sc_hd__a221o_2
*I *6627:X O *D sky130_fd_sc_hd__a22o_2
*CAP
1 *6628:C1 0.000258356
2 *6627:X 0.000258356
3 *6628:C1 *6627:A1 6.09682e-05
4 *6628:C1 *6627:A2 1.15281e-05
5 *6628:C1 *411:129 0.00014576
6 *6624:B1 *6628:C1 4.62632e-05
7 *206:46 *6628:C1 5.33005e-05
*RES
1 *6627:X *6628:C1 31.725 
*END

*D_NET *215 0.00285256
*CONN
*I *6632:A2 I *D sky130_fd_sc_hd__a221o_2
*I *6628:X O *D sky130_fd_sc_hd__a221o_2
*CAP
1 *6632:A2 0.000461658
2 *6628:X 0.000461658
3 *6632:A2 *6620:B2 0.000862484
4 *6632:A2 *6632:B2 0
5 *6632:A2 *6633:A2 4.28154e-05
6 *6632:A2 *7222:A 4.13122e-06
7 *6632:A2 *217:10 0
8 *6632:A2 *218:20 0.000158673
9 *6621:B1 *6632:A2 0.00086114
10 *153:90 *6632:A2 0
*RES
1 *6628:X *6632:A2 41.5911 
*END

*D_NET *216 0.00426421
*CONN
*I *6630:C1 I *D sky130_fd_sc_hd__a221o_2
*I *6629:X O *D sky130_fd_sc_hd__a22o_2
*CAP
1 *6630:C1 0
2 *6629:X 0.00111171
3 *216:16 0.00111171
4 *216:16 *6630:A1 0
5 *216:16 *6630:B2 4.86656e-05
6 *216:16 *7067:A 0.00012401
7 *216:16 *7068:A 1.69115e-05
8 *216:16 *7072:A 2.58997e-05
9 *216:16 *7073:A 0.000174805
10 *216:16 *7385:A 0
11 *216:16 *217:10 9.85236e-06
12 *216:16 *409:38 0.000108742
13 *216:16 *411:78 0.000853527
14 *216:16 *411:91 0.000247771
15 *216:16 *411:114 0
16 *216:16 *413:127 4.96187e-05
17 *149:57 *216:16 0.000200914
18 *149:61 *216:16 5.49489e-05
19 *149:84 *216:16 0.000125125
*RES
1 *6629:X *216:16 43.9071 
2 *216:16 *6630:C1 9.3 
*END

*D_NET *217 0.00619093
*CONN
*I *6632:B1 I *D sky130_fd_sc_hd__a221o_2
*I *6630:X O *D sky130_fd_sc_hd__a221o_2
*CAP
1 *6632:B1 0
2 *6630:X 0.00138784
3 *217:10 0.00138784
4 *217:10 *6537:A 0
5 *217:10 *6630:B2 3.20571e-05
6 *217:10 *6632:B2 0.000193125
7 *217:10 *7091:A 0
8 *217:10 *7124:A 6.97972e-05
9 *217:10 *7132:A 0
10 *217:10 *7136:A 0
11 *217:10 *7137:A 5.85498e-05
12 *217:10 *7196:A 4.57538e-05
13 *217:10 *7200:A 0.000321745
14 *217:10 *7348:A 3.34672e-05
15 *217:10 *409:38 2.54558e-06
16 *217:10 *409:47 0.000101859
17 *217:10 *413:127 0.000766321
18 *217:10 *413:138 0.001625
19 *217:10 *687:14 5.26277e-05
20 *6632:A2 *217:10 0
21 *153:90 *217:10 0.000102545
22 *216:16 *217:10 9.85236e-06
*RES
1 *6630:X *217:10 49.7107 
2 *217:10 *6632:B1 13.8 
*END

*D_NET *218 0.00525259
*CONN
*I *6633:A1 I *D sky130_fd_sc_hd__o21a_2
*I *6631:X O *D sky130_fd_sc_hd__a22o_2
*CAP
1 *6633:A1 0
2 *6631:X 0.00180043
3 *218:20 0.00180043
4 *218:20 *6545:B 0.000376184
5 *218:20 *6632:B2 1.403e-05
6 *218:20 *6632:C1 0.000208789
7 *218:20 *6633:A2 1.41215e-05
8 *218:20 *6826:CLK 1.72243e-05
9 *218:20 *7185:A 0.000170138
10 *218:20 *7222:A 1.62049e-05
11 *218:20 *7223:A 4.9848e-05
12 *218:20 *7224:A 3.27745e-05
13 *218:20 *7225:A 1.14548e-05
14 *218:20 *406:58 0
15 *6543:C *218:20 0
16 *6621:A1 *218:20 8.14902e-05
17 *6631:B2 *218:20 4.82865e-05
18 *6632:A2 *218:20 0.000158673
19 *151:149 *218:20 9.39369e-05
20 *153:80 *218:20 8.18483e-05
21 *206:46 *218:20 0.00027672
*RES
1 *6631:X *218:20 47.0857 
2 *218:20 *6633:A1 9.3 
*END

*D_NET *219 0.00133926
*CONN
*I *6633:A2 I *D sky130_fd_sc_hd__o21a_2
*I *6632:X O *D sky130_fd_sc_hd__a221o_2
*CAP
1 *6633:A2 0.000329275
2 *6632:X 0.000329275
3 *6632:A2 *6633:A2 4.28154e-05
4 *153:80 *6633:A2 0.000623771
5 *218:20 *6633:A2 1.41215e-05
*RES
1 *6632:X *6633:A2 25.7071 
*END

*D_NET *220 0.00223844
*CONN
*I *6643:B I *D sky130_fd_sc_hd__nor2_2
*I *6642:Y O *D sky130_fd_sc_hd__a21oi_2
*CAP
1 *6643:B 0.000710226
2 *6642:Y 0.000710226
3 *6643:B *6642:A1 3.69047e-06
4 *6643:B *475:78 0.000708541
5 *6642:A2 *6643:B 2.50239e-05
6 *6894:A *6643:B 8.07313e-05
*RES
1 *6642:Y *6643:B 30.9929 
*END

*D_NET *221 0.0070144
*CONN
*I *6708:A1 I *D sky130_fd_sc_hd__o22a_2
*I *6645:S I *D sky130_fd_sc_hd__mux2_1
*I *6644:X O *D sky130_fd_sc_hd__or2_2
*CAP
1 *6708:A1 0.000532182
2 *6645:S 0
3 *6644:X 0
4 *221:24 0.00158161
5 *221:4 0.00211379
6 *6708:A1 *6644:B 0.000886543
7 *6708:A1 *6708:B1 9.60875e-05
8 *6708:A1 *256:12 5.41794e-05
9 *6708:A1 *302:259 4.4802e-05
10 *6708:A1 *302:272 4.46616e-05
11 *221:24 *6644:B 9.90431e-05
12 *221:24 *6701:A_N 0.000135773
13 *221:24 *6872:CLK 4.35597e-05
14 *221:24 *6872:RESET_B 0.000255828
15 *221:24 *317:27 0.000187828
16 *221:24 *433:21 8.91726e-05
17 *221:24 *433:23 5.10822e-05
18 *221:24 *531:18 2.81946e-05
19 *221:24 *1082:10 7.79781e-06
20 *6609:A *221:24 0.00029513
21 *6645:A0 *221:24 0.00012754
22 *6872:D *221:24 0.000144958
23 *198:10 *221:24 2.32693e-05
24 *199:33 *6708:A1 0.000171368
25 *200:12 *221:24 0
*RES
1 *6644:X *221:4 9.3 
2 *221:4 *221:24 44.75 
3 *221:24 *6645:S 9.3 
4 *221:4 *6708:A1 31.8893 
*END

*D_NET *222 0.00694936
*CONN
*I *6916:A I *D sky130_fd_sc_hd__clkdlybuf4s25_1
*I *6915:A I *D sky130_fd_sc_hd__clkdlybuf4s25_1
*I *6646:Y O *D sky130_fd_sc_hd__o31ai_2
*CAP
1 *6916:A 0.00109519
2 *6915:A 4.32118e-05
3 *6646:Y 0.000439757
4 *222:12 0.00157816
5 *6915:A *428:75 9.60875e-05
6 *6916:A *6605:B 0.000356022
7 *6916:A *6605:D_N 0.00048939
8 *6916:A *6606:C 0.000353086
9 *6916:A *6662:A3 0
10 *6916:A *6679:A1 0
11 *6916:A *381:36 0.000108535
12 *6916:A *397:14 0
13 *6916:A *428:75 0.000488493
14 *6916:A *1096:10 0.00010326
15 *6916:A *1096:12 0.000214198
16 *6916:A *1096:42 1.98839e-05
17 *222:12 *6646:A1 9.60875e-05
18 *222:12 *6689:B1 1.88048e-05
19 *222:12 *6690:A2 0.000335922
20 *222:12 *6692:A1 3.56119e-05
21 *222:12 *6692:B2 3.24051e-05
22 *222:12 *6872:RESET_B 0.000143466
23 *222:12 *6970:A 1.31516e-05
24 *222:12 *252:12 3.92757e-05
25 *222:12 *302:299 3.14048e-05
26 *222:12 *398:68 0
27 *6606:D *6916:A 0.000220724
28 *6690:A1 *222:12 0
29 *6819:D *6916:A 2.59093e-05
30 *195:10 *6916:A 0.000155877
31 *198:10 *222:12 0.000415455
*RES
1 *6646:Y *222:12 30.9071 
2 *222:12 *6915:A 10.2464 
3 *222:12 *6916:A 45.2643 
*END

*D_NET *223 0.000575666
*CONN
*I *6649:A3 I *D sky130_fd_sc_hd__a32o_2
*I *6648:X O *D sky130_fd_sc_hd__or2_2
*CAP
1 *6649:A3 0.000135125
2 *6648:X 0.000135125
3 *6649:A3 *6649:B1 5.16759e-05
4 *6649:A3 *1085:16 0.000100831
5 *6649:A3 *1085:20 3.18676e-05
6 *6649:A3 *1092:18 0.000121042
*RES
1 *6648:X *6649:A3 30.9036 
*END

*D_NET *224 0.00135708
*CONN
*I *6652:A I *D sky130_fd_sc_hd__and2_2
*I *6654:A2 I *D sky130_fd_sc_hd__a22o_2
*I *6650:X O *D sky130_fd_sc_hd__a21o_2
*CAP
1 *6652:A 3.11109e-05
2 *6654:A2 0.000153006
3 *6650:X 0.000169124
4 *224:12 0.00035324
5 *6654:A2 *6654:A1 1.57155e-05
6 *6654:A2 *6654:B1 4.34948e-06
7 *6654:A2 *6818:CLK 0.000197984
8 *224:12 *304:8 0
9 *224:12 *398:125 0.000128146
10 *6817:D *6654:A2 1.18064e-05
11 *6920:A *6654:A2 0
12 *197:34 *6652:A 1.98839e-05
13 *197:34 *224:12 0.000122091
14 *199:33 *6654:A2 0
15 *199:33 *224:12 0.000150625
*RES
1 *6650:X *224:12 22.425 
2 *224:12 *6654:A2 21.3045 
3 *224:12 *6652:A 9.83571 
*END

*D_NET *225 0.000921932
*CONN
*I *6652:B I *D sky130_fd_sc_hd__and2_2
*I *6651:X O *D sky130_fd_sc_hd__a31o_2
*CAP
1 *6652:B 0.000422083
2 *6651:X 0.000422083
3 *197:34 *6652:B 7.77652e-05
*RES
1 *6651:X *6652:B 25.7071 
*END

*D_NET *226 0.000916939
*CONN
*I *6654:B1 I *D sky130_fd_sc_hd__a22o_2
*I *6653:Y O *D sky130_fd_sc_hd__nor2_2
*CAP
1 *6654:B1 0.00033367
2 *6653:Y 0.00033367
3 *6654:B1 *6654:A1 3.1056e-05
4 *6654:B1 *6818:CLK 0.000141985
5 *6654:A2 *6654:B1 4.34948e-06
6 *193:18 *6654:B1 7.22081e-05
*RES
1 *6653:Y *6654:B1 24.0107 
*END

*D_NET *227 0.00640214
*CONN
*I *6656:B I *D sky130_fd_sc_hd__nand2_2
*I *6657:B I *D sky130_fd_sc_hd__or2_2
*I *6668:A I *D sky130_fd_sc_hd__and2_2
*I *6681:A I *D sky130_fd_sc_hd__and3_2
*I *6660:C I *D sky130_fd_sc_hd__and3_2
*I *6659:A2 I *D sky130_fd_sc_hd__a21o_2
*I *6671:B I *D sky130_fd_sc_hd__and3_2
*I *6655:X O *D sky130_fd_sc_hd__and4_2
*CAP
1 *6656:B 5.20936e-05
2 *6657:B 0
3 *6668:A 0
4 *6681:A 0
5 *6660:C 4.6729e-05
6 *6659:A2 0
7 *6671:B 8.77388e-05
8 *6655:X 0.000507019
9 *227:45 0.000330174
10 *227:37 0.000587621
11 *227:25 0.000304176
12 *227:14 0.000559765
13 *227:12 0.000556567
14 *227:10 0.000643653
15 *6656:B *6658:A2 4.87953e-05
16 *6656:B *397:92 0
17 *6656:B *397:101 9.60939e-05
18 *6660:C *6659:A1 2.89016e-05
19 *6660:C *6660:A 5.7661e-06
20 *6660:C *6667:B 1.33343e-05
21 *6660:C *231:26 1.3701e-05
22 *6660:C *1095:27 4.72917e-05
23 *6660:C *1096:42 0
24 *6660:C *1096:46 0.000128496
25 *6671:B *6671:C 7.83587e-05
26 *6671:B *6674:B 0
27 *6671:B *6676:B2 1.08359e-05
28 *6671:B *236:16 7.6644e-05
29 *6671:B *439:60 0
30 *227:10 *6649:B1 3.69697e-05
31 *227:10 *6658:A3 3.34366e-05
32 *227:10 *439:60 0
33 *227:10 *1085:20 0.000290158
34 *227:12 *6656:A 1.00375e-05
35 *227:12 *6658:A3 0.000125717
36 *227:12 *6658:B2 0
37 *227:12 *439:60 0
38 *227:14 *6602:A 8.9163e-05
39 *227:14 *6656:A 4.1331e-06
40 *227:14 *236:10 0.000309059
41 *227:14 *236:16 9.25014e-06
42 *227:14 *439:60 0
43 *227:37 *246:12 0.000172565
44 *227:37 *392:37 0.000837386
45 *227:45 *6659:A1 3.18676e-05
46 *227:45 *6679:A1 0
47 *227:45 *6681:C 1.76039e-05
48 *227:45 *397:14 0
49 *227:45 *1096:46 9.90431e-05
50 *6604:D *227:45 0.000111997
*RES
1 *6655:X *227:10 21.1036 
2 *227:10 *227:12 1.94643 
3 *227:12 *227:14 9.83929 
4 *227:14 *6671:B 15.7464 
5 *227:14 *227:25 4.5 
6 *227:25 *227:37 8.875 
7 *227:37 *227:45 14.625 
8 *227:45 *6659:A2 9.3 
9 *227:45 *6660:C 11.0857 
10 *227:37 *6681:A 9.3 
11 *227:25 *6668:A 9.3 
12 *227:12 *6657:B 13.8 
13 *227:10 *6656:B 15.175 
*END

*D_NET *228 0.000273589
*CONN
*I *6658:A2 I *D sky130_fd_sc_hd__a32o_2
*I *6656:Y O *D sky130_fd_sc_hd__nand2_2
*CAP
1 *6658:A2 6.21497e-05
2 *6656:Y 6.21497e-05
3 *6658:A2 *6656:A 1.24368e-05
4 *6658:A2 *6658:B1 0
5 *6658:A2 *381:118 5.33433e-05
6 *6658:A2 *381:135 2.44318e-05
7 *6658:A2 *397:101 1.02821e-05
8 *6656:B *6658:A2 4.87953e-05
*RES
1 *6656:Y *6658:A2 20.3857 
*END

*D_NET *229 0.000596828
*CONN
*I *6658:A3 I *D sky130_fd_sc_hd__a32o_2
*I *6657:X O *D sky130_fd_sc_hd__or2_2
*CAP
1 *6658:A3 0.000141474
2 *6657:X 0.000141474
3 *6658:A3 *6656:A 0.000130294
4 *6658:A3 *1095:63 2.44318e-05
5 *227:10 *6658:A3 3.34366e-05
6 *227:12 *6658:A3 0.000125717
*RES
1 *6657:X *6658:A3 30.9036 
*END

*D_NET *230 0.000259567
*CONN
*I *6662:A2 I *D sky130_fd_sc_hd__a32o_2
*I *6659:X O *D sky130_fd_sc_hd__a21o_2
*CAP
1 *6662:A2 5.88685e-05
2 *6659:X 5.88685e-05
3 *6662:A2 *1096:42 0.00014183
*RES
1 *6659:X *6662:A2 19.9571 
*END

*D_NET *231 0.0044034
*CONN
*I *6663:B I *D sky130_fd_sc_hd__nand2_2
*I *6664:B I *D sky130_fd_sc_hd__or2_2
*I *6666:A2 I *D sky130_fd_sc_hd__a21o_2
*I *6661:A I *D sky130_fd_sc_hd__inv_2
*I *6660:X O *D sky130_fd_sc_hd__and3_2
*CAP
1 *6663:B 0
2 *6664:B 0.000138466
3 *6666:A2 0
4 *6661:A 0.00023658
5 *6660:X 0.000481066
6 *231:39 0.000279211
7 *231:26 0.000385231
8 *6661:A *6662:A3 1.92905e-05
9 *6661:A *397:33 0.000170964
10 *6661:A *439:60 0
11 *6664:B *6664:A 0.00013017
12 *6664:B *6665:A2 8.25843e-06
13 *6664:B *1097:53 5.49544e-05
14 *231:26 *6667:A 5.33005e-05
15 *231:26 *6667:B 9.61553e-05
16 *231:26 *6667:C 0.00014285
17 *231:26 *1095:27 9.90367e-05
18 *231:26 *1097:26 4.38128e-05
19 *231:26 *1097:28 0.000752267
20 *231:26 *1098:29 0.000144773
21 *231:26 *1098:31 0.000578042
22 *231:39 *1097:26 0.000356207
23 *231:39 *1098:29 0.000219064
24 *6604:D *6661:A 0
25 *6660:C *231:26 1.3701e-05
*RES
1 *6660:X *6661:A 32.5464 
2 *6660:X *231:26 20.1214 
3 *231:26 *6666:A2 9.3 
4 *231:26 *231:39 13.125 
5 *231:39 *6664:B 11.9071 
6 *231:39 *6663:B 9.3 
*END

*D_NET *232 0.000749694
*CONN
*I *6662:A3 I *D sky130_fd_sc_hd__a32o_2
*I *6661:Y O *D sky130_fd_sc_hd__inv_2
*CAP
1 *6662:A3 0.000291791
2 *6661:Y 0.000291791
3 *6662:A3 *397:14 0.000128154
4 *6662:A3 *397:33 1.86687e-05
5 *6661:A *6662:A3 1.92905e-05
6 *6916:A *6662:A3 0
*RES
1 *6661:Y *6662:A3 31.8321 
*END

*D_NET *233 0.000556604
*CONN
*I *6665:A2 I *D sky130_fd_sc_hd__a32o_2
*I *6663:Y O *D sky130_fd_sc_hd__nand2_2
*CAP
1 *6665:A2 0.000259493
2 *6663:Y 0.000259493
3 *6665:A2 *1097:20 2.56694e-05
4 *6665:A2 *1097:53 3.69047e-06
5 *6664:B *6665:A2 8.25843e-06
*RES
1 *6663:Y *6665:A2 31.0107 
*END

*D_NET *234 0.000921492
*CONN
*I *6665:A3 I *D sky130_fd_sc_hd__a32o_2
*I *6664:X O *D sky130_fd_sc_hd__or2_2
*CAP
1 *6665:A3 0.000318306
2 *6664:X 0.000318306
3 *6665:A3 *6665:B2 0.000107914
4 *6665:A3 *6821:RESET_B 0.000101227
5 *6665:A3 *6998:A 7.57394e-05
*RES
1 *6664:X *6665:A3 33.6 
*END

*D_NET *235 0.000356632
*CONN
*I *6670:A2 I *D sky130_fd_sc_hd__a32o_2
*I *6666:X O *D sky130_fd_sc_hd__a21o_2
*CAP
1 *6670:A2 0.00015892
2 *6666:X 0.00015892
3 *6670:A2 *6670:A3 1.02504e-05
4 *6670:A2 *6670:B1 9.25014e-06
5 *6670:A2 *236:10 0
6 *6670:A2 *1098:31 1.92905e-05
*RES
1 *6666:X *6670:A2 30.0821 
*END

*D_NET *236 0.00326449
*CONN
*I *6668:B I *D sky130_fd_sc_hd__and2_2
*I *6671:C I *D sky130_fd_sc_hd__and3_2
*I *6681:B I *D sky130_fd_sc_hd__and3_2
*I *6667:X O *D sky130_fd_sc_hd__and4_2
*CAP
1 *6668:B 0
2 *6671:C 0.000114716
3 *6681:B 0.000485331
4 *6667:X 0.000272676
5 *236:16 0.000735033
6 *236:10 0.000407662
7 *6671:C *6674:B 0
8 *6671:C *6676:B2 0.000171368
9 *6671:C *1099:32 5.52302e-05
10 *6681:B *6676:B2 5.33005e-05
11 *6681:B *392:37 0.000352853
12 *236:10 *6667:C 5.30637e-06
13 *236:10 *6670:B1 0
14 *236:10 *6674:B 0
15 *236:10 *1098:31 4.35336e-05
16 *236:16 *6674:B 0
17 *236:16 *6676:B2 9.41642e-05
18 *6670:A2 *236:10 0
19 *6671:B *6671:C 7.83587e-05
20 *6671:B *236:16 7.6644e-05
21 *227:14 *236:10 0.000309059
22 *227:14 *236:16 9.25014e-06
*RES
1 *6667:X *236:10 19.2286 
2 *236:10 *236:16 6.48214 
3 *236:16 *6681:B 15.9964 
4 *236:16 *6671:C 21.0857 
5 *236:10 *6668:B 13.8 
*END

*D_NET *237 0.00116592
*CONN
*I *6672:A2 I *D sky130_fd_sc_hd__o21ai_2
*I *6669:A I *D sky130_fd_sc_hd__inv_2
*I *6668:X O *D sky130_fd_sc_hd__and2_2
*CAP
1 *6672:A2 0.000287104
2 *6669:A 0
3 *6668:X 3.78215e-05
4 *237:6 0.000324925
5 *6672:A2 *6670:A3 7.02611e-05
6 *6672:A2 *6670:B1 2.94103e-05
7 *6672:A2 *6672:A1 1.41029e-05
8 *6672:A2 *6673:A2_N 0.000145753
9 *6672:A2 *6673:B2 6.51946e-05
10 *6672:A2 *6674:B 7.80714e-06
11 *6672:A2 *6675:A2 8.58864e-05
12 *6672:A2 *392:54 4.13496e-05
13 *6672:A2 *397:44 0
14 *237:6 *392:54 5.62995e-05
*RES
1 *6668:X *237:6 10.2464 
2 *237:6 *6669:A 9.3 
3 *237:6 *6672:A2 25.05 
*END

*D_NET *238 0.00193284
*CONN
*I *6670:A3 I *D sky130_fd_sc_hd__a32o_2
*I *6674:B I *D sky130_fd_sc_hd__nor2_2
*I *6669:Y O *D sky130_fd_sc_hd__inv_2
*CAP
1 *6670:A3 0.000199797
2 *6674:B 0.000372807
3 *6669:Y 0
4 *238:4 0.000572604
5 *6670:A3 *6670:B1 5.41797e-05
6 *6670:A3 *6821:CLK 0
7 *6674:B *6670:B1 9.47312e-05
8 *6674:B *6673:B2 0.000128154
9 *6674:B *239:6 0.000144773
10 *6674:B *1099:32 0.000181335
11 *6674:B *1099:34 9.61455e-05
12 *6670:A2 *6670:A3 1.02504e-05
13 *6671:B *6674:B 0
14 *6671:C *6674:B 0
15 *6672:A2 *6670:A3 7.02611e-05
16 *6672:A2 *6674:B 7.80714e-06
17 *236:10 *6674:B 0
18 *236:16 *6674:B 0
*RES
1 *6669:Y *238:4 9.3 
2 *238:4 *6674:B 26.9429 
3 *238:4 *6670:A3 21.3 
*END

*D_NET *239 0.00115863
*CONN
*I *6673:A1_N I *D sky130_fd_sc_hd__a2bb2o_2
*I *6675:A2 I *D sky130_fd_sc_hd__o21ai_2
*I *6671:X O *D sky130_fd_sc_hd__and3_2
*CAP
1 *6673:A1_N 9.11709e-06
2 *6675:A2 0.000233094
3 *6671:X 3.33514e-05
4 *239:6 0.000275563
5 *6673:A1_N *6673:B2 1.66955e-05
6 *6673:A1_N *1099:32 2.0887e-05
7 *6675:A2 *6675:B1 0
8 *6675:A2 *6676:B2 0
9 *6675:A2 *6823:RESET_B 0.000146545
10 *239:6 *6673:B2 6.05161e-06
11 *239:6 *1099:32 0.000186662
12 *6672:A2 *6675:A2 8.58864e-05
13 *6674:B *239:6 0.000144773
*RES
1 *6671:X *239:6 11.0679 
2 *239:6 *6675:A2 23.2821 
3 *239:6 *6673:A1_N 9.63036 
*END

*D_NET *240 0.000691547
*CONN
*I *6673:A2_N I *D sky130_fd_sc_hd__a2bb2o_2
*I *6672:Y O *D sky130_fd_sc_hd__o21ai_2
*CAP
1 *6673:A2_N 0.000121013
2 *6672:Y 0.000121013
3 *6673:A2_N *6672:A1 0.000121573
4 *6673:A2_N *6673:B2 2.59355e-05
5 *6673:A2_N *6822:RESET_B 9.60939e-05
6 *6673:A2_N *397:44 6.8646e-06
7 *6673:A2_N *1099:32 5.33005e-05
8 *6672:A2 *6673:A2_N 0.000145753
*RES
1 *6672:Y *6673:A2_N 31.0286 
*END

*D_NET *241 0.00358058
*CONN
*I *6676:A1_N I *D sky130_fd_sc_hd__a2bb2o_2
*I *6677:B I *D sky130_fd_sc_hd__nand2_2
*I *6684:A2 I *D sky130_fd_sc_hd__a31o_2
*I *6678:B I *D sky130_fd_sc_hd__or2_2
*I *6674:Y O *D sky130_fd_sc_hd__nor2_2
*CAP
1 *6676:A1_N 0
2 *6677:B 3.38113e-06
3 *6684:A2 0.00040469
4 *6678:B 0.000124976
5 *6674:Y 0.000234339
6 *241:22 0.000542137
7 *241:16 0.000404744
8 *241:12 0.000623232
9 *6678:B *6677:A 5.97623e-05
10 *6678:B *6679:A1 5.41794e-05
11 *6678:B *6679:B2 0
12 *6678:B *6995:A 0
13 *6684:A2 *6679:A1 8.26966e-05
14 *6684:A2 *6679:A2 9.90367e-05
15 *6684:A2 *6679:B1 5.31542e-05
16 *6684:A2 *6824:RESET_B 0.000144633
17 *6684:A2 *6995:A 0
18 *6684:A2 *1086:8 5.33005e-05
19 *6684:A2 *1086:23 0.000267814
20 *241:12 *6676:B2 0
21 *241:12 *439:60 3.92854e-05
22 *241:12 *1100:22 5.31127e-06
23 *241:16 *6679:A2 3.7598e-05
24 *241:16 *6679:A3 7.41514e-05
25 *241:16 *1100:22 0.000219055
26 *241:22 *6679:A2 1.01002e-05
27 *241:22 *6679:A3 4.30077e-05
*RES
1 *6674:Y *241:12 22.5857 
2 *241:12 *241:16 8.05804 
3 *241:16 *241:22 4.95982 
4 *241:22 *6678:B 16.05 
5 *241:22 *6684:A2 30.7107 
6 *241:16 *6677:B 9.42946 
7 *241:12 *6676:A1_N 9.3 
*END

*D_NET *242 0.00093478
*CONN
*I *6676:A2_N I *D sky130_fd_sc_hd__a2bb2o_2
*I *6675:Y O *D sky130_fd_sc_hd__o21ai_2
*CAP
1 *6676:A2_N 0.000276638
2 *6675:Y 0.000276638
3 *6676:A2_N *6675:A1 5.33005e-05
4 *6676:A2_N *1100:14 0.000230475
5 *6676:A2_N *1100:22 9.77274e-05
*RES
1 *6675:Y *6676:A2_N 24.5107 
*END

*D_NET *243 0.000313546
*CONN
*I *6679:A2 I *D sky130_fd_sc_hd__a32o_2
*I *6677:Y O *D sky130_fd_sc_hd__nand2_2
*CAP
1 *6679:A2 6.89836e-05
2 *6677:Y 6.89836e-05
3 *6679:A2 *6679:A1 1.32552e-05
4 *6679:A2 *6679:A3 1.55885e-05
5 *6684:A2 *6679:A2 9.90367e-05
6 *241:16 *6679:A2 3.7598e-05
7 *241:22 *6679:A2 1.01002e-05
*RES
1 *6677:Y *6679:A2 20.3857 
*END

*D_NET *244 0.000740213
*CONN
*I *6679:A3 I *D sky130_fd_sc_hd__a32o_2
*I *6678:X O *D sky130_fd_sc_hd__or2_2
*CAP
1 *6679:A3 0.000211395
2 *6678:X 0.000211395
3 *6679:A3 *6677:A 7.83366e-05
4 *6679:A3 *6679:A1 9.60875e-05
5 *6679:A3 *7267:A 1.02504e-05
6 *6679:A2 *6679:A3 1.55885e-05
7 *6823:D *6679:A3 0
8 *241:16 *6679:A3 7.41514e-05
9 *241:22 *6679:A3 4.30077e-05
*RES
1 *6678:X *6679:A3 32.1536 
*END

*D_NET *245 0.000659056
*CONN
*I *6681:C I *D sky130_fd_sc_hd__and3_2
*I *6680:X O *D sky130_fd_sc_hd__and4_2
*CAP
1 *6681:C 0.000196014
2 *6680:X 0.000196014
3 *6681:C *6679:A1 0
4 *6681:C *6680:A 5.62995e-05
5 *6604:D *6681:C 0.000193125
6 *227:45 *6681:C 1.76039e-05
*RES
1 *6680:X *6681:C 31.1 
*END

*D_NET *246 0.00780428
*CONN
*I *6691:D I *D sky130_fd_sc_hd__and4_2
*I *6682:A_N I *D sky130_fd_sc_hd__and2b_2
*I *6688:C I *D sky130_fd_sc_hd__nand3_2
*I *6687:A2 I *D sky130_fd_sc_hd__a21o_2
*I *6686:A3 I *D sky130_fd_sc_hd__a31o_2
*I *6681:X O *D sky130_fd_sc_hd__and3_2
*CAP
1 *6691:D 0.000187463
2 *6682:A_N 0.000143334
3 *6688:C 0.000115246
4 *6687:A2 2.04426e-05
5 *6686:A3 0.000355884
6 *6681:X 0.00142646
7 *246:55 0.000330797
8 *246:18 0.000403897
9 *246:16 0.000480473
10 *246:12 0.00176412
11 *6682:A_N *6685:A1 1.74352e-05
12 *6682:A_N *6685:A2 0.000118257
13 *6682:A_N *6685:B1 0.000117378
14 *6682:A_N *6825:CLK 1.12323e-05
15 *6682:A_N *304:14 3.57844e-05
16 *6682:A_N *304:20 7.44909e-05
17 *6682:A_N *398:28 4.57331e-05
18 *6686:A3 *6500:A 5.52238e-05
19 *6686:A3 *6685:A1 7.83366e-05
20 *6686:A3 *6686:A2 2.27416e-05
21 *6686:A3 *398:28 0
22 *6686:A3 *1088:10 3.17148e-05
23 *6686:A3 *1088:21 0.000388146
24 *6687:A2 *6825:RESET_B 5.33005e-05
25 *6687:A2 *398:34 2.59355e-05
26 *6688:C *6685:A1 5.10822e-05
27 *6688:C *6688:B 3.72693e-05
28 *6688:C *1088:34 9.22948e-05
29 *6688:C *1088:47 5.33005e-05
30 *6688:C *1089:35 0
31 *6691:D *6605:C 1.53376e-05
32 *6691:D *6685:B1 3.25078e-05
33 *6691:D *304:14 3.69697e-05
34 *6691:D *1088:56 5.03772e-05
35 *246:12 *6825:RESET_B 0.000208435
36 *246:12 *392:10 2.24828e-05
37 *246:12 *392:37 6.62898e-05
38 *246:16 *6825:RESET_B 0.000479658
39 *246:18 *6685:A1 2.61337e-05
40 *246:18 *1088:21 4.49293e-05
41 *246:18 *1088:34 9.25014e-06
42 *6686:A1 *6686:A3 5.23057e-05
43 *6825:D *246:12 4.92614e-05
44 *205:32 *6686:A3 0
45 *227:37 *246:12 0.000172565
*RES
1 *6681:X *246:12 27.6571 
2 *246:12 *246:16 9.14286 
3 *246:16 *246:18 0.732143 
4 *246:18 *6686:A3 22.5143 
5 *246:18 *6687:A2 14.3357 
6 *246:16 *6688:C 16.5143 
7 *246:12 *246:55 4.5 
8 *246:55 *6682:A_N 18.0321 
9 *246:55 *6691:D 16.6036 
*END

*D_NET *247 0.00294374
*CONN
*I *6685:A2 I *D sky130_fd_sc_hd__o21a_2
*I *6683:A2 I *D sky130_fd_sc_hd__o21a_2
*I *6684:A3 I *D sky130_fd_sc_hd__a31o_2
*I *6682:X O *D sky130_fd_sc_hd__and2b_2
*CAP
1 *6685:A2 0.000299295
2 *6683:A2 0.000206325
3 *6684:A3 0
4 *6682:X 0.000685423
5 *247:8 0.000592452
6 *6683:A2 *6679:B1 1.02504e-05
7 *6683:A2 *6680:C 0.00018318
8 *6683:A2 *6680:D 0
9 *6683:A2 *6684:B1 7.6644e-05
10 *6683:A2 *392:10 0.000117896
11 *6683:A2 *1086:23 1.69115e-05
12 *6685:A2 *6685:A1 6.29133e-05
13 *6685:A2 *398:14 5.52238e-05
14 *6685:A2 *398:28 0.000114263
15 *247:8 *6680:C 0.000303747
16 *247:8 *6999:A 0.00010096
17 *247:8 *398:28 0
18 *6682:A_N *6685:A2 0.000118257
*RES
1 *6682:X *247:8 16.425 
2 *247:8 *6684:A3 9.3 
3 *247:8 *6683:A2 22.675 
4 *6682:X *6685:A2 23.5821 
*END

*D_NET *248 0.000547154
*CONN
*I *6684:B1 I *D sky130_fd_sc_hd__a31o_2
*I *6683:X O *D sky130_fd_sc_hd__o21a_2
*CAP
1 *6684:B1 0.000175837
2 *6683:X 0.000175837
3 *6684:B1 *6683:B1 4.87953e-05
4 *6684:B1 *392:10 1.31516e-05
5 *6684:B1 *1086:23 3.92854e-05
6 *6684:B1 *1086:32 1.76039e-05
7 *6683:A2 *6684:B1 7.6644e-05
*RES
1 *6683:X *6684:B1 30.2964 
*END

*D_NET *249 0.000976339
*CONN
*I *6686:B1 I *D sky130_fd_sc_hd__a31o_2
*I *6685:X O *D sky130_fd_sc_hd__o21a_2
*CAP
1 *6686:B1 0.000432048
2 *6685:X 0.000432048
3 *6686:B1 *6685:A1 2.07937e-05
4 *6686:B1 *6686:A2 0
5 *6686:B1 *6826:RESET_B 0
6 *6686:B1 *398:28 2.89016e-05
7 *6686:B1 *428:85 1.24368e-05
8 *6686:B1 *1088:21 5.01117e-05
*RES
1 *6685:X *6686:B1 33.1714 
*END

*D_NET *250 0.00118551
*CONN
*I *6689:A2 I *D sky130_fd_sc_hd__a32o_2
*I *6687:X O *D sky130_fd_sc_hd__a21o_2
*CAP
1 *6689:A2 0.000386171
2 *6687:X 0.000386171
3 *6689:A2 *6688:A 7.17136e-05
4 *6689:A2 *6689:B2 0.000230475
5 *6689:A2 *251:6 4.51641e-05
6 *6689:A2 *1089:35 6.58154e-05
*RES
1 *6687:X *6689:A2 33.5821 
*END

*D_NET *251 0.0021485
*CONN
*I *6690:A2 I *D sky130_fd_sc_hd__o21a_2
*I *6689:A3 I *D sky130_fd_sc_hd__a32o_2
*I *6688:Y O *D sky130_fd_sc_hd__nand3_2
*CAP
1 *6690:A2 0.000311751
2 *6689:A3 1.03356e-05
3 *6688:Y 5.43715e-05
4 *251:6 0.000376458
5 *6689:A3 *6689:B1 5.52238e-05
6 *6689:A3 *6689:B2 3.18676e-05
7 *6690:A2 *6689:B1 0
8 *6690:A2 *6829:CLK 1.02936e-05
9 *6690:A2 *6970:A 0.00012401
10 *6690:A2 *252:12 0.000137983
11 *6690:A2 *398:68 0.000115636
12 *6690:A2 *428:75 0.00010326
13 *251:6 *6688:A 5.71472e-05
14 *251:6 *6689:B1 0.000186669
15 *251:6 *6689:B2 7.03295e-05
16 *6689:A2 *251:6 4.51641e-05
17 *6690:A1 *6690:A2 4.87854e-05
18 *205:32 *251:6 7.32955e-05
19 *222:12 *6690:A2 0.000335922
*RES
1 *6688:Y *251:6 12.3 
2 *251:6 *6689:A3 9.83571 
3 *251:6 *6690:A2 26.4607 
*END

*D_NET *252 0.00283412
*CONN
*I *6693:A2 I *D sky130_fd_sc_hd__o21a_2
*I *6692:A2 I *D sky130_fd_sc_hd__o22a_2
*I *6690:X O *D sky130_fd_sc_hd__o21a_2
*CAP
1 *6693:A2 0.00066151
2 *6692:A2 0
3 *6690:X 0.000361161
4 *252:12 0.00102267
5 *6693:A2 *6606:C 0.000102659
6 *6693:A2 *6693:B1 5.62995e-05
7 *6693:A2 *6694:B1 1.15172e-05
8 *6693:A2 *253:14 8.25843e-06
9 *6693:A2 *381:65 6.09919e-05
10 *6693:A2 *1090:25 7.22199e-05
11 *252:12 *6613:A 4.01768e-05
12 *252:12 *6692:B2 7.6644e-05
13 *252:12 *398:68 2.77173e-05
14 *6690:A1 *6693:A2 5.52302e-05
15 *6690:A1 *252:12 4.16984e-05
16 *6690:A2 *252:12 0.000137983
17 *6694:A1 *6693:A2 2.88018e-06
18 *6829:D *6693:A2 5.52238e-05
19 *222:12 *252:12 3.92757e-05
*RES
1 *6690:X *252:12 23.5679 
2 *252:12 *6692:A2 9.3 
3 *252:12 *6693:A2 18.0679 
*END

*D_NET *253 0.00295535
*CONN
*I *6694:A3 I *D sky130_fd_sc_hd__a31o_2
*I *6692:B1 I *D sky130_fd_sc_hd__o22a_2
*I *6691:X O *D sky130_fd_sc_hd__and4_2
*CAP
1 *6694:A3 0
2 *6692:B1 0.000365927
3 *6691:X 0.000454736
4 *253:14 0.000820663
5 *6692:B1 *6502:A 2.20256e-05
6 *6692:B1 *6606:C 0.000274288
7 *6692:B1 *6692:B2 5.33433e-05
8 *6692:B1 *1090:25 3.12417e-05
9 *253:14 *6605:C 0.000274288
10 *253:14 *6606:C 0.000263103
11 *253:14 *6685:A1 0.000100969
12 *253:14 *381:65 4.33438e-05
13 *253:14 *428:77 3.87848e-05
14 *253:14 *1089:46 0.00014183
15 *6693:A2 *253:14 8.25843e-06
16 *6694:A1 *253:14 5.33005e-05
17 *205:32 *253:14 9.25014e-06
*RES
1 *6691:X *253:14 27.2464 
2 *253:14 *6692:B1 15.6393 
3 *253:14 *6694:A3 9.3 
*END

*D_NET *254 0.000307472
*CONN
*I *6694:B1 I *D sky130_fd_sc_hd__a31o_2
*I *6693:X O *D sky130_fd_sc_hd__o21a_2
*CAP
1 *6694:B1 2.7541e-05
2 *6693:X 2.7541e-05
3 *6694:B1 *381:65 9.90431e-05
4 *6693:A2 *6694:B1 1.15172e-05
5 *6694:A1 *6694:B1 0.00014183
*RES
1 *6693:X *6694:B1 19.9571 
*END

*D_NET *255 0.000998503
*CONN
*I *6918:A I *D sky130_fd_sc_hd__clkdlybuf4s25_1
*I *6700:Y O *D sky130_fd_sc_hd__nor2_2
*CAP
1 *6918:A 0.000389494
2 *6700:Y 0.000389494
3 *6918:A *6800:D 7.20217e-06
4 *6918:A *430:52 0.000141734
5 *6918:A *430:62 0
6 *6918:A *430:64 0
7 *6918:A *475:54 5.01883e-05
8 *6918:A *1084:12 1.32056e-05
9 *6918:A *1084:22 7.18353e-06
*RES
1 *6700:Y *6918:A 34.2786 
*END

*D_NET *256 0.00482098
*CONN
*I *6702:B I *D sky130_fd_sc_hd__or2_2
*I *6704:B I *D sky130_fd_sc_hd__or3b_2
*I *6708:A2 I *D sky130_fd_sc_hd__o22a_2
*I *6701:X O *D sky130_fd_sc_hd__and2b_2
*CAP
1 *6702:B 0.000315651
2 *6704:B 0
3 *6708:A2 6.86184e-05
4 *6701:X 0.000422745
5 *256:21 0.00117579
6 *256:12 0.0013515
7 *6702:B *1079:12 0.000405727
8 *6708:A2 *6708:B1 9.71197e-05
9 *256:12 *6836:CLK 5.76121e-05
10 *256:12 *302:272 5.43491e-05
11 *256:21 *6708:B1 0.00052961
12 *256:21 *259:10 9.10594e-05
13 *256:21 *259:16 1.58163e-05
14 *6702:A *6702:B 6.79057e-05
15 *6702:A *256:21 2.65105e-05
16 *6708:A1 *256:12 5.41794e-05
17 *6836:D *256:12 2.06413e-05
18 *199:33 *256:12 6.61507e-05
*RES
1 *6701:X *256:12 24.675 
2 *256:12 *6708:A2 10.2464 
3 *256:12 *256:21 11.625 
4 *256:21 *6704:B 9.3 
5 *256:21 *6702:B 15.925 
*END

*D_NET *257 0.00243024
*CONN
*I *6714:A2 I *D sky130_fd_sc_hd__a22o_2
*I *6712:C I *D sky130_fd_sc_hd__or4_2
*I *6710:B I *D sky130_fd_sc_hd__nor2_2
*I *6702:X O *D sky130_fd_sc_hd__or2_2
*CAP
1 *6714:A2 0.000342237
2 *6712:C 0
3 *6710:B 0.000196902
4 *6702:X 0.000115428
5 *257:23 0.000484325
6 *257:10 0.000454418
7 *6714:A2 *6712:A 9.7049e-06
8 *6714:A2 *6714:A1 5.95283e-05
9 *6714:A2 *6714:B1 0
10 *6714:A2 *6714:B2 0.000310031
11 *6714:A2 *1081:30 0.000150373
12 *257:10 *6713:A2 6.51946e-05
13 *257:23 *6713:A2 9.24491e-05
14 *257:23 *6714:B1 0
15 *257:23 *258:30 0
16 *6596:C1 *6710:B 9.44173e-05
17 *6712:B *6714:A2 0
18 *143:16 *6710:B 5.52302e-05
19 *184:10 *6714:A2 0
*RES
1 *6702:X *257:10 15.9786 
2 *257:10 *6710:B 17.2286 
3 *257:10 *257:23 2.85714 
4 *257:23 *6712:C 13.8 
5 *257:23 *6714:A2 20.8045 
*END

*D_NET *258 0.00234577
*CONN
*I *6712:D I *D sky130_fd_sc_hd__or4_2
*I *6711:C I *D sky130_fd_sc_hd__nor3_2
*I *6704:C_N I *D sky130_fd_sc_hd__or3b_2
*I *6703:Y O *D sky130_fd_sc_hd__o21ai_2
*CAP
1 *6712:D 6.05084e-05
2 *6711:C 0
3 *6704:C_N 0.000248219
4 *6703:Y 0.000783525
5 *258:30 0.000595814
6 *6704:C_N *6596:A2 0
7 *6704:C_N *6703:A1 1.24368e-05
8 *6704:C_N *6703:B1 1.02936e-05
9 *6704:C_N *439:43 0
10 *6704:C_N *1079:20 0
11 *6712:D *6714:B2 5.71472e-05
12 *6712:D *1081:36 9.14762e-05
13 *6596:C1 *6704:C_N 8.6945e-05
14 *6596:C1 *258:30 0.000370957
15 *6712:B *258:30 2.84494e-05
16 *199:33 *6704:C_N 0
17 *257:23 *258:30 0
*RES
1 *6703:Y *6704:C_N 31.4036 
2 *6703:Y *258:30 26.2286 
3 *258:30 *6711:C 9.3 
4 *258:30 *6712:D 11.0857 
*END

*D_NET *259 0.00342481
*CONN
*I *6705:B I *D sky130_fd_sc_hd__nor2_2
*I *6709:B I *D sky130_fd_sc_hd__and2_2
*I *6706:A_N I *D sky130_fd_sc_hd__and3b_2
*I *6707:A2 I *D sky130_fd_sc_hd__a21o_2
*I *6704:X O *D sky130_fd_sc_hd__or3b_2
*CAP
1 *6705:B 0
2 *6709:B 0
3 *6706:A_N 0.000163616
4 *6707:A2 0.000231128
5 *6704:X 0.000195094
6 *259:31 0.000163616
7 *259:16 0.000376295
8 *259:10 0.00034026
9 *6706:A_N *6644:B 9.90367e-05
10 *6706:A_N *6706:C 5.7298e-05
11 *6706:A_N *6707:B1 0.000144941
12 *6706:A_N *6709:A 3.54682e-05
13 *6706:A_N *305:59 0.000270415
14 *6707:A2 *6504:A 3.93346e-05
15 *6707:A2 *6919:A 0.000446603
16 *6707:A2 *305:16 0
17 *6707:A2 *439:43 0.000174797
18 *259:10 *6708:B1 5.7661e-06
19 *259:16 *439:43 0.000220441
20 *6702:A *259:10 5.7661e-06
21 *6705:A *259:16 7.8327e-05
22 *6706:B *6706:A_N 6.23021e-05
23 *144:10 *6707:A2 0.000167424
24 *144:10 *259:16 4.00025e-05
25 *256:21 *259:10 9.10594e-05
26 *256:21 *259:16 1.58163e-05
*RES
1 *6704:X *259:10 13.1571 
2 *259:10 *259:16 7.89286 
3 *259:16 *6707:A2 21.0143 
4 *259:16 *259:31 4.5 
5 *259:31 *6706:A_N 15.3357 
6 *259:31 *6709:B 9.3 
7 *259:10 *6705:B 9.3 
*END

*D_NET *260 0.00186765
*CONN
*I *6708:B1 I *D sky130_fd_sc_hd__o22a_2
*I *6705:Y O *D sky130_fd_sc_hd__nor2_2
*CAP
1 *6708:B1 0.000401791
2 *6705:Y 0.000401791
3 *6708:B1 *6708:B2 3.93247e-05
4 *6708:B1 *302:253 2.9213e-05
5 *6708:B1 *302:257 5.08301e-05
6 *6708:B1 *302:259 1.21258e-05
7 *6708:B1 *302:272 1.39841e-05
8 *6708:B1 *305:12 0.00013478
9 *6708:A1 *6708:B1 9.60875e-05
10 *6708:A2 *6708:B1 9.71197e-05
11 *6836:D *6708:B1 5.52238e-05
12 *256:21 *6708:B1 0.00052961
13 *259:10 *6708:B1 5.7661e-06
*RES
1 *6705:Y *6708:B1 29.5107 
*END

*D_NET *261 0.00100929
*CONN
*I *6707:B1 I *D sky130_fd_sc_hd__a21o_2
*I *6706:X O *D sky130_fd_sc_hd__and3b_2
*CAP
1 *6707:B1 0.00022425
2 *6706:X 0.00022425
3 *6707:B1 *6644:B 3.77602e-05
4 *6707:B1 *6706:C 1.76039e-05
5 *6707:B1 *6707:A1 3.92757e-05
6 *6706:A_N *6707:B1 0.000144941
7 *6706:B *6707:B1 9.90431e-05
8 *199:33 *6707:B1 0.000222163
*RES
1 *6706:X *6707:B1 33.4571 
*END

*D_NET *262 0.000634957
*CONN
*I *6714:B1 I *D sky130_fd_sc_hd__a22o_2
*I *6713:B1 I *D sky130_fd_sc_hd__a21oi_2
*I *6710:Y O *D sky130_fd_sc_hd__nor2_2
*CAP
1 *6714:B1 0.000114744
2 *6713:B1 0.000164787
3 *6710:Y 0
4 *262:6 0.000279532
5 *6713:B1 *6713:A2 0
6 *6713:B1 *6838:CLK 1.41706e-05
7 *6714:B1 *6713:A2 0
8 *6714:B1 *6838:CLK 6.17227e-05
9 *6714:A2 *6714:B1 0
10 *6838:D *6713:B1 0
11 *143:16 *6713:B1 0
12 *257:23 *6714:B1 0
*RES
1 *6710:Y *262:6 13.8 
2 *262:6 *6713:B1 16.6571 
3 *262:6 *6714:B1 16.05 
*END

*D_NET *263 0.000745714
*CONN
*I *6714:B2 I *D sky130_fd_sc_hd__a22o_2
*I *6711:Y O *D sky130_fd_sc_hd__nor3_2
*CAP
1 *6714:B2 9.76188e-05
2 *6711:Y 9.76188e-05
3 *6714:B2 *6712:A 0.000106726
4 *6714:B2 *1081:30 3.48705e-05
5 *6714:B2 *1081:36 4.17014e-05
6 *6712:D *6714:B2 5.71472e-05
7 *6714:A2 *6714:B2 0.000310031
*RES
1 *6711:Y *6714:B2 22.4393 
*END

*D_NET *264 0.000794085
*CONN
*I *6713:A2 I *D sky130_fd_sc_hd__a21oi_2
*I *6712:X O *D sky130_fd_sc_hd__or4_2
*CAP
1 *6713:A2 0.000221326
2 *6712:X 0.000221326
3 *6713:A2 *1081:36 9.90431e-05
4 *6713:B1 *6713:A2 0
5 *6714:B1 *6713:A2 0
6 *143:16 *6713:A2 9.47456e-05
7 *257:10 *6713:A2 6.51946e-05
8 *257:23 *6713:A2 9.24491e-05
*RES
1 *6712:X *6713:A2 32.6179 
*END

*D_NET *265 0.00461101
*CONN
*I *6913:A I *D sky130_fd_sc_hd__clkdlybuf4s25_1
*I *6914:A I *D sky130_fd_sc_hd__clkdlybuf4s25_1
*I *6715:Y O *D sky130_fd_sc_hd__a21oi_2
*CAP
1 *6913:A 3.27985e-05
2 *6914:A 0.000359357
3 *6715:Y 0.000446992
4 *265:12 0.000839147
5 *6913:A *303:38 3.45371e-05
6 *6914:A *6728:A1 0
7 *6914:A *302:17 7.60092e-05
8 *6914:A *303:38 0.000166942
9 *6914:A *337:22 0.000312215
10 *6914:A *370:10 7.34161e-05
11 *265:12 *6733:B1 0
12 *265:12 *6741:B2 2.63834e-05
13 *265:12 *266:14 8.6229e-06
14 *265:12 *303:38 0.000239655
15 *265:12 *303:51 0.000958663
16 *265:12 *359:8 0.00022459
17 *265:12 *426:10 0
18 *265:12 *508:78 9.96242e-05
19 *6561:B *265:12 5.52302e-05
20 *6864:D *265:12 0.000656833
*RES
1 *6715:Y *265:12 32.4786 
2 *265:12 *6914:A 26.1393 
3 *265:12 *6913:A 10.0321 
*END

*D_NET *266 0.00540508
*CONN
*I *6911:A I *D sky130_fd_sc_hd__clkdlybuf4s25_1
*I *6912:A I *D sky130_fd_sc_hd__clkdlybuf4s25_1
*I *6716:X O *D sky130_fd_sc_hd__and2_2
*CAP
1 *6911:A 0.000322161
2 *6912:A 0
3 *6716:X 0.000411676
4 *266:14 0.000733837
5 *6911:A *6720:A1 0.000574073
6 *6911:A *6804:CLK 0.000621848
7 *6911:A *337:14 0
8 *6911:A *348:18 0.00017816
9 *6911:A *501:103 0.000615963
10 *6911:A *512:73 0.000621848
11 *266:14 *6581:A 5.15925e-05
12 *266:14 *6741:B2 0.000207835
13 *266:14 *6987:A 0.000184745
14 *266:14 *303:51 0.00039716
15 *266:14 *348:18 6.26177e-05
16 *266:14 *396:65 0.000224341
17 *266:14 *402:20 0
18 *266:14 *501:103 4.6869e-05
19 *6864:D *266:14 0.000141734
20 *265:12 *266:14 8.6229e-06
*RES
1 *6716:X *266:14 29.0857 
2 *266:14 *6912:A 9.3 
3 *266:14 *6911:A 33.0321 
*END

*D_NET *267 0.00183964
*CONN
*I *6949:A I *D sky130_fd_sc_hd__dlygate4sd3_1
*I *6883:Q O *D sky130_fd_sc_hd__dfrtp_2
*CAP
1 *6949:A 0.00066668
2 *6883:Q 0.00066668
3 *6949:A *6695:A1 9.69696e-05
4 *6949:A *6696:A0 6.05161e-06
5 *6949:A *6884:D 3.81416e-06
6 *6949:A *7026:A 0
7 *6949:A *313:20 0
8 *6949:A *314:12 8.98293e-05
9 *6949:A *418:24 0.000135163
10 *6949:A *478:10 4.09856e-05
11 *6949:A *478:39 7.77751e-05
12 *6834:D *6949:A 5.56943e-05
13 *42:28 *6949:A 0
*RES
1 *6883:Q *6949:A 39.2786 
*END

*D_NET *268 0.00625178
*CONN
*I *7571:en I *D ro_macro_hard
*I *6547:X O *D sky130_fd_sc_hd__and3_2
*CAP
1 *7571:en 0.00240205
2 *6547:X 0.00240205
3 *7571:en *6547:A 0.000143375
4 *7571:en *6547:B 0.000150458
5 *7571:en *7581:en 0.000175822
6 *7571:en *7585:en 0
7 *7571:en *407:53 0.000318101
8 *7571:en *407:55 7.41433e-05
9 *7571:en *414:26 0.000206353
10 *7571:en *414:28 0.00026826
11 *6551:B *7571:en 1.21289e-05
12 *146:10 *7571:en 9.90367e-05
*RES
1 *6547:X *7571:en 45.6542 
*END

*D_NET *269 0.0128103
*CONN
*I *7573:en I *D ro_macro_hard
*I *6557:X O *D sky130_fd_sc_hd__and3_2
*CAP
1 *7573:en 5.34587e-05
2 *6557:X 0.00107202
3 *269:20 0.00203823
4 *269:18 0.00305678
5 *269:18 *6616:A1 0.000446853
6 *269:18 *294:35 0.000393957
7 *269:18 *295:9 0.000360766
8 *269:18 *296:9 0.000438021
9 *269:18 *408:32 1.01912e-05
10 *269:18 *414:63 0.000589224
11 *269:20 *7574:en 0.000340007
12 *269:20 *414:63 0.000621309
13 *150:37 *269:20 0.00223803
14 *206:12 *269:20 0.00115147
*RES
1 *6557:X *269:18 34.6702 
2 *269:18 *269:20 56.8036 
3 *269:20 *7573:en 5.5 
*END

*D_NET *270 0.00445744
*CONN
*I *7574:en I *D ro_macro_hard
*I *6558:X O *D sky130_fd_sc_hd__and3_2
*CAP
1 *7574:en 0.0011376
2 *6558:X 0.0011376
3 *7574:en *6558:A 0.000100625
4 *7574:en *414:63 0.000104529
5 *150:37 *7574:en 0.00134245
6 *152:77 *7574:en 9.90431e-05
7 *206:12 *7574:en 0.00019557
8 *269:20 *7574:en 0.000340007
*RES
1 *6558:X *7574:en 43.7196 
*END

*D_NET *271 0.0056446
*CONN
*I *7575:en I *D ro_macro_hard
*I *6559:X O *D sky130_fd_sc_hd__and3_2
*CAP
1 *7575:en 0.00226906
2 *6559:X 0.000306561
3 *271:8 0.00257562
4 *7575:en *300:18 0
5 *6559:B *271:8 0.000493352
*RES
1 *6559:X *271:8 18.4429 
2 *271:8 *7575:en 47.4639 
*END

*D_NET *272 0.00716508
*CONN
*I *7576:en I *D ro_macro_hard
*I *6560:X O *D sky130_fd_sc_hd__and3_2
*CAP
1 *7576:en 0.000400776
2 *6560:X 0
3 *272:10 0.00222386
4 *272:6 0.00182309
5 *7576:en *481:20 0.00103174
6 *272:10 *6560:C 0.000139192
7 *272:10 *6845:CLK 5.76566e-05
8 *272:10 *337:105 0
9 *272:10 *407:124 3.5703e-05
10 *272:10 *412:149 0
11 *6560:B *272:10 1.3807e-05
12 *6845:D *272:10 0.000189021
13 *42:22 *7576:en 0.000301534
14 *153:20 *272:10 0.00094871
*RES
1 *6560:X *272:6 13.8 
2 *272:6 *272:10 48.6429 
3 *272:10 *7576:en 15.0268 
*END

*D_NET *273 0.00976517
*CONN
*I *7577:en I *D ro_macro_hard
*I *6561:X O *D sky130_fd_sc_hd__and3_2
*CAP
1 *7577:en 0.000356639
2 *6561:X 0.00141654
3 *273:18 0.0018566
4 *273:12 0.00291649
5 *7577:en *481:20 0.00176116
6 *273:12 *6642:B1 0.000126963
7 *273:12 *408:121 0.000494411
8 *273:12 *440:80 3.66633e-05
9 *154:25 *7577:en 0.000265462
10 *205:12 *7577:en 0.000534243
*RES
1 *6561:X *273:12 47.6393 
2 *273:12 *273:18 38.875 
3 *273:18 *7577:en 21.8036 
*END

*D_NET *274 0.00614294
*CONN
*I *7578:en I *D ro_macro_hard
*I *6562:X O *D sky130_fd_sc_hd__and3_2
*CAP
1 *7578:en 0.000851674
2 *6562:X 0.000851674
3 *7578:en *6795:CLK 0
4 *7578:en *408:10 2.92126e-05
5 *7578:en *408:12 9.59532e-06
6 *7578:en *408:22 4.6025e-06
7 *7578:en *408:117 0.000659436
8 *7578:en *411:145 0
9 *7578:en *481:20 0.000329827
10 *6926:A *7578:en 4.48113e-05
11 *6928:A *7578:en 0.000137556
12 *154:25 *7578:en 0.00322456
*RES
1 *6562:X *7578:en 29.5863 
*END

*D_NET *275 0.00843505
*CONN
*I *7572:en I *D ro_macro_hard
*I *6548:X O *D sky130_fd_sc_hd__and3_2
*CAP
1 *7572:en 0.00186259
2 *6548:X 0.00106235
3 *275:18 0.00315517
4 *275:14 0.00235494
*RES
1 *6548:X *275:14 43.1929 
2 *275:14 *275:18 30.7321 
3 *275:18 *7572:en 39.8929 
*END

*D_NET *276 0.00589811
*CONN
*I *7579:en I *D ro_macro_hard
*I *6549:X O *D sky130_fd_sc_hd__and3_2
*CAP
1 *7579:en 0.00269174
2 *6549:X 0.00269174
3 *7579:en *6549:C 0
4 *7579:en *6553:A 2.50767e-05
5 *7579:en *6553:C 2.37159e-05
6 *7579:en *415:14 0.000317446
7 *149:20 *7579:en 5.25759e-05
8 *150:20 *7579:en 9.58126e-05
*RES
1 *6549:X *7579:en 39.9297 
*END

*D_NET *277 0.00604755
*CONN
*I *7580:en I *D ro_macro_hard
*I *6550:X O *D sky130_fd_sc_hd__and3_2
*CAP
1 *7580:en 0.00108686
2 *6550:X 0
3 *277:10 0.00302377
4 *277:6 0.00193692
*RES
1 *6550:X *277:6 13.8 
2 *277:6 *277:10 43.4821 
3 *277:10 *7580:en 25.0536 
*END

*D_NET *278 0.00178665
*CONN
*I *7581:en I *D ro_macro_hard
*I *6551:X O *D sky130_fd_sc_hd__and3_2
*CAP
1 *7581:en 0.000337321
2 *6551:X 0.000337321
3 *7581:en *6547:B 0.000534222
4 *7581:en *414:26 0.000184745
5 *7581:en *414:57 4.19624e-06
6 *6551:B *7581:en 2.44318e-05
7 *7571:en *7581:en 0.000175822
8 *146:10 *7581:en 0.000188586
*RES
1 *6551:X *7581:en 23.3714 
*END

*D_NET *279 0.00584497
*CONN
*I *7582:en I *D ro_macro_hard
*I *6552:X O *D sky130_fd_sc_hd__and3_2
*CAP
1 *7582:en 7.38197e-05
2 *6552:X 0.000999035
3 *279:12 0.00107285
4 *279:12 *407:39 0.00010326
5 *279:12 *413:52 0.00296001
6 *151:52 *279:12 0.000635999
*RES
1 *6552:X *279:12 48.0679 
2 *279:12 *7582:en 5.75 
*END

*D_NET *280 0.00188673
*CONN
*I *7583:en I *D ro_macro_hard
*I *6553:X O *D sky130_fd_sc_hd__and3_2
*CAP
1 *7583:en 0.000619024
2 *6553:X 0.000619024
3 *7583:en *408:70 0.000230482
4 *7583:en *411:6 0.000402784
5 *150:20 *7583:en 1.54142e-05
*RES
1 *6553:X *7583:en 23.1571 
*END

*D_NET *281 0.0010023
*CONN
*I *7584:en I *D ro_macro_hard
*I *6554:X O *D sky130_fd_sc_hd__and3_2
*CAP
1 *7584:en 0.000363045
2 *6554:X 0.000363045
3 *151:71 *7584:en 0
4 *151:77 *7584:en 0.000276211
*RES
1 *6554:X *7584:en 19.8357 
*END

*D_NET *282 0.00770438
*CONN
*I *7585:en I *D ro_macro_hard
*I *6555:X O *D sky130_fd_sc_hd__and3_2
*CAP
1 *7585:en 0.00206813
2 *6555:X 0.00206813
3 *7585:en *414:26 4.6025e-06
4 *7585:en *414:57 0.00354133
5 *6551:B *7585:en 2.21972e-05
6 *7571:en *7585:en 0
*RES
1 *6555:X *7585:en 40.8144 
*END

*D_NET *283 0.00765801
*CONN
*I *7586:en I *D ro_macro_hard
*I *6556:X O *D sky130_fd_sc_hd__and3_2
*CAP
1 *7586:en 0.000410087
2 *6556:X 0.000421591
3 *283:12 0.00195937
4 *283:8 0.00197088
5 *283:8 *477:71 0.000664641
6 *283:12 *6556:C 0.000108511
7 *283:12 *407:8 0.00200277
8 *283:12 *412:49 0
9 *148:32 *283:8 0.000120158
*RES
1 *6556:X *283:8 20.0857 
2 *283:8 *283:12 49.5536 
3 *283:12 *7586:en 11.9911 
*END

*D_NET *284 0.00929244
*CONN
*I *6619:A0 I *D sky130_fd_sc_hd__mux4_2
*I *7571:out O *D ro_macro_hard
*CAP
1 *6619:A0 0.000852393
2 *7571:out 2.90133e-05
3 *284:9 0.00381688
4 *284:7 0.0029935
5 *6619:A0 *6619:A1 0.000875515
6 *6619:A0 *415:14 0.000489654
7 *148:32 *6619:A0 0.000235495
8 *151:52 *6619:A0 0
*RES
1 *7571:out *284:7 5 
2 *284:7 *284:9 55.9821 
3 *284:9 *6619:A0 30.44 
*END

*D_NET *285 0.0151792
*CONN
*I *6614:B2 I *D sky130_fd_sc_hd__a22o_2
*I *7573:out O *D ro_macro_hard
*CAP
1 *6614:B2 0.000226455
2 *7573:out 0.000140595
3 *285:9 0.00454939
4 *285:7 0.00446353
5 *6614:B2 *6614:A2 0
6 *6614:B2 *411:129 3.34295e-05
7 *6614:B2 *411:141 9.59537e-05
8 *6614:B2 *1089:16 0
9 *285:9 *6521:B 3.18676e-05
10 *285:9 *6544:B 5.33005e-05
11 *285:9 *7220:A 3.61003e-05
12 *285:9 *7221:A 3.32595e-05
13 *285:9 *7237:A 0.000175642
14 *285:9 *299:9 0.00102303
15 *285:9 *406:18 2.95726e-05
16 *285:9 *408:117 0.000734875
17 *6562:A *285:9 1.21258e-05
18 *6562:B *285:9 5.33005e-05
19 *6827:D *6614:B2 0
20 *145:12 *285:9 0.00034611
21 *153:28 *285:9 0.002921
22 *153:51 *285:9 0.000219711
23 *205:12 *285:9 0
*RES
1 *7573:out *285:7 7.01786 
2 *285:7 *285:9 105.679 
3 *285:9 *6614:B2 22.675 
*END

*D_NET *286 0.00746593
*CONN
*I *6615:B2 I *D sky130_fd_sc_hd__a221o_2
*I *7574:out O *D ro_macro_hard
*CAP
1 *6615:B2 0.000606718
2 *7574:out 0.000606718
3 *6615:B2 *6615:A1 0.000709424
4 *6615:B2 *298:11 0.00195769
5 *6615:B2 *299:9 0.00331611
6 *6615:B2 *411:145 0.000269278
*RES
1 *7574:out *6615:B2 46.1884 
*END

*D_NET *287 0.0223729
*CONN
*I *6618:A0 I *D sky130_fd_sc_hd__mux4_2
*I *7575:out O *D ro_macro_hard
*CAP
1 *6618:A0 0.00278832
2 *7575:out 0.00278832
3 *6618:A0 *6559:A 9.97767e-06
4 *6618:A0 *6559:C 0
5 *6618:A0 *6618:A1 0
6 *6618:A0 *288:9 0.00107424
7 *6618:A0 *300:18 0
8 *6618:A0 *335:16 0.00701257
9 *6618:A0 *441:14 0.000235495
10 *6618:A0 *451:20 0.0075684
11 *41:14 *6618:A0 0.000793028
12 *205:10 *6618:A0 0.000102553
*RES
1 *7575:out *6618:A0 41.3648 
*END

*D_NET *288 0.00614315
*CONN
*I *6618:A1 I *D sky130_fd_sc_hd__mux4_2
*I *7576:out O *D ro_macro_hard
*CAP
1 *6618:A1 0.000214325
2 *7576:out 0.00224453
3 *288:9 0.00245886
4 *6618:A1 *6618:S1 9.54798e-06
5 *6618:A1 *300:12 0
6 *6618:A0 *6618:A1 0
7 *6618:A0 *288:9 0.00107424
8 *153:12 *288:9 0.000141644
*RES
1 *7576:out *288:9 46.1339 
2 *288:9 *6618:A1 21.7643 
*END

*D_NET *289 0.00338827
*CONN
*I *6618:A2 I *D sky130_fd_sc_hd__mux4_2
*I *7577:out O *D ro_macro_hard
*CAP
1 *6618:A2 0.00078082
2 *7577:out 0.00078082
3 *6618:A2 *6718:B2 4.6025e-06
4 *6618:A2 *290:15 1.41275e-05
5 *6618:A2 *337:46 2.95664e-05
6 *6618:A2 *475:110 0.000722749
7 *6618:A2 *504:76 0.00030911
8 *6618:A2 *507:38 0.000686595
9 *6842:D *6618:A2 3.10885e-05
10 *41:14 *6618:A2 2.87939e-05
*RES
1 *7577:out *6618:A2 26.7352 
*END

*D_NET *290 0.0154299
*CONN
*I *6618:A3 I *D sky130_fd_sc_hd__mux4_2
*I *1114:DIODE I *D sky130_fd_sc_hd__diode_2
*I *7578:out O *D ro_macro_hard
*CAP
1 *6618:A3 0
2 *1114:DIODE 0.000171656
3 *7578:out 0.00225003
4 *290:15 0.00242169
5 *1114:DIODE *6618:S0 0.00022272
6 *1114:DIODE *6618:S1 0.000140933
7 *1114:DIODE *6718:A1 0.000479542
8 *290:15 *6718:B2 0.000184634
9 *290:15 *300:12 0.000303137
10 *290:15 *302:173 0.000815635
11 *290:15 *335:16 0.00474925
12 *290:15 *337:46 5.7903e-06
13 *290:15 *502:45 0
14 *290:15 *507:38 0.000774591
15 *290:15 *508:78 0.00111603
16 *290:15 *509:14 0.00040522
17 *6618:A2 *290:15 1.41275e-05
18 *6842:D *290:15 1.38167e-05
19 *41:14 *290:15 0.00136114
*RES
1 *7578:out *290:15 27.042 
2 *290:15 *1114:DIODE 15.3179 
3 *290:15 *6618:A3 9.3 
*END

*D_NET *291 0.00289059
*CONN
*I *6619:A1 I *D sky130_fd_sc_hd__mux4_2
*I *7572:out O *D ro_macro_hard
*CAP
1 *6619:A1 0.00100754
2 *7572:out 0.00100754
3 *6619:A1 *6619:A3 0
4 *6619:A0 *6619:A1 0.000875515
5 *151:52 *6619:A1 0
*RES
1 *7572:out *6619:A1 26.7266 
*END

*D_NET *292 0.00748456
*CONN
*I *6619:A2 I *D sky130_fd_sc_hd__mux4_2
*I *7579:out O *D ro_macro_hard
*CAP
1 *6619:A2 0.000116304
2 *7579:out 0.00144998
3 *292:9 0.00156628
4 *6619:A2 *6619:A3 5.56363e-05
5 *6619:A2 *412:10 4.46186e-06
6 *292:9 *293:9 0.0042919
*RES
1 *7579:out *292:9 46.8571 
2 *292:9 *6619:A2 20.55 
*END

*D_NET *293 0.0129732
*CONN
*I *6619:A3 I *D sky130_fd_sc_hd__mux4_2
*I *7580:out O *D ro_macro_hard
*CAP
1 *6619:A3 0.000157696
2 *7580:out 2.90133e-05
3 *293:9 0.0042838
4 *293:7 0.00415512
5 *6619:A3 *412:10 0
6 *6619:A1 *6619:A3 0
7 *6619:A2 *6619:A3 5.56363e-05
8 *292:9 *293:9 0.0042919
*RES
1 *7580:out *293:7 5 
2 *293:7 *293:9 93.8929 
3 *293:9 *6619:A3 21.1571 
*END

*D_NET *294 0.0294624
*CONN
*I *6617:A1 I *D sky130_fd_sc_hd__a221o_2
*I *7581:out O *D ro_macro_hard
*CAP
1 *6617:A1 0
2 *7581:out 5.94094e-05
3 *294:35 0.00181832
4 *294:13 0.0079626
5 *294:11 0.00620369
6 *294:13 *295:9 0.010755
7 *294:35 *6616:A1 1.46617e-05
8 *294:35 *6617:A2 6.05161e-06
9 *294:35 *6617:B2 0.0019225
10 *294:35 *295:9 0.000203764
11 *6617:C1 *294:35 0.000122468
12 *269:18 *294:35 0.000393957
*RES
1 *7581:out *294:11 5.91071 
2 *294:11 *294:13 154.348 
3 *294:13 *294:35 48.6623 
4 *294:35 *6617:A1 9.3 
*END

*D_NET *295 0.0260543
*CONN
*I *6616:A1 I *D sky130_fd_sc_hd__a22o_2
*I *7582:out O *D ro_macro_hard
*CAP
1 *6616:A1 0.00122803
2 *7582:out 4.76896e-05
3 *295:9 0.00449434
4 *295:7 0.003314
5 *6616:A1 *6616:B1 5.33005e-05
6 *6616:A1 *6616:B2 0.000134862
7 *6616:A1 *7067:A 6.71295e-05
8 *6616:A1 *413:127 3.13773e-05
9 *6616:A1 *414:63 0
10 *295:9 *6617:B2 0.00103398
11 *295:9 *296:9 0.00328634
12 *6617:C1 *6616:A1 0.000582263
13 *269:18 *6616:A1 0.000446853
14 *269:18 *295:9 0.000360766
15 *294:13 *295:9 0.010755
16 *294:35 *6616:A1 1.46617e-05
17 *294:35 *295:9 0.000203764
*RES
1 *7582:out *295:7 5.25 
2 *295:7 *295:9 132.17 
3 *295:9 *6616:A1 33.799 
*END

*D_NET *296 0.013353
*CONN
*I *6616:B2 I *D sky130_fd_sc_hd__a22o_2
*I *7583:out O *D ro_macro_hard
*CAP
1 *6616:B2 0.0011658
2 *7583:out 9.86751e-05
3 *296:9 0.00409784
4 *296:7 0.00303071
5 *6616:B2 *6532:B 3.07555e-05
6 *6616:B2 *6617:B2 0.00044286
7 *6616:B2 *7067:A 6.71295e-05
8 *6616:B2 *7068:A 7.66879e-05
9 *6616:B2 *414:69 2.67601e-05
10 *296:9 *6617:B2 0
11 *6616:A1 *6616:B2 0.000134862
12 *6617:C1 *6616:B2 0.000447925
13 *204:10 *6616:B2 8.6229e-06
14 *269:18 *296:9 0.000438021
15 *295:9 *296:9 0.00328634
*RES
1 *7583:out *296:7 6.16071 
2 *296:7 *296:9 78.9821 
3 *296:9 *6616:B2 40.1393 
*END

*D_NET *297 0.00540036
*CONN
*I *6617:B2 I *D sky130_fd_sc_hd__a221o_2
*I *7584:out O *D ro_macro_hard
*CAP
1 *6617:B2 0.00095831
2 *7584:out 0.00095831
3 *6616:B2 *6617:B2 0.00044286
4 *6617:C1 *6617:B2 8.44022e-05
5 *294:35 *6617:B2 0.0019225
6 *295:9 *6617:B2 0.00103398
7 *296:9 *6617:B2 0
*RES
1 *7584:out *6617:B2 48.867 
*END

*D_NET *298 0.0287063
*CONN
*I *6615:A1 I *D sky130_fd_sc_hd__a221o_2
*I *7585:out O *D ro_macro_hard
*CAP
1 *6615:A1 0.000537035
2 *7585:out 8.14968e-05
3 *298:11 0.0077782
4 *298:9 0.00732267
5 *6615:A1 *299:9 5.89473e-05
6 *6615:A1 *411:145 0.00029823
7 *298:11 *299:9 0.00632345
8 *298:11 *411:145 0.000830867
9 *6615:B2 *6615:A1 0.000709424
10 *6615:B2 *298:11 0.00195769
11 *150:59 *6615:A1 5.33005e-05
12 *152:48 *6615:A1 0.000301654
13 *152:48 *298:11 0.0024533
*RES
1 *7585:out *298:9 5.625 
2 *298:9 *298:11 179.196 
3 *298:11 *6615:A1 34.9451 
*END

*D_NET *299 0.0257895
*CONN
*I *6614:A1 I *D sky130_fd_sc_hd__a22o_2
*I *7586:out O *D ro_macro_hard
*CAP
1 *6614:A1 0.00131841
2 *7586:out 5.99029e-05
3 *299:9 0.005782
4 *299:7 0.00452349
5 *6614:A1 *7222:A 0
6 *6614:A1 *7224:A 1.37743e-05
7 *6614:A1 *7226:A 4.91399e-05
8 *6614:A1 *7227:A 8.83483e-06
9 *6614:A1 *406:18 0.000208009
10 *6614:A1 *411:129 0.000137983
11 *6614:A1 *411:141 0.000289383
12 *6614:A1 *411:145 0
13 *299:9 *411:145 0.00091613
14 *6615:A1 *299:9 5.89473e-05
15 *6615:B2 *299:9 0.00331611
16 *6925:A *6614:A1 0.0002085
17 *150:59 *6614:A1 0.000165535
18 *150:59 *299:9 1.21258e-05
19 *150:85 *6614:A1 0.00133009
20 *201:20 *6614:A1 4.46921e-05
21 *285:9 *299:9 0.00102303
22 *298:11 *299:9 0.00632345
*RES
1 *7586:out *299:7 5.5 
2 *299:7 *299:9 139.973 
3 *299:9 *6614:A1 35.9961 
*END

*D_NET *300 0.0217784
*CONN
*I *6892:RESET_B I *D sky130_fd_sc_hd__dfrtp_2
*I *6890:RESET_B I *D sky130_fd_sc_hd__dfrtp_2
*I *6565:X O *D sky130_fd_sc_hd__and2_2
*CAP
1 *6892:RESET_B 0.000292171
2 *6890:RESET_B 0.00046118
3 *6565:X 0.00105047
4 *300:18 0.00428598
5 *300:12 0.0045831
6 *6890:RESET_B *6886:D 0.000137983
7 *6890:RESET_B *313:63 7.32272e-05
8 *6892:RESET_B *6947:A 2.89016e-05
9 *6892:RESET_B *313:63 2.29097e-05
10 *6892:RESET_B *442:24 0.000131405
11 *300:12 *6618:S1 2.49067e-05
12 *300:12 *6635:A0 0.000121561
13 *300:12 *6875:RESET_B 0.000178714
14 *300:12 *6882:D 0.00012401
15 *300:12 *301:45 0.000533935
16 *300:12 *422:64 0.000121459
17 *300:12 *511:55 0.000533935
18 *300:18 *6541:A 0
19 *300:18 *6880:D 0
20 *300:18 *6886:CLK 0
21 *300:18 *335:16 0
22 *300:18 *441:14 0.00193642
23 *300:18 *442:24 9.59527e-05
24 *6618:A0 *300:18 0
25 *6618:A1 *300:12 0
26 *6842:D *300:12 2.33602e-05
27 *7029:A *300:12 0
28 *7575:en *300:18 0
29 *45:16 *300:18 0.00671365
30 *205:10 *300:12 0
31 *290:15 *300:12 0.000303137
*RES
1 *6565:X *300:12 42.5761 
2 *300:12 *300:18 32.9915 
3 *300:18 *6890:RESET_B 12.3661 
4 *300:18 *6892:RESET_B 9.66964 
*END

*D_NET *301 0.0139235
*CONN
*I *6641:S I *D sky130_fd_sc_hd__mux2_1
*I *6637:S I *D sky130_fd_sc_hd__mux2_1
*I *6638:S I *D sky130_fd_sc_hd__mux2_1
*I *6636:S I *D sky130_fd_sc_hd__mux2_1
*I *6635:S I *D sky130_fd_sc_hd__mux2_1
*I *6640:S I *D sky130_fd_sc_hd__mux2_1
*I *6639:S I *D sky130_fd_sc_hd__mux2_1
*I *6634:S I *D sky130_fd_sc_hd__mux2_1
*I *6888:Q O *D sky130_fd_sc_hd__dfrtp_2
*CAP
1 *6641:S 0.000210609
2 *6637:S 0
3 *6638:S 0
4 *6636:S 0.0002492
5 *6635:S 0
6 *6640:S 0
7 *6639:S 0
8 *6634:S 0.000298948
9 *6888:Q 0.00045221
10 *301:69 0.000275107
11 *301:62 0.000442719
12 *301:45 0.00120177
13 *301:38 0.000639748
14 *301:31 0.000218398
15 *301:24 0.000306265
16 *6634:S *6634:A1 3.18676e-05
17 *6634:S *6723:A1 0
18 *6634:S *6723:B1 0
19 *6634:S *432:18 0
20 *6636:S *6727:A1 0.000103267
21 *6636:S *303:10 8.55373e-05
22 *6636:S *320:10 0
23 *6636:S *440:55 0.000363252
24 *6641:S *6637:A0 0
25 *6641:S *6641:A1 1.76039e-05
26 *6641:S *312:20 0.000260954
27 *6641:S *348:35 0
28 *6641:S *348:41 0
29 *6641:S *511:55 0.000151061
30 *301:24 *6951:A 0.000615956
31 *301:24 *314:44 0.000794157
32 *301:31 *6951:A 0.000147415
33 *301:31 *314:44 0.00118763
34 *301:38 *314:44 0.000490643
35 *301:45 *6565:B 0.000308016
36 *301:45 *6850:CLK 0.000141734
37 *301:45 *6875:D 9.77274e-05
38 *301:45 *6875:RESET_B 0.000134714
39 *301:45 *314:44 0.0003556
40 *301:45 *511:55 0.000723027
41 *301:62 *511:55 0.000561874
42 *301:69 *312:20 0.00036192
43 *301:69 *511:55 0.000227322
44 uo_out[1] *301:31 0.000111084
45 *6850:D *301:45 2.84026e-05
46 *7030:A *301:31 0.00101514
47 *7030:A *301:38 0.000477308
48 *7030:A *301:45 0.000301402
49 *155:12 *6636:S 0
50 *300:12 *301:45 0.000533935
*RES
1 *6888:Q *6634:S 32.6179 
2 *6888:Q *301:24 16.8179 
3 *301:24 *6639:S 9.3 
4 *301:24 *301:31 11.2143 
5 *301:31 *6640:S 9.3 
6 *301:31 *301:38 4.64286 
7 *301:38 *6635:S 9.3 
8 *301:38 *301:45 21.0714 
9 *301:45 *6636:S 24.3536 
10 *301:45 *301:62 9.57143 
11 *301:62 *6638:S 9.3 
12 *301:62 *301:69 3.82143 
13 *301:69 *6637:S 9.3 
14 *301:69 *6641:S 23.7464 
*END

*D_NET *302 0.0550307
*CONN
*I *6901:A I *D sky130_fd_sc_hd__clkbuf_8
*I *6900:A I *D sky130_fd_sc_hd__clkbuf_8
*I *6897:A I *D sky130_fd_sc_hd__clkbuf_8
*I *6896:A I *D sky130_fd_sc_hd__clkbuf_8
*I *6910:A I *D sky130_fd_sc_hd__clkbuf_8
*I *6909:A I *D sky130_fd_sc_hd__clkbuf_8
*I *6899:A I *D sky130_fd_sc_hd__clkbuf_8
*I *6898:A I *D sky130_fd_sc_hd__clkbuf_8
*I *6903:A I *D sky130_fd_sc_hd__clkbuf_8
*I *6895:A I *D sky130_fd_sc_hd__clkbuf_8
*I *6902:A I *D sky130_fd_sc_hd__clkbuf_8
*I *6904:A I *D sky130_fd_sc_hd__clkbuf_8
*I *6908:A I *D sky130_fd_sc_hd__clkbuf_8
*I *6907:A I *D sky130_fd_sc_hd__clkbuf_8
*I *6905:A I *D sky130_fd_sc_hd__clkbuf_8
*I *6906:A I *D sky130_fd_sc_hd__clkbuf_8
*I *6894:X O *D sky130_fd_sc_hd__clkbuf_16
*CAP
1 *6901:A 1.09801e-05
2 *6900:A 0
3 *6897:A 0
4 *6896:A 3.82418e-05
5 *6910:A 0
6 *6909:A 9.27357e-05
7 *6899:A 0
8 *6898:A 9.98636e-05
9 *6903:A 0
10 *6895:A 7.15614e-05
11 *6902:A 0
12 *6904:A 8.75999e-05
13 *6908:A 0
14 *6907:A 0
15 *6905:A 6.10392e-05
16 *6906:A 8.63729e-05
17 *6894:X 6.43294e-05
18 *302:369 0.000214961
19 *302:360 0.000319607
20 *302:351 0.000197
21 *302:347 0.00013963
22 *302:314 0.000405439
23 *302:305 0.000312703
24 *302:303 7.53457e-05
25 *302:299 0.00145637
26 *302:278 0.00147894
27 *302:276 0.00024633
28 *302:272 0.000712633
29 *302:259 0.000689771
30 *302:257 0.000172219
31 *302:253 0.0013739
32 *302:239 0.00228864
33 *302:230 0.00102214
34 *302:223 0.00016868
35 *302:219 0.00107969
36 *302:199 0.000247893
37 *302:191 0.00301679
38 *302:181 0.00291372
39 *302:173 0.00248203
40 *302:158 0.00144531
41 *302:135 0.00017335
42 *302:130 0.00019453
43 *302:123 0.000179523
44 *302:119 0.000156007
45 *302:105 0.000203708
46 *302:99 0.000396733
47 *302:97 0.000448371
48 *302:78 0.000443318
49 *302:58 8.12705e-05
50 *302:56 0.000645379
51 *302:40 0.000374081
52 *302:38 0.000499734
53 *302:33 0.000121759
54 *302:31 0.000158467
55 *302:25 0.00032221
56 *302:23 0.00244778
57 *302:19 0.00476434
58 *302:17 0.0033889
59 *302:6 0.00111834
60 *6895:A *310:8 7.8195e-05
61 *6898:A *504:24 4.77613e-05
62 *6901:A *308:62 1.22159e-05
63 *6904:A *513:59 9.55794e-05
64 *6905:A *313:20 6.48671e-05
65 *6906:A *7015:A 7.40737e-05
66 *6909:A *6939:A 0.000137608
67 *302:6 *475:78 7.84235e-05
68 *302:17 *6720:A2 0
69 *302:17 *6720:B2 0
70 *302:17 *6804:CLK 1.31235e-05
71 *302:17 *312:33 0
72 *302:17 *335:16 7.91557e-05
73 *302:17 *337:14 0
74 *302:17 *370:10 0
75 *302:17 *475:78 4.97288e-05
76 *302:17 *511:53 0
77 *302:17 *513:49 7.69776e-06
78 *302:19 *440:51 0.000646005
79 *302:19 *511:53 0.000245832
80 *302:23 *6877:D 0.00109334
81 *302:23 *440:36 9.21719e-05
82 *302:23 *440:51 0.000502796
83 *302:25 *6877:D 4.02296e-05
84 *302:31 *7001:A 7.09928e-05
85 *302:33 *7001:A 8.90877e-05
86 *302:38 *7001:A 2.41598e-05
87 *302:40 *7001:A 5.33334e-05
88 *302:40 *7015:A 0.000175885
89 *302:56 *6834:RESET_B 4.8063e-05
90 *302:56 *7037:A 0.000222199
91 *302:58 *313:20 6.06291e-06
92 *302:78 *6830:CLK 8.52995e-05
93 *302:78 *6834:RESET_B 0
94 *302:78 *6950:A 6.76645e-05
95 *302:78 *313:20 7.98704e-05
96 *302:97 *6565:B 5.56943e-05
97 *302:97 *314:44 0
98 *302:99 *6565:B 3.17163e-05
99 *302:105 *6841:RESET_B 4.19239e-05
100 *302:105 *513:59 2.94775e-05
101 *302:119 *7020:A 7.77751e-05
102 *302:123 *7020:A 0.000100625
103 *302:130 *7020:A 9.7659e-05
104 *302:135 *7020:A 9.76689e-05
105 *302:173 *335:16 0
106 *302:173 *411:147 1.53773e-05
107 *302:173 *507:38 0.000115536
108 *302:173 *508:78 0.000303709
109 *302:173 *509:14 0.00160345
110 *302:181 *6718:B2 0.000276559
111 *302:181 *6738:B2 5.44215e-05
112 *302:181 *6757:A 8.07313e-05
113 *302:181 *303:70 0
114 *302:181 *396:57 2.15245e-05
115 *302:181 *1084:22 3.42164e-05
116 *302:181 *1084:28 0.000518089
117 *302:191 *6568:B 4.58194e-05
118 *302:191 *6738:B2 0.000203668
119 *302:191 *6870:RESET_B 0
120 *302:191 *303:64 0.0002214
121 *302:191 *395:81 0.000118938
122 *302:191 *505:81 0.000167321
123 *302:199 *6768:RESET_B 0
124 *302:199 *504:24 3.06513e-05
125 *302:199 *514:12 4.22135e-06
126 *302:199 *514:20 5.49035e-05
127 *302:219 *6569:A 1.57046e-05
128 *302:219 *6742:B2 0.000101601
129 *302:219 *307:6 7.90651e-05
130 *302:219 *395:81 0.000186286
131 *302:219 *395:96 0
132 *302:219 *395:124 0
133 *302:219 *505:81 0.000354912
134 *302:223 *307:6 6.92004e-05
135 *302:230 *307:6 8.28058e-05
136 *302:239 *6574:A 0
137 *302:239 *6578:A 7.22823e-05
138 *302:239 *6592:A 1.17968e-05
139 *302:239 *6748:B1 0
140 *302:239 *6981:A 6.65398e-05
141 *302:239 *307:6 0.000109556
142 *302:239 *309:29 5.39348e-05
143 *302:239 *501:26 7.92446e-05
144 *302:239 *503:20 0.00016236
145 *302:239 *505:26 0
146 *302:253 *6578:A 4.1331e-06
147 *302:253 *6596:A2 5.95996e-05
148 *302:253 *6706:C 9.01334e-05
149 *302:253 *6748:B1 0
150 *302:253 *6748:B2 0
151 *302:253 *6836:RESET_B 4.69134e-05
152 *302:253 *401:107 3.88323e-05
153 *302:253 *439:43 0
154 *302:253 *505:45 0
155 *302:253 *521:12 4.57445e-05
156 *302:272 *6964:A 0
157 *302:272 *381:73 0.000146748
158 *302:276 *381:73 4.32258e-06
159 *302:299 *6646:A1 0.000116033
160 *302:299 *6646:A2 6.444e-05
161 *302:299 *6873:D 1.56604e-06
162 *302:299 *6873:RESET_B 8.63533e-05
163 *302:299 *7040:A 3.83258e-05
164 *302:299 *317:10 3.08308e-05
165 *302:299 *318:8 3.82079e-05
166 *302:299 *1082:14 7.48091e-05
167 *302:299 *1083:6 2.72695e-05
168 *302:303 *7040:A 8.76983e-05
169 *302:314 *6796:RESET_B 0
170 *302:314 *6939:A 0.000131409
171 *302:314 *317:8 6.05161e-06
172 *302:314 *318:8 0
173 *302:314 *318:71 0
174 *302:369 *308:14 3.67257e-05
175 *302:369 *308:62 6.15188e-05
176 uo_out[1] *302:23 0.00012071
177 uo_out[3] *302:56 0.00012632
178 uo_out[6] *302:23 0.00105872
179 *6589:A1 *302:191 9.52948e-05
180 *6589:A2 *302:191 1.79846e-05
181 *6589:B2 *302:191 2.59355e-05
182 *6590:A1 *302:191 1.01912e-05
183 *6590:A2 *302:191 3.466e-06
184 *6590:B1 *302:191 0.000205042
185 *6596:C1 *302:253 4.54968e-05
186 *6708:A1 *302:259 4.4802e-05
187 *6708:A1 *302:272 4.46616e-05
188 *6708:B1 *302:253 2.9213e-05
189 *6708:B1 *302:257 5.08301e-05
190 *6708:B1 *302:259 1.21258e-05
191 *6708:B1 *302:272 1.39841e-05
192 *6793:D *302:314 8.53294e-05
193 *6836:D *302:272 4.02462e-05
194 *6843:D *302:17 0
195 *6867:D *302:239 0
196 *6869:D *302:219 1.43476e-05
197 *6914:A *302:17 7.60092e-05
198 *7028:A *302:97 0
199 *7029:A *302:99 0
200 *7030:A *302:97 0
201 *7031:A *302:99 0
202 *3:16 *302:19 0.000336788
203 *40:16 *6895:A 8.19661e-06
204 *40:16 *302:99 0
205 *40:16 *302:105 0
206 *40:16 *302:135 8.48967e-06
207 *155:14 *302:19 0.000983212
208 *155:51 *302:191 0.000114211
209 *187:37 *302:239 0
210 *199:33 *302:272 0
211 *222:12 *302:299 3.14048e-05
212 *256:12 *302:272 5.43491e-05
213 *290:15 *302:173 0.000815635
*RES
1 *6894:X *302:6 10.6705 
2 *302:6 *302:17 24.6295 
3 *302:17 *302:19 46.125 
4 *302:19 *302:23 48.9821 
5 *302:23 *302:25 4.07143 
6 *302:25 *302:31 5.85714 
7 *302:31 *302:33 1.73661 
8 *302:33 *302:38 0.566964 
9 *302:38 *302:40 5.46429 
10 *302:40 *6906:A 11.0679 
11 *302:38 *302:56 13.9821 
12 *302:56 *302:58 0.330357 
13 *302:58 *6905:A 10.4518 
14 *302:56 *302:78 12.8571 
15 *302:78 *6907:A 13.8 
16 *302:31 *6908:A 9.3 
17 *302:19 *302:97 8.57143 
18 *302:97 *302:99 3.46429 
19 *302:99 *302:105 6.76339 
20 *302:105 *6904:A 10.983 
21 *302:99 *302:119 5.85714 
22 *302:119 *302:123 1.76786 
23 *302:123 *6902:A 9.3 
24 *302:123 *302:130 1.76786 
25 *302:130 *302:135 1.97321 
26 *302:135 *6895:A 10.8625 
27 *302:97 *6903:A 13.8 
28 *6894:X *302:158 13.8 
29 *302:158 *302:173 48.375 
30 *302:173 *302:181 28.6071 
31 *302:181 *302:191 35.9219 
32 *302:191 *302:199 10.4457 
33 *302:199 *6898:A 10.8625 
34 *302:191 *302:219 11.4755 
35 *302:219 *302:223 1.5625 
36 *302:223 *6899:A 9.3 
37 *302:223 *302:230 1.52232 
38 *302:230 *302:239 21.7991 
39 *302:239 *302:253 25.2669 
40 *302:253 *302:257 1.48661 
41 *302:257 *302:259 1.41518 
42 *302:259 *302:272 19.5134 
43 *302:272 *302:276 1.73214 
44 *302:276 *302:278 1.5625 
45 *302:278 *302:299 33.7962 
46 *302:299 *302:303 1.51339 
47 *302:303 *302:305 4.5 
48 *302:305 *302:314 11.2589 
49 *302:314 *6909:A 11.5946 
50 *302:303 *6910:A 9.3 
51 *302:276 *6896:A 10.0321 
52 *302:257 *6897:A 9.3 
53 *302:239 *302:347 5.38839 
54 *302:347 *302:351 1.41518 
55 *302:351 *6900:A 9.3 
56 *302:351 *302:360 1.91518 
57 *302:360 *302:369 4.04018 
58 *302:369 *6901:A 9.63036 
*END

*D_NET *303 0.018909
*CONN
*I *6861:CLK I *D sky130_fd_sc_hd__dfrtp_2
*I *6776:CLK I *D sky130_fd_sc_hd__dfrtp_2
*I *6775:CLK I *D sky130_fd_sc_hd__dfrtp_2
*I *6777:CLK I *D sky130_fd_sc_hd__dfrtp_2
*I *6864:CLK I *D sky130_fd_sc_hd__dfrtp_2
*I *6812:CLK I *D sky130_fd_sc_hd__dfrtp_2
*I *6847:CLK I *D sky130_fd_sc_hd__dfrtp_2
*I *6895:X O *D sky130_fd_sc_hd__clkbuf_8
*CAP
1 *6861:CLK 0.000141185
2 *6776:CLK 0
3 *6775:CLK 0.000486113
4 *6777:CLK 0
5 *6864:CLK 0.000107557
6 *6812:CLK 0
7 *6847:CLK 0
8 *6895:X 0.00100947
9 *303:70 0.000846958
10 *303:64 0.0011477
11 *303:51 0.00143409
12 *303:38 0.00133868
13 *303:23 0.00102555
14 *303:10 0.00159232
15 *6775:CLK *6510:A 0
16 *6775:CLK *6759:A 0.000227322
17 *6775:CLK *6776:RESET_B 0
18 *6775:CLK *475:54 0.000242771
19 *6775:CLK *543:31 0
20 *6775:CLK *1084:22 0.000349482
21 *6864:CLK *6720:B2 0.000165491
22 *303:10 *6563:A_N 5.33005e-05
23 *303:10 *6563:B 0.00017973
24 *303:10 *6637:A0 2.95726e-05
25 *303:10 *6852:RESET_B 0.000183324
26 *303:10 *6855:RESET_B 0.000344519
27 *303:10 *322:10 9.31011e-05
28 *303:23 *6637:A0 0.000252451
29 *303:23 *6851:RESET_B 0
30 *303:23 *332:10 0.000170955
31 *303:23 *337:22 0
32 *303:23 *423:71 0
33 *303:23 *505:81 0.000152034
34 *303:38 *6728:A1 0.000219828
35 *303:38 *6812:RESET_B 0.00016135
36 *303:38 *6992:A 0.000298446
37 *303:51 *6741:A1 0.000168357
38 *303:51 *6741:A2 0.000196889
39 *303:51 *6741:B1 3.01045e-05
40 *303:51 *6856:CLK 5.20669e-05
41 *303:51 *6992:A 0.00038945
42 *303:51 *396:57 0.000502459
43 *303:51 *396:59 0.000113073
44 *303:51 *396:65 0.000161077
45 *303:51 *402:20 9.58126e-05
46 *303:51 *508:78 0.000201473
47 *303:64 *6738:B2 0.000172536
48 *303:64 *6777:D 0.000275498
49 *303:64 *7011:A 6.87574e-05
50 *303:64 *396:57 0.000576509
51 *303:64 *544:6 0.000304246
52 *303:70 *6738:A2 0
53 *303:70 *6738:B2 0
54 *303:70 *6758:A 0.000122081
55 *6561:B *6864:CLK 1.49682e-05
56 *6636:S *303:10 8.55373e-05
57 *6789:D *303:64 9.31209e-05
58 *6790:CLK *6775:CLK 0.000196699
59 *6790:D *6775:CLK 0
60 *6852:D *303:10 0.000146321
61 *6861:D *6861:CLK 5.70897e-05
62 *6861:D *303:70 3.55569e-05
63 *6864:D *6864:CLK 0
64 *6864:D *303:51 1.4862e-05
65 *6913:A *303:38 3.45371e-05
66 *6914:A *303:38 0.000166942
67 *3:16 *303:23 0
68 *40:16 *303:10 5.12625e-05
69 *155:12 *303:10 3.18676e-05
70 *155:51 *303:64 0.000254013
71 *186:54 *303:70 0.000225609
72 *265:12 *303:38 0.000239655
73 *265:12 *303:51 0.000958663
74 *266:14 *303:51 0.00039716
75 *302:181 *303:70 0
76 *302:191 *303:64 0.0002214
*RES
1 *6895:X *303:10 30.925 
2 *303:10 *6847:CLK 9.3 
3 *303:10 *303:23 20.6786 
4 *303:23 *6812:CLK 9.3 
5 *303:23 *303:38 12.9286 
6 *303:38 *6864:CLK 20.55 
7 *303:38 *303:51 26.8214 
8 *303:51 *6777:CLK 9.3 
9 *303:51 *303:64 25.3036 
10 *303:64 *303:70 11.3571 
11 *303:70 *6775:CLK 31.8893 
12 *303:70 *6776:CLK 9.3 
13 *303:64 *6861:CLK 16.3536 
*END

*D_NET *304 0.0111334
*CONN
*I *6817:CLK I *D sky130_fd_sc_hd__dfrtp_2
*I *6819:CLK I *D sky130_fd_sc_hd__dfrtp_2
*I *6825:CLK I *D sky130_fd_sc_hd__dfrtp_2
*I *6824:CLK I *D sky130_fd_sc_hd__dfrtp_2
*I *6821:CLK I *D sky130_fd_sc_hd__dfrtp_2
*I *6822:CLK I *D sky130_fd_sc_hd__dfrtp_2
*I *6823:CLK I *D sky130_fd_sc_hd__dfrtp_2
*I *6896:X O *D sky130_fd_sc_hd__clkbuf_8
*CAP
1 *6817:CLK 0.000241069
2 *6819:CLK 9.6059e-05
3 *6825:CLK 8.57896e-05
4 *6824:CLK 0
5 *6821:CLK 0.00021305
6 *6822:CLK 0
7 *6823:CLK 2.23854e-05
8 *6896:X 0.000506646
9 *304:41 0.00154614
10 *304:26 0.00232323
11 *304:20 0.00143166
12 *304:14 0.000722526
13 *304:10 0.000547457
14 *304:8 0.00102628
15 *6819:CLK *6605:C 0.000122101
16 *6821:CLK *6670:B2 0
17 *6821:CLK *6979:A 0
18 *6821:CLK *397:44 0.000309773
19 *6821:CLK *1098:29 0
20 *6825:CLK *6825:RESET_B 9.3111e-05
21 *304:8 *381:73 0
22 *304:8 *398:14 0
23 *304:8 *398:104 0
24 *304:8 *398:125 0
25 *304:8 *1091:10 4.06782e-05
26 *304:10 *6606:A 0
27 *304:10 *6606:B 8.32497e-05
28 *304:10 *398:14 0
29 *304:10 *1091:10 1.19309e-05
30 *304:14 *6606:A 0
31 *304:14 *6685:B1 0
32 *304:14 *398:14 0
33 *304:20 *6685:A1 0
34 *304:20 *6685:B1 0
35 *304:20 *398:14 0
36 *304:26 *6679:B2 0.000276211
37 *304:26 *7257:A 2.80853e-05
38 *304:26 *7258:A 9.57215e-05
39 *304:26 *7259:A 0.000139534
40 *304:26 *7260:A 6.04239e-05
41 *304:26 *7267:A 2.80853e-05
42 *304:26 *7268:A 7.40303e-06
43 *304:26 *7281:A 5.52238e-05
44 *304:26 *1086:77 0.000227322
45 *304:41 *6675:B1 0.00025263
46 *304:41 *6822:RESET_B 0
47 *304:41 *6823:RESET_B 0.000177046
48 *304:41 *397:44 0.000172368
49 *6670:A3 *6821:CLK 0
50 *6682:A_N *6825:CLK 1.12323e-05
51 *6682:A_N *304:14 3.57844e-05
52 *6682:A_N *304:20 7.44909e-05
53 *6691:D *304:14 3.69697e-05
54 *6825:D *6825:CLK 3.17211e-05
55 *205:32 *304:20 0
56 *207:10 *304:20 0
57 *207:10 *304:26 0
58 *224:12 *304:8 0
*RES
1 *6896:X *304:8 23.0321 
2 *304:8 *304:10 4.98214 
3 *304:10 *304:14 3.54464 
4 *304:14 *304:20 7.91964 
5 *304:20 *304:26 23 
6 *304:26 *6823:CLK 9.72857 
7 *304:26 *304:41 23.7679 
8 *304:41 *6822:CLK 13.8 
9 *304:41 *6821:CLK 18.4786 
10 *304:20 *6824:CLK 13.8 
11 *304:14 *6825:CLK 15.8446 
12 *304:10 *6819:CLK 15.9786 
13 *304:8 *6817:CLK 17.6214 
*END

*D_NET *305 0.0105915
*CONN
*I *6814:CLK I *D sky130_fd_sc_hd__dfrtp_2
*I *6820:CLK I *D sky130_fd_sc_hd__dfrtp_2
*I *6815:CLK I *D sky130_fd_sc_hd__dfrtp_2
*I *6837:CLK I *D sky130_fd_sc_hd__dfrtp_2
*I *6835:CLK I *D sky130_fd_sc_hd__dfrtp_2
*I *6816:CLK I *D sky130_fd_sc_hd__dfrtp_2
*I *6818:CLK I *D sky130_fd_sc_hd__dfrtp_2
*I *6897:X O *D sky130_fd_sc_hd__clkbuf_8
*CAP
1 *6814:CLK 0
2 *6820:CLK 0.000208786
3 *6815:CLK 0
4 *6837:CLK 0
5 *6835:CLK 0.000864003
6 *6816:CLK 0
7 *6818:CLK 0.000425547
8 *6897:X 0.000212812
9 *305:83 0.000765934
10 *305:68 0.00093784
11 *305:59 0.000746435
12 *305:18 0.000500104
13 *305:16 0.00110422
14 *305:12 0.000744217
15 *6818:CLK *6654:A1 0.00021528
16 *6818:CLK *398:129 3.51442e-05
17 *6820:CLK *6647:A0 0.000202128
18 *6820:CLK *6647:A1 6.5185e-05
19 *6820:CLK *6665:B1 3.17067e-05
20 *6820:CLK *6814:RESET_B 0
21 *6820:CLK *435:73 0
22 *6820:CLK *1085:16 0
23 *6820:CLK *1092:12 0
24 *6820:CLK *1092:18 0
25 *6835:CLK *6504:A 5.5518e-05
26 *6835:CLK *6835:RESET_B 3.97657e-05
27 *6835:CLK *6919:A 5.33005e-05
28 *305:12 *6644:B 1.43864e-05
29 *305:12 *6706:C 0.000110318
30 *305:16 *6644:B 8.21307e-05
31 *305:16 *6706:C 0
32 *305:16 *398:129 1.08359e-05
33 *305:18 *398:129 0.000115474
34 *305:59 *6709:A 5.09894e-05
35 *305:68 *6709:A 0.000398345
36 *305:68 *6815:RESET_B 8.90314e-05
37 *305:68 *6837:RESET_B 5.95575e-05
38 *305:83 *6607:A 0.00010096
39 *305:83 *6649:B1 4.46186e-06
40 *305:83 *6649:B2 0.00040279
41 *305:83 *6815:RESET_B 0.000160582
42 *305:83 *1085:8 4.8843e-05
43 *305:83 *1092:10 4.38511e-05
44 *305:83 *1092:12 7.26935e-05
45 *6649:A1 *305:83 0.000113083
46 *6653:B *6818:CLK 0
47 *6654:A2 *6818:CLK 0.000197984
48 *6654:B1 *6818:CLK 0.000141985
49 *6706:A_N *305:59 0.000270415
50 *6707:A2 *305:16 0
51 *6708:B1 *305:12 0.00013478
52 *6814:D *6820:CLK 3.47737e-05
53 *6815:D *305:83 0
54 *6816:D *6818:CLK 0
55 *6817:D *6818:CLK 3.34366e-05
56 *6835:D *6835:CLK 0.000467103
57 *6837:D *305:59 0.00010096
58 *6837:D *305:68 7.32955e-05
59 *144:10 *305:12 0
60 *193:18 *6818:CLK 5.04705e-05
61 *197:21 *6818:CLK 0
62 *199:33 *6818:CLK 0
*RES
1 *6897:X *305:12 18.4875 
2 *305:12 *305:16 2.9375 
3 *305:16 *305:18 1.64286 
4 *305:18 *6818:CLK 23.8357 
5 *305:18 *6816:CLK 13.8 
6 *305:16 *6835:CLK 26.1571 
7 *305:12 *305:59 10.8125 
8 *305:59 *6837:CLK 9.3 
9 *305:59 *305:68 10.4107 
10 *305:68 *6815:CLK 9.3 
11 *305:68 *305:83 22.8571 
12 *305:83 *6820:CLK 23.2821 
13 *305:83 *6814:CLK 9.3 
*END

*D_NET *306 0.0116104
*CONN
*I *6870:CLK I *D sky130_fd_sc_hd__dfrtp_2
*I *6863:CLK I *D sky130_fd_sc_hd__dfrtp_2
*I *6801:CLK I *D sky130_fd_sc_hd__dfrtp_2
*I *6800:CLK I *D sky130_fd_sc_hd__dfrtp_2
*I *6799:CLK I *D sky130_fd_sc_hd__dfrtp_2
*I *6857:CLK I *D sky130_fd_sc_hd__dfrtp_2
*I *6859:CLK I *D sky130_fd_sc_hd__dfrtp_2
*I *6898:X O *D sky130_fd_sc_hd__clkbuf_8
*CAP
1 *6870:CLK 0
2 *6863:CLK 0.000473072
3 *6801:CLK 0.00048674
4 *6800:CLK 0
5 *6799:CLK 0.000990168
6 *6857:CLK 0.000188937
7 *6859:CLK 0.000134687
8 *6898:X 0.000102148
9 *306:37 0.00136568
10 *306:33 0.000313859
11 *306:27 0.000698651
12 *306:25 0.000707
13 *306:21 0.000617645
14 *306:8 0.00070518
15 *6799:CLK *6774:RESET_B 0.000221906
16 *6799:CLK *522:10 0.000167293
17 *6801:CLK *6582:B 0.00023139
18 *6801:CLK *543:16 1.24368e-05
19 *6857:CLK *522:10 2.89114e-05
20 *6859:CLK *6569:B 5.66157e-05
21 *6859:CLK *395:100 0
22 *6859:CLK *401:52 9.69119e-06
23 *6859:CLK *401:54 4.95618e-05
24 *6859:CLK *401:56 2.8266e-06
25 *6859:CLK *508:48 1.76039e-05
26 *6863:CLK *6587:B 1.21892e-05
27 *6863:CLK *401:16 0
28 *6863:CLK *522:23 6.82892e-05
29 *6863:CLK *528:18 3.47641e-06
30 *6863:CLK *528:26 3.69047e-06
31 *306:8 *6569:B 0.000170661
32 *306:8 *6742:A2 0
33 *306:8 *401:52 3.4323e-06
34 *306:21 *6569:B 0.000104042
35 *306:21 *6736:B2 3.63775e-05
36 *306:21 *6737:A2 3.046e-05
37 *306:21 *6975:A 5.21937e-05
38 *306:21 *395:18 3.36219e-05
39 *306:21 *396:130 0.000711618
40 *306:21 *430:52 0.000118373
41 *306:21 *520:6 8.37335e-05
42 *306:25 *6740:B1 2.59355e-05
43 *306:25 *6747:A2 3.04242e-05
44 *306:25 *395:18 7.87416e-05
45 *306:25 *395:20 0.000214724
46 *306:25 *508:78 0.000101601
47 *306:27 *6734:B1 9.80405e-05
48 *306:27 *522:23 6.31898e-05
49 *306:33 *6734:B1 0.0002177
50 *306:33 *522:23 0.000150395
51 *306:37 *6734:B1 0.000272716
52 *306:37 *522:10 0.000154762
53 *306:37 *522:23 0.000384755
54 *6589:B1 *6863:CLK 0
55 *6590:D1 *6863:CLK 0
56 *6860:D *306:8 0
57 *6863:D *6863:CLK 5.52302e-05
58 *6870:D *306:21 6.61006e-05
59 *6870:D *306:25 2.36643e-05
60 *7587:A *6859:CLK 0
61 *179:22 *6863:CLK 0
62 *186:54 *306:25 0.000658221
*RES
1 *6898:X *306:8 16.05 
2 *306:8 *6859:CLK 16.3536 
3 *306:8 *306:21 16.5357 
4 *306:21 *306:25 11.1964 
5 *306:25 *306:27 1.94643 
6 *306:27 *306:33 3.82143 
7 *306:33 *306:37 11.3036 
8 *306:37 *6857:CLK 12.3357 
9 *306:37 *6799:CLK 21.6571 
10 *306:33 *6800:CLK 13.8 
11 *306:27 *6801:CLK 20.6571 
12 *306:25 *6863:CLK 21.4429 
13 *306:21 *6870:CLK 9.3 
*END

*D_NET *307 0.0112057
*CONN
*I *6783:CLK I *D sky130_fd_sc_hd__dfrtp_2
*I *6810:CLK I *D sky130_fd_sc_hd__dfrtp_2
*I *6807:CLK I *D sky130_fd_sc_hd__dfrtp_2
*I *6782:CLK I *D sky130_fd_sc_hd__dfrtp_2
*I *6869:CLK I *D sky130_fd_sc_hd__dfrtp_2
*I *6860:CLK I *D sky130_fd_sc_hd__dfrtp_2
*I *6865:CLK I *D sky130_fd_sc_hd__dfrtp_2
*I *6899:X O *D sky130_fd_sc_hd__clkbuf_8
*CAP
1 *6783:CLK 0
2 *6810:CLK 0.000405025
3 *6807:CLK 3.82418e-05
4 *6782:CLK 0.000389247
5 *6869:CLK 5.60487e-05
6 *6860:CLK 0
7 *6865:CLK 0.000277334
8 *6899:X 0
9 *307:71 0.00137349
10 *307:58 0.0010814
11 *307:34 0.000644541
12 *307:28 0.000591203
13 *307:6 0.000729112
14 *307:4 0.000769049
15 *6782:CLK *6516:A 1.33343e-05
16 *6782:CLK *6752:A 0.000105649
17 *6782:CLK *6782:D 7.17235e-05
18 *6782:CLK *6782:RESET_B 0
19 *6782:CLK *7006:A 0
20 *6782:CLK *402:118 5.38293e-05
21 *6782:CLK *438:65 0
22 *6782:CLK *534:10 0
23 *6810:CLK *6518:A 0.000112418
24 *6810:CLK *6809:CLK 0
25 *6810:CLK *6810:RESET_B 0.000203375
26 *6810:CLK *436:10 5.71472e-05
27 *6810:CLK *438:20 3.70882e-05
28 *6810:CLK *438:26 2.19684e-05
29 *6810:CLK *438:45 0.000140481
30 *6810:CLK *502:12 4.19577e-05
31 *6810:CLK *504:12 0.000429057
32 *6810:CLK *535:10 0.000125724
33 *6865:CLK *6737:B2 2.89114e-05
34 *6865:CLK *6742:A1 3.82411e-05
35 *6865:CLK *6742:A2 0.000268902
36 *6865:CLK *6742:B1 2.59355e-05
37 *6865:CLK *6742:B2 1.02936e-05
38 *6865:CLK *6768:RESET_B 0.000175038
39 *6865:CLK *6870:RESET_B 9.15186e-06
40 *6869:CLK *501:65 7.77652e-05
41 *307:6 *6737:B2 0.000670399
42 *307:6 *6742:A2 4.58976e-05
43 *307:6 *6742:B2 0.000198615
44 *307:6 *503:20 0.000183344
45 *307:6 *525:8 9.90367e-05
46 *307:28 *402:118 0
47 *307:28 *438:65 0
48 *307:28 *439:25 0
49 *307:28 *439:43 0
50 *307:28 *502:45 0
51 *307:28 *519:10 0
52 *307:34 *501:65 0.000285619
53 *307:34 *519:10 8.55687e-05
54 *307:58 *438:65 0
55 *307:71 *6517:A 0.000276211
56 *307:71 *6783:D 1.98839e-05
57 *307:71 *6807:D 3.72932e-05
58 *307:71 *6807:RESET_B 4.48754e-05
59 *307:71 *535:14 9.02232e-05
60 *6593:B *307:28 8.27839e-05
61 *6766:CLK *6810:CLK 0.000128146
62 *6766:CLK *307:71 9.3111e-05
63 *6766:D *6810:CLK 2.06507e-05
64 *6767:CLK *307:28 1.19402e-05
65 *6767:CLK *307:58 3.25247e-05
66 *6865:D *6865:CLK 5.62995e-05
67 *302:219 *307:6 7.90651e-05
68 *302:223 *307:6 6.92004e-05
69 *302:230 *307:6 8.28058e-05
70 *302:239 *307:6 0.000109556
*RES
1 *6899:X *307:4 9.3 
2 *307:4 *307:6 15.3214 
3 *307:6 *6865:CLK 25.1929 
4 *307:6 *6860:CLK 9.3 
5 *307:4 *307:28 9.78571 
6 *307:28 *307:34 9.98214 
7 *307:34 *6869:CLK 10.6571 
8 *307:34 *6782:CLK 26.2821 
9 *307:28 *307:58 5.83929 
10 *307:58 *6807:CLK 10.0321 
11 *307:58 *307:71 15.3571 
12 *307:71 *6810:CLK 31.4607 
13 *307:71 *6783:CLK 9.3 
*END

*D_NET *308 0.0106421
*CONN
*I *6839:CLK I *D sky130_fd_sc_hd__dfrtp_2
*I *6838:CLK I *D sky130_fd_sc_hd__dfrtp_2
*I *6786:CLK I *D sky130_fd_sc_hd__dfrtp_2
*I *6871:CLK I *D sky130_fd_sc_hd__dfrtp_2
*I *6858:CLK I *D sky130_fd_sc_hd__dfrtp_2
*I *6836:CLK I *D sky130_fd_sc_hd__dfrtp_2
*I *6874:CLK I *D sky130_fd_sc_hd__dfrtp_2
*I *6900:X O *D sky130_fd_sc_hd__clkbuf_8
*CAP
1 *6839:CLK 5.38277e-05
2 *6838:CLK 0.000196603
3 *6786:CLK 0
4 *6871:CLK 0
5 *6858:CLK 0
6 *6836:CLK 0.000346768
7 *6874:CLK 0.00082449
8 *6900:X 2.23854e-05
9 *308:73 0.000550655
10 *308:62 0.000880491
11 *308:35 0.000422311
12 *308:18 0.00200922
13 *308:14 0.00126863
14 *308:6 0.000762093
15 *6836:CLK *6701:B 0.00027214
16 *6836:CLK *6708:B2 0
17 *6836:CLK *6858:RESET_B 0
18 *6836:CLK *395:100 0.000199698
19 *6836:CLK *507:10 1.41029e-05
20 *6839:CLK *6520:A 5.52302e-05
21 *6874:CLK *6571:B 0.000114577
22 *6874:CLK *6874:RESET_B 6.25978e-05
23 *6874:CLK *1084:8 8.60345e-05
24 *308:14 *6748:A2 4.25809e-05
25 *308:14 *6749:A 0
26 *308:18 *6571:A 0.000318101
27 *308:18 *6571:B 0.000264974
28 *308:18 *6748:A1 0.00044852
29 *308:18 *6748:A2 1.80583e-05
30 *308:18 *505:45 4.88637e-05
31 *308:18 *521:6 5.64788e-05
32 *308:35 *6858:RESET_B 0
33 *308:35 *395:100 0.000142797
34 *308:73 *6520:A 0.000343217
35 *308:73 *6786:D 6.05161e-06
36 *308:73 *309:8 0
37 *308:73 *538:10 4.73656e-05
38 *6594:A2 *308:18 1.74352e-05
39 *6713:B1 *6838:CLK 1.41706e-05
40 *6714:B1 *6838:CLK 6.17227e-05
41 *6764:D *308:73 0
42 *6839:D *6838:CLK 0.000199706
43 *6839:D *6839:CLK 9.90431e-05
44 *6858:D *6836:CLK 6.63569e-05
45 *6871:D *308:18 0.000136697
46 *6901:A *308:62 1.22159e-05
47 *256:12 *6836:CLK 5.76121e-05
48 *302:369 *308:14 3.67257e-05
49 *302:369 *308:62 6.15188e-05
*RES
1 *6900:X *308:6 9.72857 
2 *308:6 *308:14 11.5893 
3 *308:14 *308:18 21.3929 
4 *308:18 *6874:CLK 20.9786 
5 *308:18 *308:35 6.44643 
6 *308:35 *6836:CLK 21.7821 
7 *308:35 *6858:CLK 13.8 
8 *308:14 *6871:CLK 9.3 
9 *308:6 *308:62 7.32143 
10 *308:62 *6786:CLK 9.3 
11 *308:62 *308:73 11.1429 
12 *308:73 *6838:CLK 18.4786 
13 *308:73 *6839:CLK 15.1571 
*END

*D_NET *309 0.00999852
*CONN
*I *6811:CLK I *D sky130_fd_sc_hd__dfrtp_2
*I *6785:CLK I *D sky130_fd_sc_hd__dfrtp_2
*I *6808:CLK I *D sky130_fd_sc_hd__dfrtp_2
*I *6784:CLK I *D sky130_fd_sc_hd__dfrtp_2
*I *6809:CLK I *D sky130_fd_sc_hd__dfrtp_2
*I *6868:CLK I *D sky130_fd_sc_hd__dfrtp_2
*I *6867:CLK I *D sky130_fd_sc_hd__dfrtp_2
*I *6901:X O *D sky130_fd_sc_hd__clkbuf_8
*CAP
1 *6811:CLK 0.000192188
2 *6785:CLK 0.000102501
3 *6808:CLK 0.000561343
4 *6784:CLK 0
5 *6809:CLK 0.000532678
6 *6868:CLK 0
7 *6867:CLK 5.57908e-05
8 *6901:X 0.000131156
9 *309:69 0.00041072
10 *309:38 0.000816455
11 *309:31 0.000283778
12 *309:29 0.000804303
13 *309:16 0.00102176
14 *309:8 0.000970199
15 *6785:CLK *6749:A 7.48091e-05
16 *6785:CLK *505:24 0.000170955
17 *6808:CLK *6592:A 0.000162832
18 *6808:CLK *464:24 1.92789e-05
19 *6808:CLK *501:8 3.48235e-05
20 *6808:CLK *501:14 0.000345808
21 *6809:CLK *6518:A 6.41079e-05
22 *6809:CLK *6783:RESET_B 0
23 *6809:CLK *6808:RESET_B 0
24 *6809:CLK *6809:D 0
25 *6809:CLK *404:95 0
26 *6809:CLK *436:10 0
27 *6809:CLK *502:12 0
28 *6809:CLK *535:10 0
29 *6811:CLK *6785:RESET_B 2.51837e-05
30 *6811:CLK *437:53 8.12171e-05
31 *6811:CLK *505:24 0.00047092
32 *6867:CLK *6573:A 0
33 *6867:CLK *6578:B 0
34 *6867:CLK *517:16 9.90367e-05
35 *309:8 *6749:A 0
36 *309:8 *6764:RESET_B 0
37 *309:8 *538:10 0
38 *309:16 *6867:RESET_B 4.85567e-05
39 *309:16 *517:10 0.000177434
40 *309:16 *517:16 0.000180777
41 *309:29 *6592:A 8.32242e-05
42 *309:29 *6745:B1 0
43 *309:29 *6748:B1 6.8646e-06
44 *309:29 *6981:A 0.00012401
45 *309:29 *501:14 0.000164554
46 *309:29 *501:26 0.000266406
47 *309:38 *503:20 0.000551534
48 *309:38 *518:8 0.000276726
49 *309:38 *536:28 0.000142856
50 *309:69 *6749:A 0
51 *309:69 *6764:RESET_B 0
52 *309:69 *537:12 0
53 *6764:D *309:8 0.000179656
54 *6765:CLK *309:38 7.03393e-05
55 *6766:CLK *6809:CLK 0
56 *6766:D *6809:CLK 5.01213e-05
57 *6810:CLK *6809:CLK 0
58 *6867:D *309:29 0.000189685
59 *187:37 *6808:CLK 0
60 *302:239 *309:29 5.39348e-05
61 *308:73 *309:8 0
*RES
1 *6901:X *309:8 16.9607 
2 *309:8 *309:16 14.625 
3 *309:16 *6867:CLK 10.675 
4 *309:16 *309:29 11.6071 
5 *309:29 *309:31 4.5 
6 *309:31 *6868:CLK 9.3 
7 *309:31 *309:38 9.98214 
8 *309:38 *6809:CLK 27.8357 
9 *309:38 *6784:CLK 9.3 
10 *309:29 *6808:CLK 25.4071 
11 *309:8 *309:69 6.44643 
12 *309:69 *6785:CLK 12.3 
13 *309:69 *6811:CLK 15.175 
*END

*D_NET *310 0.0077179
*CONN
*I *6850:CLK I *D sky130_fd_sc_hd__dfrtp_2
*I *6882:CLK I *D sky130_fd_sc_hd__dfrtp_2
*I *6842:CLK I *D sky130_fd_sc_hd__dfrtp_2
*I *6852:CLK I *D sky130_fd_sc_hd__dfrtp_2
*I *6855:CLK I *D sky130_fd_sc_hd__dfrtp_2
*I *6844:CLK I *D sky130_fd_sc_hd__dfrtp_2
*I *6889:CLK I *D sky130_fd_sc_hd__dfrtp_2
*I *6902:X O *D sky130_fd_sc_hd__clkbuf_8
*CAP
1 *6850:CLK 0.000172988
2 *6882:CLK 0.000132205
3 *6842:CLK 0.000595076
4 *6852:CLK 0.000163492
5 *6855:CLK 0.000279467
6 *6844:CLK 0
7 *6889:CLK 0
8 *6902:X 7.11735e-05
9 *310:63 0.000478403
10 *310:32 0.000613365
11 *310:21 0.000524686
12 *310:14 0.000445498
13 *310:10 0.000905796
14 *310:8 0.000463886
15 *6842:CLK *422:85 1.25672e-06
16 *6842:CLK *513:59 4.42441e-05
17 *6850:CLK *6565:A 5.93614e-05
18 *6850:CLK *7020:A 0
19 *6852:CLK *6563:A_N 0
20 *6852:CLK *6727:A2 1.36251e-05
21 *6855:CLK *6727:A2 0.000514153
22 *6855:CLK *6729:A2 3.02036e-05
23 *6855:CLK *6729:B1 8.86084e-05
24 *6855:CLK *6729:B2 5.52238e-05
25 *6855:CLK *370:46 7.77751e-05
26 *6855:CLK *513:59 0.000255989
27 *6882:CLK *6565:A 9.83388e-05
28 *6882:CLK *6882:D 7.8195e-05
29 *6882:CLK *311:10 2.95542e-05
30 *310:10 *6719:A1 2.38651e-06
31 *310:10 *6875:RESET_B 0
32 *310:14 *6717:B2 6.45942e-05
33 *310:14 *6719:A1 1.44895e-05
34 *310:21 *6844:RESET_B 3.69047e-06
35 *310:21 *6889:D 0.000164365
36 *310:21 *312:14 0.000474404
37 *310:32 *6727:A2 2.70591e-05
38 *310:32 *6844:RESET_B 9.01699e-05
39 *310:32 *312:14 7.48091e-05
40 *310:63 *7020:A 0
41 *6842:D *6842:CLK 0.000117543
42 *6842:D *310:10 0
43 *6842:D *310:14 0
44 *6850:D *310:10 0
45 *6895:A *310:8 7.8195e-05
46 *40:16 *310:8 0.000271898
47 *42:18 *6852:CLK 0
48 *301:45 *6850:CLK 0.000141734
*RES
1 *6902:X *310:8 16.3893 
2 *310:8 *310:10 3.46429 
3 *310:10 *310:14 6.14286 
4 *310:14 *6889:CLK 9.3 
5 *310:14 *310:21 8.75 
6 *310:21 *6844:CLK 9.3 
7 *310:21 *310:32 8.10714 
8 *310:32 *6855:CLK 23.3714 
9 *310:32 *6852:CLK 16.3536 
10 *310:10 *6842:CLK 21.2286 
11 *310:8 *310:63 2.85714 
12 *310:63 *6882:CLK 16.8179 
13 *310:63 *6850:CLK 17.1036 
*END

*D_NET *311 0.0243588
*CONN
*I *6805:CLK I *D sky130_fd_sc_hd__dfrtp_2
*I *6780:CLK I *D sky130_fd_sc_hd__dfrtp_2
*I *6803:CLK I *D sky130_fd_sc_hd__dfrtp_2
*I *6778:CLK I *D sky130_fd_sc_hd__dfrtp_2
*I *6806:CLK I *D sky130_fd_sc_hd__dfrtp_2
*I *6802:CLK I *D sky130_fd_sc_hd__dfrtp_2
*I *6856:CLK I *D sky130_fd_sc_hd__dfrtp_2
*I *6903:X O *D sky130_fd_sc_hd__clkbuf_8
*CAP
1 *6805:CLK 0.0008731
2 *6780:CLK 0
3 *6803:CLK 0
4 *6778:CLK 0
5 *6806:CLK 0.000103693
6 *6802:CLK 0
7 *6856:CLK 0.000396298
8 *6903:X 0.000767529
9 *311:87 0.00137542
10 *311:76 0.000923227
11 *311:63 0.000692476
12 *311:50 0.000438294
13 *311:43 0.000759307
14 *311:24 0.00148854
15 *311:18 0.00252798
16 *311:10 0.00289954
17 *6805:CLK *6515:A 0
18 *6805:CLK *6770:RESET_B 0
19 *6805:CLK *6780:D 1.87955e-05
20 *6805:CLK *533:12 7.15846e-05
21 *6805:CLK *533:28 0.0004486
22 *6806:CLK *6781:RESET_B 0
23 *6856:CLK *6739:B1 0.000350758
24 *6856:CLK *402:20 0
25 *6856:CLK *402:22 0
26 *311:10 *6565:A 3.13743e-05
27 *311:10 *6882:D 0.000205164
28 *311:18 *6565:A 5.95522e-05
29 *311:18 *6636:A1 0.000396892
30 *311:18 *6641:A0 1.90002e-05
31 *311:18 *6641:A1 7.77652e-05
32 *311:18 *6724:B2 0.000633142
33 *311:18 *6727:A1 0.000621854
34 *311:18 *6729:A1 0.000268403
35 *311:18 *6955:A 5.03772e-05
36 *311:18 *6965:A 0.000128496
37 *311:18 *512:73 0.00122932
38 *311:18 *1108:10 5.33005e-05
39 *311:24 *6739:B1 0.000126446
40 *311:24 *512:73 0.000117956
41 *311:24 *513:12 0.000188586
42 *311:43 *6572:B 3.90258e-05
43 *311:43 *6988:A 0.00014285
44 *311:43 *501:85 0.000369409
45 *311:50 *6802:D 8.86129e-06
46 *311:50 *501:85 5.23142e-05
47 *311:63 *6802:D 0.000805908
48 *311:63 *6802:RESET_B 9.84792e-05
49 *311:63 *501:85 0.000398052
50 *311:76 *425:41 0.00019497
51 *311:76 *501:85 0.000265715
52 *311:87 *6740:B2 1.02821e-05
53 *311:87 *6754:A 0.000227532
54 *311:87 *6769:RESET_B 0.000358971
55 *311:87 *6770:RESET_B 0
56 *311:87 *6780:D 1.19509e-05
57 *311:87 *6803:RESET_B 4.96254e-05
58 *311:87 *6973:A 5.71472e-05
59 *311:87 *402:118 0
60 *311:87 *425:41 0.000122412
61 *311:87 *501:65 0.000392699
62 *311:87 *512:8 9.41642e-05
63 *6584:A *6806:CLK 9.24395e-05
64 *6769:CLK *311:87 7.03393e-05
65 *6847:D *311:18 0.000181796
66 *6851:D *311:18 0.000954682
67 *6856:D *6856:CLK 8.6229e-06
68 *6862:D *311:24 0.000750308
69 *6882:CLK *311:10 2.95542e-05
70 *6922:A *311:43 0.000175892
71 *187:12 *6856:CLK 0
72 *303:51 *6856:CLK 5.20669e-05
*RES
1 *6903:X *311:10 19.2107 
2 *311:10 *311:18 46.2857 
3 *311:18 *311:24 14.4821 
4 *311:24 *6856:CLK 21.0679 
5 *311:24 *311:43 17.375 
6 *311:43 *6802:CLK 9.3 
7 *311:43 *311:50 1.35714 
8 *311:50 *6806:CLK 20.55 
9 *311:50 *311:63 11.625 
10 *311:63 *6778:CLK 9.3 
11 *311:63 *311:76 10.1429 
12 *311:76 *6803:CLK 9.3 
13 *311:76 *311:87 18.6786 
14 *311:87 *6780:CLK 13.8 
15 *311:87 *6805:CLK 26.0679 
*END

*D_NET *312 0.0172969
*CONN
*I *6781:CLK I *D sky130_fd_sc_hd__dfrtp_2
*I *6866:CLK I *D sky130_fd_sc_hd__dfrtp_2
*I *6862:CLK I *D sky130_fd_sc_hd__dfrtp_2
*I *6779:CLK I *D sky130_fd_sc_hd__dfrtp_2
*I *6804:CLK I *D sky130_fd_sc_hd__dfrtp_2
*I *6843:CLK I *D sky130_fd_sc_hd__dfrtp_2
*I *6851:CLK I *D sky130_fd_sc_hd__dfrtp_2
*I *6904:X O *D sky130_fd_sc_hd__clkbuf_8
*CAP
1 *6781:CLK 0.000272443
2 *6866:CLK 0
3 *6862:CLK 0
4 *6779:CLK 0
5 *6804:CLK 0.000245355
6 *6843:CLK 0.000154161
7 *6851:CLK 0
8 *6904:X 0.00203389
9 *312:73 0.000581021
10 *312:66 0.000686
11 *312:59 0.000458729
12 *312:33 0.000501913
13 *312:29 0.000532346
14 *312:20 0.000893093
15 *312:14 0.00257834
16 *6781:CLK *6570:B 3.69047e-06
17 *6781:CLK *6866:RESET_B 0.0001571
18 *6781:CLK *426:110 4.96155e-05
19 *6781:CLK *516:10 1.74352e-05
20 *6781:CLK *546:22 0.000537442
21 *6804:CLK *6804:D 3.99614e-06
22 *6804:CLK *348:18 0.00075137
23 *6804:CLK *512:73 6.87476e-05
24 *6843:CLK *6728:A1 9.50426e-05
25 *6843:CLK *370:10 9.50426e-05
26 *6843:CLK *370:29 4.22135e-06
27 *312:14 *6618:S1 5.98948e-06
28 *312:14 *6638:A0 9.71197e-05
29 *312:14 *6812:RESET_B 8.75059e-06
30 *312:14 *6841:RESET_B 0
31 *312:14 *6844:RESET_B 5.40584e-05
32 *312:14 *6953:A 5.52302e-05
33 *312:14 *6962:A 9.90431e-05
34 *312:14 *359:16 0.000121926
35 *312:14 *422:64 6.92695e-05
36 *312:20 *6637:A1 0.000271648
37 *312:20 *6638:A0 6.88698e-05
38 *312:20 *6638:A1 6.75007e-05
39 *312:20 *6729:A1 0.000281329
40 *312:20 *6729:B2 0.000142819
41 *312:20 *322:10 7.60306e-05
42 *312:20 *511:55 6.25993e-05
43 *312:29 *6637:A1 4.17014e-05
44 *312:29 *321:6 0.000210753
45 *312:29 *348:35 0.000122565
46 *312:29 *511:55 0.00050689
47 *312:66 *6779:RESET_B 0.000264964
48 *312:66 *7009:A 1.56e-05
49 *312:66 *546:22 0.000613547
50 *312:73 *6862:RESET_B 9.84891e-05
51 *312:73 *6866:RESET_B 0.00027986
52 *312:73 *7009:A 8.98447e-05
53 *312:73 *546:22 0.000668731
54 *6641:S *312:20 0.000260954
55 *6851:D *312:29 7.77652e-05
56 *6866:D *6781:CLK 9.29472e-06
57 *6911:A *6804:CLK 0.000621848
58 *3:16 *6843:CLK 0
59 *3:16 *312:33 0
60 *40:16 *312:14 0.000112186
61 *41:14 *312:20 0.000174461
62 *301:69 *312:20 0.00036192
63 *302:17 *6804:CLK 1.31235e-05
64 *302:17 *312:33 0
65 *310:21 *312:14 0.000474404
66 *310:32 *312:14 7.48091e-05
*RES
1 *6904:X *312:14 48.8 
2 *312:14 *312:20 20.9464 
3 *312:20 *6851:CLK 9.3 
4 *312:20 *312:29 10.8214 
5 *312:29 *312:33 6.29464 
6 *312:33 *6843:CLK 17.1125 
7 *312:33 *6804:CLK 23.2732 
8 *312:29 *312:59 1.35714 
9 *312:59 *6779:CLK 9.3 
10 *312:59 *312:66 11.625 
11 *312:66 *6862:CLK 9.3 
12 *312:66 *312:73 11.625 
13 *312:73 *6866:CLK 9.3 
14 *312:73 *6781:CLK 18.4607 
*END

*D_NET *313 0.0100966
*CONN
*I *6883:CLK I *D sky130_fd_sc_hd__dfrtp_2
*I *6885:CLK I *D sky130_fd_sc_hd__dfrtp_2
*I *6887:CLK I *D sky130_fd_sc_hd__dfrtp_2
*I *6880:CLK I *D sky130_fd_sc_hd__dfrtp_2
*I *6892:CLK I *D sky130_fd_sc_hd__dfrtp_2
*I *6890:CLK I *D sky130_fd_sc_hd__dfrtp_2
*I *6878:CLK I *D sky130_fd_sc_hd__dfrtp_2
*I *6905:X O *D sky130_fd_sc_hd__clkbuf_8
*CAP
1 *6883:CLK 0.0001161
2 *6885:CLK 3.82418e-05
3 *6887:CLK 0
4 *6880:CLK 0
5 *6892:CLK 0
6 *6890:CLK 0.000509998
7 *6878:CLK 0.000295207
8 *6905:X 0.000481539
9 *313:63 0.00116662
10 *313:53 0.00117068
11 *313:51 0.000879672
12 *313:30 0.00096604
13 *313:24 0.000943429
14 *313:20 0.00119761
15 *6878:CLK *6878:RESET_B 0
16 *6878:CLK *7017:A 0.000131385
17 *6878:CLK *440:19 1.57937e-05
18 *6883:CLK *6883:D 5.33334e-05
19 *6883:CLK *6883:RESET_B 9.90367e-05
20 *6883:CLK *417:81 2.97074e-05
21 *313:20 *6831:RESET_B 1.41706e-05
22 *313:20 *6950:A 0.000653364
23 *313:20 *417:81 1.19309e-05
24 *313:24 *6885:D 4.59352e-05
25 *313:30 *6878:RESET_B 0
26 *313:30 *6885:D 0.000110076
27 *313:30 *7017:A 0.000164787
28 *313:30 *7025:A 7.83659e-05
29 *313:51 *6878:RESET_B 6.92148e-06
30 *313:51 *6887:RESET_B 0.000175785
31 *313:51 *7025:A 3.69047e-06
32 *313:53 *6887:RESET_B 0.000115343
33 *313:63 *6886:D 3.30352e-05
34 *313:63 *7021:A 0.000171745
35 *313:63 *442:24 0.000170098
36 *6890:RESET_B *313:63 7.32272e-05
37 *6892:RESET_B *313:63 2.29097e-05
38 *6905:A *313:20 6.48671e-05
39 *6949:A *313:20 0
40 *302:58 *313:20 6.06291e-06
41 *302:78 *313:20 7.98704e-05
*RES
1 *6905:X *313:20 25.6393 
2 *313:20 *313:24 11.6071 
3 *313:24 *313:30 10.0089 
4 *313:30 *6878:CLK 18.2018 
5 *313:30 *313:51 11.1875 
6 *313:51 *313:53 8.75 
7 *313:53 *313:63 21.3571 
8 *313:63 *6890:CLK 26.8357 
9 *313:63 *6892:CLK 9.3 
10 *313:53 *6880:CLK 9.3 
11 *313:51 *6887:CLK 9.3 
12 *313:24 *6885:CLK 10.0321 
13 *313:20 *6883:CLK 16.5143 
*END

*D_NET *314 0.0169516
*CONN
*I *6877:CLK I *D sky130_fd_sc_hd__dfrtp_2
*I *6876:CLK I *D sky130_fd_sc_hd__dfrtp_2
*I *6879:CLK I *D sky130_fd_sc_hd__dfrtp_2
*I *6848:CLK I *D sky130_fd_sc_hd__dfrtp_2
*I *6875:CLK I *D sky130_fd_sc_hd__dfrtp_2
*I *6888:CLK I *D sky130_fd_sc_hd__dfrtp_2
*I *6884:CLK I *D sky130_fd_sc_hd__dfrtp_2
*I *6906:X O *D sky130_fd_sc_hd__clkbuf_8
*CAP
1 *6877:CLK 9.73585e-05
2 *6876:CLK 0
3 *6879:CLK 0.00110798
4 *6848:CLK 0
5 *6875:CLK 0
6 *6888:CLK 0
7 *6884:CLK 0
8 *6906:X 0
9 *314:60 0.00129726
10 *314:58 0.000456726
11 *314:44 0.000836588
12 *314:27 0.00121717
13 *314:19 0.000793271
14 *314:12 0.000641663
15 *314:6 0.000399061
16 *6877:CLK *7019:A 1.56e-05
17 *6877:CLK *421:6 0.000146571
18 *6879:CLK *6536:A_N 0.000273449
19 *6879:CLK *6536:B 0.00041724
20 *6879:CLK *7019:A 0.000624791
21 *6879:CLK *7021:A 0.000164566
22 *6879:CLK *7036:A 0.000148775
23 *6879:CLK *442:24 7.69993e-05
24 *314:12 *6884:D 0.00031339
25 *314:12 *418:24 0.0001163
26 *314:19 *6884:D 7.08522e-05
27 *314:19 *6884:RESET_B 0.000150309
28 *314:19 *6950:A 0.000154891
29 *314:19 *418:24 2.12005e-05
30 *314:27 *6877:RESET_B 0.000142011
31 *314:27 *6888:D 0.00019284
32 *314:27 *7015:A 0
33 *314:27 *421:6 7.03295e-05
34 *314:44 *6888:D 7.17235e-05
35 *314:44 *6888:RESET_B 0.000113574
36 *314:44 *421:6 0.00183323
37 *314:44 *511:55 0.000615715
38 *314:60 *6876:RESET_B 4.96254e-05
39 *314:60 *7019:A 0.000263181
40 *314:60 *421:6 0.000371491
41 uo_out[1] *314:44 0.000471389
42 uo_out[2] *314:27 0
43 uo_out[3] *314:12 0
44 uo_out[3] *314:58 0
45 uo_out[5] *314:44 0.000245009
46 *6949:A *314:12 8.98293e-05
47 *7030:A *314:44 5.1588e-05
48 *301:24 *314:44 0.000794157
49 *301:31 *314:44 0.00118763
50 *301:38 *314:44 0.000490643
51 *301:45 *314:44 0.0003556
52 *302:97 *314:44 0
*RES
1 *6906:X *314:6 13.8 
2 *314:6 *314:12 10.9821 
3 *314:12 *6884:CLK 9.3 
4 *314:12 *314:19 9.16071 
5 *314:19 *314:27 16.5714 
6 *314:27 *6888:CLK 9.3 
7 *314:27 *314:44 44.5 
8 *314:44 *6875:CLK 9.3 
9 *314:19 *6848:CLK 9.3 
10 *314:6 *314:58 7.35714 
11 *314:58 *314:60 7.51786 
12 *314:60 *6879:CLK 34.8893 
13 *314:60 *6876:CLK 9.3 
14 *314:58 *6877:CLK 11.8893 
*END

*D_NET *315 0.00747831
*CONN
*I *6840:CLK I *D sky130_fd_sc_hd__dfrtp_2
*I *6830:CLK I *D sky130_fd_sc_hd__dfrtp_2
*I *6834:CLK I *D sky130_fd_sc_hd__dfrtp_2
*I *6831:CLK I *D sky130_fd_sc_hd__dfrtp_2
*I *6832:CLK I *D sky130_fd_sc_hd__dfrtp_2
*I *6886:CLK I *D sky130_fd_sc_hd__dfrtp_2
*I *6833:CLK I *D sky130_fd_sc_hd__dfrtp_2
*I *6907:X O *D sky130_fd_sc_hd__clkbuf_8
*CAP
1 *6840:CLK 0.000248341
2 *6830:CLK 0.000106823
3 *6834:CLK 0
4 *6831:CLK 0
5 *6832:CLK 0
6 *6886:CLK 0.000193749
7 *6833:CLK 0
8 *6907:X 0
9 *315:25 0.000854131
10 *315:12 0.00121206
11 *315:10 0.00103664
12 *315:8 0.00102252
13 *315:6 0.000856598
14 *315:4 0.000460559
15 *6886:CLK *442:24 0
16 *315:8 *481:14 0.000148808
17 *315:10 *6833:RESET_B 0.000158747
18 *315:12 *6833:RESET_B 0.000150288
19 *315:25 *6541:A 6.01709e-05
20 *315:25 *6697:A0 9.58508e-05
21 *315:25 *6697:S 0.00018077
22 *315:25 *6832:RESET_B 2.51837e-05
23 *315:25 *479:35 9.85751e-05
24 uio_out[5] *315:25 5.52302e-05
25 *6830:D *6830:CLK 0
26 *6832:D *315:25 0.000427961
27 *300:18 *6886:CLK 0
28 *302:78 *6830:CLK 8.52995e-05
*RES
1 *6907:X *315:4 9.3 
2 *315:4 *315:6 3.41071 
3 *315:6 *315:8 9.16071 
4 *315:8 *315:10 8.75 
5 *315:10 *315:12 9.57143 
6 *315:12 *6833:CLK 9.3 
7 *315:12 *315:25 15.0714 
8 *315:25 *6886:CLK 21.4964 
9 *315:25 *6832:CLK 9.3 
10 *315:10 *6831:CLK 9.3 
11 *315:8 *6834:CLK 9.3 
12 *315:6 *6830:CLK 20.55 
13 *315:4 *6840:CLK 13.5321 
*END

*D_NET *316 0.0110015
*CONN
*I *6881:CLK I *D sky130_fd_sc_hd__dfrtp_2
*I *6849:CLK I *D sky130_fd_sc_hd__dfrtp_2
*I *6841:CLK I *D sky130_fd_sc_hd__dfrtp_2
*I *6854:CLK I *D sky130_fd_sc_hd__dfrtp_2
*I *6846:CLK I *D sky130_fd_sc_hd__dfrtp_2
*I *6853:CLK I *D sky130_fd_sc_hd__dfrtp_2
*I *6845:CLK I *D sky130_fd_sc_hd__dfrtp_2
*I *6908:X O *D sky130_fd_sc_hd__clkbuf_8
*CAP
1 *6881:CLK 0
2 *6849:CLK 5.79051e-05
3 *6841:CLK 0.000278941
4 *6854:CLK 0.000154638
5 *6846:CLK 6.7801e-05
6 *6853:CLK 0
7 *6845:CLK 0.000287059
8 *6908:X 4.9124e-05
9 *316:59 0.000625395
10 *316:55 0.00095241
11 *316:38 0.00105608
12 *316:14 0.000334369
13 *316:10 0.00157498
14 *316:6 0.0012912
15 *6841:CLK *6849:RESET_B 0.000266153
16 *6841:CLK *324:8 0.000102207
17 *6841:CLK *475:110 0.000185918
18 *6845:CLK *6560:C 0
19 *6845:CLK *6723:A2 9.64979e-05
20 *6845:CLK *6723:B1 1.9643e-05
21 *6845:CLK *6845:RESET_B 6.31183e-05
22 *6845:CLK *337:105 4.32834e-05
23 *6845:CLK *432:18 8.32242e-05
24 *6845:CLK *503:55 4.70981e-05
25 *6845:CLK *513:83 4.02462e-05
26 *6846:CLK *6639:A0 0
27 *6846:CLK *6730:A1 1.02504e-05
28 *6846:CLK *6935:A 3.67452e-05
29 *6849:CLK *6875:D 2.89016e-05
30 *6854:CLK *6854:RESET_B 0.000192361
31 *6854:CLK *475:110 2.95711e-05
32 *316:6 *7001:A 4.60311e-05
33 *316:6 *7015:A 9.58126e-05
34 *316:10 *6723:B2 0.000111491
35 *316:10 *6881:D 0.000696273
36 *316:10 *7001:A 1.40131e-05
37 *316:14 *6723:A2 6.74815e-05
38 *316:14 *432:18 0.000117896
39 *316:38 *6723:B2 0.000311208
40 *316:55 *6723:B2 0.000494916
41 *316:55 *514:34 0.000148903
42 *316:59 *451:20 0.000117693
43 *316:59 *514:34 0.000350697
44 uo_out[0] *316:10 0.000118752
45 *6854:D *6854:CLK 0.000125543
46 *7029:A *6849:CLK 0.000137983
47 *7034:A *316:55 0
48 *7034:A *316:59 0
49 *7035:A *316:10 1.40131e-05
50 *272:10 *6845:CLK 5.76566e-05
*RES
1 *6908:X *316:6 10.6571 
2 *316:6 *316:10 17.2857 
3 *316:10 *316:14 6.14286 
4 *316:14 *6845:CLK 20.55 
5 *316:14 *6853:CLK 13.8 
6 *316:10 *316:38 5.5 
7 *316:38 *6846:CLK 19.3357 
8 *316:38 *316:55 15.1964 
9 *316:55 *316:59 9.17857 
10 *316:59 *6854:CLK 13.5321 
11 *316:59 *6841:CLK 15.9964 
12 *316:55 *6849:CLK 15.1571 
13 *316:6 *6881:CLK 9.3 
*END

*D_NET *317 0.0130067
*CONN
*I *6798:CLK I *D sky130_fd_sc_hd__dfrtp_2
*I *6872:CLK I *D sky130_fd_sc_hd__dfrtp_2
*I *6828:CLK I *D sky130_fd_sc_hd__dfrtp_2
*I *6827:CLK I *D sky130_fd_sc_hd__dfrtp_2
*I *6826:CLK I *D sky130_fd_sc_hd__dfrtp_2
*I *6813:CLK I *D sky130_fd_sc_hd__dfrtp_2
*I *6829:CLK I *D sky130_fd_sc_hd__dfrtp_2
*I *6909:X O *D sky130_fd_sc_hd__clkbuf_8
*CAP
1 *6798:CLK 0.000568129
2 *6872:CLK 4.69632e-05
3 *6828:CLK 0
4 *6827:CLK 1.80483e-05
5 *6826:CLK 0.00068426
6 *6813:CLK 0.000194687
7 *6829:CLK 0.000609828
8 *6909:X 0.000210888
9 *317:50 0.00133216
10 *317:42 0.000997148
11 *317:27 0.000769636
12 *317:25 0.000254617
13 *317:10 0.000936929
14 *317:8 0.00110612
15 *6798:CLK *6873:D 9.11048e-06
16 *6798:CLK *475:23 0.000351503
17 *6813:CLK *7010:A 3.69047e-06
18 *6826:CLK *7222:A 0.000334338
19 *6826:CLK *7223:A 5.11359e-05
20 *6826:CLK *7224:A 0.000163424
21 *6826:CLK *7225:A 2.12005e-05
22 *6826:CLK *7226:A 3.4517e-05
23 *6826:CLK *7232:A 0
24 *6827:CLK *7221:A 5.49544e-05
25 *6827:CLK *7222:A 2.59355e-05
26 *6829:CLK *6613:A 0.000523781
27 *6829:CLK *6692:B2 1.15281e-05
28 *6829:CLK *6694:A2 3.05446e-05
29 *6829:CLK *6828:RESET_B 1.0033e-05
30 *6829:CLK *398:68 9.90367e-05
31 *6829:CLK *428:10 1.0033e-05
32 *6872:CLK *6813:RESET_B 8.42609e-05
33 *317:8 *6793:RESET_B 0.000227636
34 *317:8 *6923:A 0.000442939
35 *317:8 *6939:A 4.90149e-05
36 *317:10 *6873:D 0.000285273
37 *317:10 *318:8 0
38 *317:10 *428:10 5.72546e-05
39 *317:10 *428:27 8.81025e-05
40 *317:27 *6813:RESET_B 0.0003483
41 *317:27 *531:18 4.58605e-05
42 *317:42 *6645:A1 3.08664e-05
43 *317:42 *6796:D 0
44 *317:42 *7244:A 0.000126439
45 *317:42 *7246:A 5.84075e-05
46 *317:42 *531:18 6.56312e-06
47 *317:50 *6645:A1 1.13883e-05
48 *317:50 *7219:A 0.000146208
49 *317:50 *7220:A 0.000124083
50 *317:50 *7221:A 0.000102053
51 *317:50 *7246:A 0
52 *317:50 *531:24 0
53 *6620:A1 *6826:CLK 0.000187882
54 *6690:A1 *6829:CLK 0.000315158
55 *6690:A2 *6829:CLK 1.02936e-05
56 *6793:D *317:8 0.000141132
57 *6813:D *6813:CLK 0.000136571
58 *6813:D *317:27 2.8078e-05
59 *6813:D *317:42 3.63281e-05
60 *6872:D *6872:CLK 5.33005e-05
61 *200:12 *6829:CLK 2.41972e-05
62 *200:12 *317:10 7.91743e-05
63 *206:46 *6826:CLK 1.02821e-05
64 *218:20 *6826:CLK 1.72243e-05
65 *221:24 *6872:CLK 4.35597e-05
66 *221:24 *317:27 0.000187828
67 *302:299 *317:10 3.08308e-05
68 *302:314 *317:8 6.05161e-06
*RES
1 *6909:X *317:8 20.0857 
2 *317:8 *317:10 7.71429 
3 *317:10 *6829:CLK 26.05 
4 *317:10 *317:25 4.5 
5 *317:25 *317:27 5.875 
6 *317:27 *6813:CLK 13.1214 
7 *317:27 *317:42 16.1607 
8 *317:42 *317:50 15.7143 
9 *317:50 *6826:CLK 26.1214 
10 *317:50 *6827:CLK 14.3357 
11 *317:42 *6828:CLK 9.3 
12 *317:25 *6872:CLK 10.6571 
13 *317:8 *6798:CLK 23.9429 
*END

*D_NET *318 0.00702931
*CONN
*I *6774:CLK I *D sky130_fd_sc_hd__dfrtp_2
*I *6773:CLK I *D sky130_fd_sc_hd__dfrtp_2
*I *6873:CLK I *D sky130_fd_sc_hd__dfrtp_2
*I *6797:CLK I *D sky130_fd_sc_hd__dfrtp_2
*I *6772:CLK I *D sky130_fd_sc_hd__dfrtp_2
*I *6796:CLK I *D sky130_fd_sc_hd__dfrtp_2
*I *6771:CLK I *D sky130_fd_sc_hd__dfrtp_2
*I *6910:X O *D sky130_fd_sc_hd__clkbuf_8
*CAP
1 *6774:CLK 0.0003163
2 *6773:CLK 0.000103265
3 *6873:CLK 0
4 *6797:CLK 0.000286315
5 *6772:CLK 0.000344269
6 *6796:CLK 0
7 *6771:CLK 0.000365732
8 *6910:X 0.000127904
9 *318:71 0.000709952
10 *318:38 0.000843829
11 *318:18 0.000474924
12 *318:16 0.000795411
13 *318:12 0.00069467
14 *318:8 0.000639986
15 *6771:CLK *6771:D 7.77652e-05
16 *6771:CLK *6771:RESET_B 9.24395e-05
17 *6771:CLK *6795:RESET_B 0
18 *6773:CLK *6773:D 5.45307e-05
19 *6773:CLK *6792:RESET_B 5.33005e-05
20 *6773:CLK *540:8 2.50909e-05
21 *6774:CLK *6734:A2 4.64488e-06
22 *6774:CLK *6774:RESET_B 0
23 *6774:CLK *6792:RESET_B 0.000223065
24 *6774:CLK *541:32 9.99853e-05
25 *6797:CLK *6772:RESET_B 0
26 *6797:CLK *6797:D 2.89016e-05
27 *318:12 *6873:D 0.000110133
28 *318:16 *6794:RESET_B 2.51837e-05
29 *318:16 *539:10 3.18676e-05
30 *318:18 *6771:RESET_B 0.000120402
31 *318:18 *6795:RESET_B 0
32 *318:18 *403:23 0
33 *318:38 *6771:RESET_B 0.000181134
34 *318:38 *6772:RESET_B 0
35 *318:38 *403:23 0
36 *318:71 *6792:RESET_B 3.12359e-05
37 *318:71 *6793:RESET_B 0.000121842
38 *6792:CLK *6774:CLK 7.01943e-06
39 *302:299 *318:8 3.82079e-05
40 *302:314 *318:8 0
41 *302:314 *318:71 0
42 *317:10 *318:8 0
*RES
1 *6910:X *318:8 16.05 
2 *318:8 *318:12 8.73214 
3 *318:12 *318:16 12.4286 
4 *318:16 *318:18 2.85714 
5 *318:18 *6771:CLK 20.6929 
6 *318:18 *6796:CLK 13.8 
7 *318:16 *318:38 5.13393 
8 *318:38 *6772:CLK 19.6661 
9 *318:38 *6797:CLK 18.7018 
10 *318:12 *6873:CLK 9.3 
11 *318:8 *318:71 4.98214 
12 *318:71 *6773:CLK 15.9786 
13 *318:71 *6774:CLK 19.9607 
*END

*D_NET *319 0.000926469
*CONN
*I *6634:A0 I *D sky130_fd_sc_hd__mux2_1
*I *6952:A I *D sky130_fd_sc_hd__dlygate4sd3_1
*I *6840:Q O *D sky130_fd_sc_hd__dfrtp_2
*CAP
1 *6634:A0 0.000120241
2 *6952:A 4.03955e-05
3 *6840:Q 9.16703e-05
4 *319:8 0.000252307
5 *6634:A0 *6560:C 0
6 *6634:A0 *6723:B1 0
7 *6634:A0 *412:149 1.89507e-06
8 *6634:A0 *513:83 0
9 *6952:A *359:99 0.000230475
10 *6952:A *513:83 0.000105142
11 *319:8 *6717:A1 7.44888e-05
12 *319:8 *6717:A2 0
13 *319:8 *412:149 9.85424e-06
14 *6848:D *6634:A0 0
*RES
1 *6840:Q *319:8 15.4429 
2 *319:8 *6952:A 15.9786 
3 *319:8 *6634:A0 15.7464 
*END

*D_NET *320 0.00166081
*CONN
*I *6965:A I *D sky130_fd_sc_hd__dlygate4sd3_1
*I *6636:A1 I *D sky130_fd_sc_hd__mux2_1
*I *6850:Q O *D sky130_fd_sc_hd__dfrtp_2
*CAP
1 *6965:A 5.50251e-05
2 *6636:A1 0.000205723
3 *6850:Q 8.25583e-05
4 *320:10 0.000343307
5 *6636:A1 *6565:A 0.000134072
6 *6636:A1 *6850:RESET_B 3.22745e-05
7 *6636:A1 *6882:RESET_B 0
8 *6636:A1 *1108:10 0.000128146
9 *6965:A *6565:A 3.69047e-06
10 *6636:S *320:10 0
11 *155:12 *320:10 0.000150625
12 *311:18 *6636:A1 0.000396892
13 *311:18 *6965:A 0.000128496
*RES
1 *6850:Q *320:10 20.2464 
2 *320:10 *6636:A1 24.3714 
3 *320:10 *6965:A 10.6571 
*END

*D_NET *321 0.00431828
*CONN
*I *6966:A I *D sky130_fd_sc_hd__dlygate4sd3_1
*I *6637:A1 I *D sky130_fd_sc_hd__mux2_1
*I *6851:Q O *D sky130_fd_sc_hd__dfrtp_2
*CAP
1 *6966:A 0.000408231
2 *6637:A1 0.000474459
3 *6851:Q 0.000433894
4 *321:6 0.00131658
5 *6966:A *6732:A1 8.85048e-05
6 *6966:A *6732:A2 0.000138998
7 *6966:A *6812:RESET_B 3.18676e-05
8 *6966:A *6851:RESET_B 3.28534e-05
9 *6966:A *332:10 3.48139e-05
10 *6966:A *337:22 0
11 *6966:A *348:35 0
12 *6966:A *348:41 0
13 *6966:A *370:29 1.90936e-05
14 *6966:A *370:31 0.000443293
15 *6966:A *423:71 3.33092e-05
16 *6851:D *6637:A1 9.90367e-05
17 *6851:D *6966:A 0.000185939
18 *6851:D *321:6 5.33005e-05
19 *312:20 *6637:A1 0.000271648
20 *312:29 *6637:A1 4.17014e-05
21 *312:29 *321:6 0.000210753
*RES
1 *6851:Q *321:6 15.175 
2 *321:6 *6637:A1 15.9964 
3 *321:6 *6966:A 28.0679 
*END

*D_NET *322 0.00113509
*CONN
*I *6638:A1 I *D sky130_fd_sc_hd__mux2_1
*I *6955:A I *D sky130_fd_sc_hd__dlygate4sd3_1
*I *6852:Q O *D sky130_fd_sc_hd__dfrtp_2
*CAP
1 *6638:A1 3.96881e-05
2 *6955:A 5.02952e-05
3 *6852:Q 0.00019808
4 *322:10 0.000288064
5 *6638:A1 *6638:A0 0.000119618
6 *322:10 *6638:A0 0.00015234
7 *303:10 *322:10 9.31011e-05
8 *311:18 *6955:A 5.03772e-05
9 *312:20 *6638:A1 6.75007e-05
10 *312:20 *322:10 7.60306e-05
*RES
1 *6852:Q *322:10 17.5143 
2 *322:10 *6955:A 14.7464 
3 *322:10 *6638:A1 15.4429 
*END

*D_NET *323 0.00200028
*CONN
*I *6639:A1 I *D sky130_fd_sc_hd__mux2_1
*I *6960:A I *D sky130_fd_sc_hd__dlygate4sd3_1
*I *6853:Q O *D sky130_fd_sc_hd__dfrtp_2
*CAP
1 *6639:A1 0.000175568
2 *6960:A 0
3 *6853:Q 0.000596604
4 *323:10 0.000772172
5 *6639:A1 *6639:A0 5.71472e-05
6 *6639:A1 *6723:A2 1.17968e-05
7 *6639:A1 *6935:A 0
8 *6639:A1 *6951:A 0.000142856
9 *6639:A1 *432:18 0
10 *323:10 *6723:A2 6.65398e-05
11 *323:10 *6853:RESET_B 1.20135e-05
12 *323:10 *6935:A 0
13 *323:10 *7038:A 9.51097e-06
14 *323:10 *432:18 4.48684e-05
15 uo_out[5] *6639:A1 3.34366e-05
16 *6853:D *323:10 7.77652e-05
*RES
1 *6853:Q *323:10 21.7286 
2 *323:10 *6960:A 13.8 
3 *323:10 *6639:A1 17.4071 
*END

*D_NET *324 0.00265903
*CONN
*I *6640:A1 I *D sky130_fd_sc_hd__mux2_1
*I *6963:A I *D sky130_fd_sc_hd__dlygate4sd3_1
*I *6854:Q O *D sky130_fd_sc_hd__dfrtp_2
*CAP
1 *6640:A1 0.000484601
2 *6963:A 0.000219066
3 *6854:Q 0.000125013
4 *324:8 0.00082868
5 *6640:A1 *6723:B2 0
6 *6640:A1 *6726:B1 0.000253876
7 *6640:A1 *6849:RESET_B 0
8 *6640:A1 *331:10 0
9 *6640:A1 *334:10 0
10 *6640:A1 *442:24 5.7903e-06
11 *6963:A *6718:B2 0
12 *6963:A *6726:B1 9.71371e-05
13 *6963:A *6731:A1 2.28499e-05
14 *6963:A *6849:RESET_B 0
15 *6963:A *337:57 9.71197e-05
16 *6963:A *337:67 1.52978e-05
17 *6963:A *359:59 0.00014183
18 *6841:CLK *324:8 0.000102207
19 *6849:D *6640:A1 0.000177234
20 *7030:A *6640:A1 7.77652e-05
21 *7033:A *6640:A1 1.0562e-05
*RES
1 *6854:Q *324:8 15.5679 
2 *324:8 *6963:A 18.3179 
3 *324:8 *6640:A1 23.4786 
*END

*D_NET *325 0.00182879
*CONN
*I *6957:A I *D sky130_fd_sc_hd__dlygate4sd3_1
*I *6641:A1 I *D sky130_fd_sc_hd__mux2_1
*I *6855:Q O *D sky130_fd_sc_hd__dfrtp_2
*CAP
1 *6957:A 3.48456e-05
2 *6641:A1 0.000384146
3 *6855:Q 0
4 *325:4 0.000418992
5 *6641:A1 *6637:A0 0
6 *6641:A1 *6641:A0 7.32272e-05
7 *6641:A1 *6855:RESET_B 5.4131e-05
8 *6641:A1 *348:41 0.000381367
9 *6641:A1 *370:46 0.000146523
10 *6641:A1 *423:71 7.02013e-05
11 *6641:A1 *513:59 9.58493e-05
12 *6957:A *6732:A1 2.59355e-05
13 *6957:A *337:22 6.05161e-06
14 *6957:A *423:71 3.18676e-05
15 *6957:A *513:59 1.02821e-05
16 *6641:S *6641:A1 1.76039e-05
17 *6855:D *6641:A1 0
18 *45:16 *6641:A1 0
19 *311:18 *6641:A1 7.77652e-05
*RES
1 *6855:Q *325:4 9.3 
2 *325:4 *6641:A1 28.7643 
3 *325:4 *6957:A 10.2464 
*END

*D_NET *326 0.00289534
*CONN
*I *6962:A I *D sky130_fd_sc_hd__dlygate4sd3_1
*I *6635:A0 I *D sky130_fd_sc_hd__mux2_1
*I *6841:Q O *D sky130_fd_sc_hd__dfrtp_2
*CAP
1 *6962:A 4.17431e-05
2 *6635:A0 0.000988663
3 *6841:Q 0
4 *326:4 0.00103041
5 *6635:A0 *6565:B 0.00014183
6 *6635:A0 *6635:A1 7.73758e-05
7 *6635:A0 *6726:A1 1.56e-05
8 *6635:A0 *6726:A2 6.94952e-05
9 *6635:A0 *6875:D 8.91822e-05
10 *6635:A0 *6882:D 5.10822e-05
11 *6635:A0 *334:10 1.99099e-05
12 *6962:A *422:64 4.01768e-05
13 *7029:A *6635:A0 0
14 *40:16 *6635:A0 0.000109268
15 *300:12 *6635:A0 0.000121561
16 *312:14 *6962:A 9.90431e-05
*RES
1 *6841:Q *326:4 9.3 
2 *326:4 *6635:A0 45.6214 
3 *326:4 *6962:A 10.675 
*END

*D_NET *327 0.000973016
*CONN
*I *6636:A0 I *D sky130_fd_sc_hd__mux2_1
*I *6954:A I *D sky130_fd_sc_hd__dlygate4sd3_1
*I *6842:Q O *D sky130_fd_sc_hd__dfrtp_2
*CAP
1 *6636:A0 0.000120558
2 *6954:A 0.000142668
3 *6842:Q 2.21107e-05
4 *6636:A0 *6719:A1 1.59373e-05
5 *6636:A0 *6844:RESET_B 0.000126566
6 *6636:A0 *6882:RESET_B 3.09531e-05
7 *6636:A0 *7024:A 0.000123295
8 *6636:A0 *359:41 1.90936e-05
9 *6636:A0 *422:85 0.000141555
10 *6954:A *6719:A1 5.20751e-05
11 *6954:A *422:85 5.45307e-05
12 *6850:D *6636:A0 0.000123673
*RES
1 *6842:Q *6954:A 19.5464 
2 *6954:A *6636:A0 31.8321 
*END

*D_NET *328 0.00580531
*CONN
*I *6967:A I *D sky130_fd_sc_hd__dlygate4sd3_1
*I *6637:A0 I *D sky130_fd_sc_hd__mux2_1
*I *6843:Q O *D sky130_fd_sc_hd__dfrtp_2
*CAP
1 *6967:A 9.57241e-05
2 *6637:A0 0.00206537
3 *6843:Q 0
4 *328:4 0.00216109
5 *6637:A0 *6720:A1 9.13624e-05
6 *6637:A0 *6843:RESET_B 9.23695e-05
7 *6637:A0 *6855:RESET_B 0.000357054
8 *6637:A0 *332:10 1.48591e-05
9 *6637:A0 *501:103 2.90753e-05
10 *6967:A *6720:A1 0.000271345
11 *6967:A *348:18 0.000123673
12 *6641:A1 *6637:A0 0
13 *6641:S *6637:A0 0
14 *6843:D *6637:A0 0.000118592
15 *6852:D *6637:A0 3.47641e-06
16 *41:14 *6637:A0 0
17 *45:16 *6637:A0 9.92967e-05
18 *303:10 *6637:A0 2.95726e-05
19 *303:23 *6637:A0 0.000252451
*RES
1 *6843:Q *328:4 9.3 
2 *328:4 *6637:A0 46.4071 
3 *328:4 *6967:A 12.6214 
*END

*D_NET *329 0.00179009
*CONN
*I *6953:A I *D sky130_fd_sc_hd__dlygate4sd3_1
*I *6638:A0 I *D sky130_fd_sc_hd__mux2_1
*I *6844:Q O *D sky130_fd_sc_hd__dfrtp_2
*CAP
1 *6953:A 5.59839e-05
2 *6638:A0 0.000437234
3 *6844:Q 0
4 *329:4 0.000493217
5 *6638:A0 *6729:B1 0.000165278
6 *6638:A0 *6729:B2 7.54511e-05
7 *6638:A0 *6812:RESET_B 3.67142e-05
8 *6953:A *6812:RESET_B 3.30352e-05
9 *6638:A1 *6638:A0 0.000119618
10 *42:18 *6638:A0 0
11 *312:14 *6638:A0 9.71197e-05
12 *312:14 *6953:A 5.52302e-05
13 *312:20 *6638:A0 6.88698e-05
14 *322:10 *6638:A0 0.00015234
*RES
1 *6844:Q *329:4 9.3 
2 *329:4 *6638:A0 27.8714 
3 *329:4 *6953:A 10.675 
*END

*D_NET *330 0.0037316
*CONN
*I *6639:A0 I *D sky130_fd_sc_hd__mux2_1
*I *6958:A I *D sky130_fd_sc_hd__dlygate4sd3_1
*I *6845:Q O *D sky130_fd_sc_hd__dfrtp_2
*CAP
1 *6639:A0 0.000695114
2 *6958:A 0.000482973
3 *6845:Q 0
4 *330:6 0.00117809
5 *6639:A0 *6730:A1 0
6 *6639:A0 *6846:RESET_B 0.000138816
7 *6639:A0 *6935:A 0
8 *6639:A0 *6951:A 0.000253035
9 *6639:A0 *7038:A 0
10 *6639:A0 *359:89 4.83969e-05
11 *6639:A0 *420:10 0.00010059
12 *6958:A *6722:A1 0.000185643
13 *6958:A *7038:A 0.000185643
14 *6958:A *359:79 4.34013e-05
15 *6958:A *359:89 0.000109044
16 *6958:A *478:39 0.000253714
17 *6639:A1 *6639:A0 5.71472e-05
18 *6846:CLK *6639:A0 0
19 *7034:A *6639:A0 0
*RES
1 *6845:Q *330:6 13.8 
2 *330:6 *6958:A 22.675 
3 *330:6 *6639:A0 25.9429 
*END

*D_NET *331 0.00346546
*CONN
*I *6640:A0 I *D sky130_fd_sc_hd__mux2_1
*I *6951:A I *D sky130_fd_sc_hd__dlygate4sd3_1
*I *6846:Q O *D sky130_fd_sc_hd__dfrtp_2
*CAP
1 *6640:A0 5.88675e-05
2 *6951:A 0.000513617
3 *6846:Q 8.29479e-05
4 *331:10 0.000655432
5 *6951:A *6723:A1 7.32272e-05
6 uo_out[5] *6951:A 2.89016e-05
7 *6639:A0 *6951:A 0.000253035
8 *6639:A1 *6951:A 0.000142856
9 *6640:A1 *331:10 0
10 *7030:A *6640:A0 0.000142856
11 *7030:A *6951:A 0.000750344
12 *7034:A *331:10 0
13 *301:24 *6951:A 0.000615956
14 *301:31 *6951:A 0.000147415
*RES
1 *6846:Q *331:10 19.6393 
2 *331:10 *6951:A 24.3536 
3 *331:10 *6640:A0 10.6571 
*END

*D_NET *332 0.00254019
*CONN
*I *6641:A0 I *D sky130_fd_sc_hd__mux2_1
*I *6956:A I *D sky130_fd_sc_hd__dlygate4sd3_1
*I *6847:Q O *D sky130_fd_sc_hd__dfrtp_2
*CAP
1 *6641:A0 0.000452498
2 *6956:A 0
3 *6847:Q 0.000367305
4 *332:10 0.000819803
5 *6641:A0 *6724:A1 0.000224577
6 *6641:A0 *6724:B2 4.35567e-05
7 *6641:A0 *6851:RESET_B 7.53238e-05
8 *332:10 *6851:RESET_B 0.000123295
9 *6637:A0 *332:10 1.48591e-05
10 *6641:A1 *6641:A0 7.32272e-05
11 *6851:D *6641:A0 6.50734e-05
12 *6851:D *332:10 5.59013e-05
13 *6966:A *332:10 3.48139e-05
14 *303:23 *332:10 0.000170955
15 *311:18 *6641:A0 1.90002e-05
*RES
1 *6847:Q *332:10 19.675 
2 *332:10 *6956:A 13.8 
3 *332:10 *6641:A0 20.3 
*END

*D_NET *333 0.00283276
*CONN
*I *6634:A1 I *D sky130_fd_sc_hd__mux2_1
*I *6961:A I *D sky130_fd_sc_hd__dlygate4sd3_1
*I *6848:Q O *D sky130_fd_sc_hd__dfrtp_2
*CAP
1 *6634:A1 0.000205686
2 *6961:A 0.000645038
3 *6848:Q 0
4 *333:4 0.000850723
5 *6961:A *6695:A0 7.77652e-05
6 *6961:A *6725:A1 1.37644e-05
7 *6961:A *6725:B1 0
8 *6961:A *6830:RESET_B 0.000101545
9 *6961:A *6840:RESET_B 0
10 *6961:A *6884:RESET_B 4.70821e-05
11 *6961:A *475:124 0.000144773
12 *6961:A *477:10 0.000258407
13 *6961:A *477:18 5.37709e-05
14 uo_out[2] *6961:A 0.000254173
15 *6634:S *6634:A1 3.18676e-05
16 *6848:D *6961:A 0.000148167
*RES
1 *6848:Q *333:4 9.3 
2 *333:4 *6961:A 31.2107 
3 *333:4 *6634:A1 12.7286 
*END

*D_NET *334 0.00189204
*CONN
*I *6635:A1 I *D sky130_fd_sc_hd__mux2_1
*I *6959:A I *D sky130_fd_sc_hd__dlygate4sd3_1
*I *6849:Q O *D sky130_fd_sc_hd__dfrtp_2
*CAP
1 *6635:A1 0.000136324
2 *6959:A 0
3 *6849:Q 0.000460103
4 *334:10 0.000596427
5 *6635:A1 *6723:B2 0.00016384
6 *6635:A1 *6875:D 0
7 *334:10 *6723:B2 9.25014e-06
8 *334:10 *6875:D 0
9 *6635:A0 *6635:A1 7.73758e-05
10 *6635:A0 *334:10 1.99099e-05
11 *6640:A1 *334:10 0
12 *6849:D *334:10 0
13 *7029:A *334:10 0.000286228
14 *7030:A *6635:A1 0.00014258
*RES
1 *6849:Q *334:10 20.4964 
2 *334:10 *6959:A 13.8 
3 *334:10 *6635:A1 17.4071 
*END

*D_NET *335 0.0253572
*CONN
*I *6992:A I *D sky130_fd_sc_hd__dlygate4sd3_1
*I *6893:A I *D sky130_fd_sc_hd__buf_2
*I *6812:Q O *D sky130_fd_sc_hd__dfrtp_2
*CAP
1 *6992:A 0.000306279
2 *6893:A 0
3 *6812:Q 0
4 *335:16 0.00402911
5 *335:4 0.00433539
6 *6992:A *508:78 0.000361012
7 *335:16 *6698:A1 0
8 *335:16 *6878:RESET_B 0
9 *335:16 *6934:A 0
10 *335:16 *7025:A 0
11 *335:16 *411:147 0
12 *335:16 *441:14 0.00361473
13 *335:16 *480:12 0
14 *335:16 *502:45 0
15 *6618:A0 *335:16 0.00701257
16 *6831:D *335:16 3.47737e-05
17 *41:14 *335:16 0.000147085
18 *45:16 *335:16 0
19 *290:15 *335:16 0.00474925
20 *300:18 *335:16 0
21 *302:17 *335:16 7.91557e-05
22 *302:173 *335:16 0
23 *303:38 *6992:A 0.000298446
24 *303:51 *6992:A 0.00038945
*RES
1 *6812:Q *335:4 9.3 
2 *335:4 *335:16 47.1949 
3 *335:16 *6893:A 13.8 
4 *335:4 *6992:A 17.2643 
*END

*D_NET *336 0.00216932
*CONN
*I *6565:A I *D sky130_fd_sc_hd__and2_2
*I *7027:X O *D sky130_fd_sc_hd__clkdlybuf4s25_1
*CAP
1 *6565:A 0.000891468
2 *7027:X 0.000891468
3 *6565:A *6875:RESET_B 0
4 *6565:A *7020:A 0
5 *6636:A1 *6565:A 0.000134072
6 *6850:CLK *6565:A 5.93614e-05
7 *6882:CLK *6565:A 9.83388e-05
8 *6965:A *6565:A 3.69047e-06
9 *311:10 *6565:A 3.13743e-05
10 *311:18 *6565:A 5.95522e-05
*RES
1 *7027:X *6565:A 39.225 
*END

*D_NET *337 0.0253148
*CONN
*I *6720:B1 I *D sky130_fd_sc_hd__a22o_2
*I *6719:B1 I *D sky130_fd_sc_hd__a22o_2
*I *6726:B1 I *D sky130_fd_sc_hd__a22o_2
*I *6731:B1 I *D sky130_fd_sc_hd__a22o_2
*I *6722:B1 I *D sky130_fd_sc_hd__a22o_2
*I *6723:B1 I *D sky130_fd_sc_hd__a22o_2
*I *6730:B1 I *D sky130_fd_sc_hd__a22o_2
*I *6725:B1 I *D sky130_fd_sc_hd__a22o_2
*I *6717:B1 I *D sky130_fd_sc_hd__a22o_2
*I *6718:B1 I *D sky130_fd_sc_hd__a22o_2
*I *6911:X O *D sky130_fd_sc_hd__clkdlybuf4s25_1
*CAP
1 *6720:B1 0
2 *6719:B1 0.000128145
3 *6726:B1 0.00036499
4 *6731:B1 2.77603e-05
5 *6722:B1 5.53618e-05
6 *6723:B1 0.000318666
7 *6730:B1 0
8 *6725:B1 0.000168385
9 *6717:B1 0
10 *6718:B1 0
11 *6911:X 0.000383443
12 *337:105 0.000576542
13 *337:85 0.000554514
14 *337:77 0.000906724
15 *337:71 0.00081702
16 *337:67 0.000735428
17 *337:57 0.000711533
18 *337:46 0.000981605
19 *337:24 0.00279094
20 *337:22 0.00251009
21 *337:14 0.00107452
22 *6719:B1 *6719:A2 6.61058e-05
23 *6719:B1 *507:38 0
24 *6719:B1 *510:55 3.84085e-05
25 *6722:B1 *6722:B2 5.80706e-06
26 *6722:B1 *359:89 5.80706e-06
27 *6723:B1 *6560:C 0
28 *6723:B1 *6730:A2 3.99614e-06
29 *6723:B1 *359:91 2.59355e-05
30 *6723:B1 *359:99 5.91367e-05
31 *6723:B1 *432:18 0.00014789
32 *6723:B1 *513:83 0.000286934
33 *6725:B1 *6717:A2 4.30868e-05
34 *6725:B1 *6717:B2 5.01411e-05
35 *6725:B1 *6725:A1 8.66186e-05
36 *6725:B1 *6840:RESET_B 0.000245337
37 *6726:B1 *514:34 0.00035077
38 *6731:B1 *6731:A1 1.33343e-05
39 *6731:B1 *359:59 0
40 *6731:B1 *359:79 2.4502e-05
41 *6731:B1 *478:39 1.24368e-05
42 *337:14 *6720:A1 0.000293236
43 *337:14 *6720:A2 2.14658e-05
44 *337:14 *6720:B2 9.22103e-06
45 *337:14 *6843:RESET_B 0
46 *337:14 *348:18 0
47 *337:22 *6720:B2 3.4879e-05
48 *337:22 *6732:A1 0.000199133
49 *337:22 *348:47 0
50 *337:22 *423:71 8.6229e-06
51 *337:22 *505:81 0
52 *337:22 *513:59 0.000875903
53 *337:24 *6719:A2 3.02745e-05
54 *337:24 *6936:A 1.92789e-05
55 *337:24 *7024:A 9.24825e-05
56 *337:24 *440:76 0.000819735
57 *337:24 *507:38 0.000169615
58 *337:46 *6618:S1 2.06827e-05
59 *337:46 *359:47 4.1331e-06
60 *337:46 *441:14 0
61 *337:46 *475:110 0.000755616
62 *337:46 *477:18 0.000570092
63 *337:46 *478:45 4.00658e-06
64 *337:46 *510:55 0.000158606
65 *337:57 *6731:A1 0.000227539
66 *337:57 *359:59 0.000145083
67 *337:67 *6618:S1 0
68 *337:67 *6731:A1 1.22049e-05
69 *337:67 *359:59 0.000228285
70 *337:67 *359:79 3.55679e-05
71 *337:67 *514:34 3.52194e-05
72 *337:71 *477:18 0.00011309
73 *337:71 *478:39 0.000327719
74 *337:85 *6559:C 0.000813613
75 *337:85 *6717:A2 2.83284e-06
76 *337:85 *6717:B2 0.000118991
77 *337:85 *477:18 0.00110804
78 *337:105 *6723:A2 3.23658e-05
79 *337:105 *6854:RESET_B 0.000145161
80 *337:105 *7038:A 6.13479e-05
81 *337:105 *475:124 5.45686e-05
82 *337:105 *503:55 5.00087e-06
83 *6618:A2 *337:46 2.95664e-05
84 *6634:A0 *6723:B1 0
85 *6634:S *6723:B1 0
86 *6640:A1 *6726:B1 0.000253876
87 *6812:D *337:22 0
88 *6840:D *337:85 0
89 *6842:D *6719:B1 0.000185124
90 *6842:D *337:46 0.000399519
91 *6844:D *337:24 0.000666739
92 *6845:CLK *6723:B1 1.9643e-05
93 *6845:CLK *337:105 4.32834e-05
94 *6845:D *337:71 0.000186669
95 *6845:D *337:77 0.000359997
96 *6845:D *337:105 0
97 *6854:D *337:67 5.33005e-05
98 *6911:A *337:14 0
99 *6914:A *337:22 0.000312215
100 *6957:A *337:22 6.05161e-06
101 *6961:A *6725:B1 0
102 *6963:A *6726:B1 9.71371e-05
103 *6963:A *337:57 9.71197e-05
104 *6963:A *337:67 1.52978e-05
105 *6966:A *337:22 0
106 *3:16 *337:22 0
107 *41:14 *337:46 0.00045791
108 *272:10 *337:105 0
109 *290:15 *337:46 5.7903e-06
110 *302:17 *337:14 0
111 *303:23 *337:22 0
*RES
1 *6911:X *337:14 24.3714 
2 *337:14 *337:22 24.7679 
3 *337:22 *337:24 26 
4 *337:24 *337:46 24.676 
5 *337:46 *6718:B1 9.3 
6 *337:46 *337:57 8.33929 
7 *337:57 *337:67 9.08929 
8 *337:67 *337:71 7.83929 
9 *337:71 *337:77 8.49107 
10 *337:77 *337:85 9.17696 
11 *337:85 *6717:B1 13.8 
12 *337:85 *6725:B1 18.7821 
13 *337:77 *337:105 9.9375 
14 *337:105 *6730:B1 9.3 
15 *337:105 *6723:B1 25.9964 
16 *337:71 *6722:B1 19.3357 
17 *337:67 *6731:B1 10.2643 
18 *337:57 *6726:B1 23.3357 
19 *337:24 *6719:B1 21.6393 
20 *337:14 *6720:B1 9.3 
*END

*D_NET *338 0.000134457
*CONN
*I *6697:A1 I *D sky130_fd_sc_hd__mux2_1
*I *6948:X O *D sky130_fd_sc_hd__dlygate4sd3_1
*CAP
1 *6697:A1 5.32738e-05
2 *6948:X 5.32738e-05
3 *6697:A1 *6948:A 0
4 *7588:A *6697:A1 2.79092e-05
*RES
1 *6948:X *6697:A1 28.6357 
*END

*D_NET *339 0.000945492
*CONN
*I *6699:A1 I *D sky130_fd_sc_hd__mux2_1
*I *6949:X O *D sky130_fd_sc_hd__dlygate4sd3_1
*CAP
1 *6699:A1 9.37513e-05
2 *6949:X 9.37513e-05
3 *6699:A1 *6695:A1 0.000133841
4 *6699:A1 *6699:A0 0.000184745
5 *6699:A1 *478:39 0.000439403
*RES
1 *6949:X *6699:A1 22.8321 
*END

*D_NET *340 0.00275523
*CONN
*I *6695:A1 I *D sky130_fd_sc_hd__mux2_1
*I *6950:X O *D sky130_fd_sc_hd__dlygate4sd3_1
*CAP
1 *6695:A1 0.000641869
2 *6950:X 0.000641869
3 *6695:A1 *6559:C 0.000135217
4 *6695:A1 *6695:A0 5.71472e-05
5 *6695:A1 *6699:A0 0.000186393
6 *6695:A1 *475:126 0.000316875
7 *6695:A1 *475:142 2.84109e-05
8 *6695:A1 *478:39 7.15905e-06
9 *6699:A1 *6695:A1 0.000133841
10 *6830:D *6695:A1 5.65955e-05
11 *6834:D *6695:A1 0.00032592
12 *6949:A *6695:A1 9.69696e-05
13 *42:28 *6695:A1 0.00012697
*RES
1 *6950:X *6695:A1 42.975 
*END

*D_NET *341 0.000508758
*CONN
*I *6723:A1 I *D sky130_fd_sc_hd__a22o_2
*I *6951:X O *D sky130_fd_sc_hd__dlygate4sd3_1
*CAP
1 *6723:A1 0.000167354
2 *6951:X 0.000167354
3 *6723:A1 *432:18 0.000100823
4 *6634:S *6723:A1 0
5 *6951:A *6723:A1 7.32272e-05
*RES
1 *6951:X *6723:A1 30.2964 
*END

*D_NET *342 0.00147262
*CONN
*I *6717:A1 I *D sky130_fd_sc_hd__a22o_2
*I *6952:X O *D sky130_fd_sc_hd__dlygate4sd3_1
*CAP
1 *6717:A1 0.000413668
2 *6952:X 0.000413668
3 *6717:A1 *6717:A2 3.046e-05
4 *6717:A1 *412:149 0.000140133
5 *6717:A1 *475:124 0.000400206
6 *319:8 *6717:A1 7.44888e-05
*RES
1 *6952:X *6717:A1 36.4214 
*END

*D_NET *343 0.001604
*CONN
*I *6721:A1 I *D sky130_fd_sc_hd__a22o_2
*I *6953:X O *D sky130_fd_sc_hd__dlygate4sd3_1
*CAP
1 *6721:A1 0.000342591
2 *6953:X 0.000342591
3 *6721:A1 *6721:A2 0.000160879
4 *6721:A1 *6729:B2 9.67203e-05
5 *6721:A1 *6812:RESET_B 0.000354105
6 *6721:A1 *348:47 0.000170379
7 *6721:A1 *348:51 5.71472e-05
8 *6721:A1 *440:76 3.82411e-05
9 *41:14 *6721:A1 4.13465e-05
*RES
1 *6953:X *6721:A1 34.5286 
*END

*D_NET *344 0.0016796
*CONN
*I *6719:A1 I *D sky130_fd_sc_hd__a22o_2
*I *6954:X O *D sky130_fd_sc_hd__dlygate4sd3_1
*CAP
1 *6719:A1 0.000627191
2 *6954:X 0.000627191
3 *6719:A1 *6717:B2 8.02819e-05
4 *6719:A1 *359:41 0
5 *6719:A1 *422:85 7.92229e-06
6 *6719:A1 *504:76 0
7 *6719:A1 *507:38 2.83284e-06
8 *6719:A1 *510:55 1.90936e-05
9 *6636:A0 *6719:A1 1.59373e-05
10 *6850:D *6719:A1 0.0002302
11 *6954:A *6719:A1 5.20751e-05
12 *310:10 *6719:A1 2.38651e-06
13 *310:14 *6719:A1 1.44895e-05
*RES
1 *6954:X *6719:A1 36.5643 
*END

*D_NET *345 0.00143321
*CONN
*I *6729:A1 I *D sky130_fd_sc_hd__a22o_2
*I *6955:X O *D sky130_fd_sc_hd__dlygate4sd3_1
*CAP
1 *6729:A1 0.000301144
2 *6955:X 0.000301144
3 *41:14 *6729:A1 0.000281186
4 *311:18 *6729:A1 0.000268403
5 *312:20 *6729:A1 0.000281329
*RES
1 *6955:X *6729:A1 33.9571 
*END

*D_NET *346 0.00117894
*CONN
*I *6724:A1 I *D sky130_fd_sc_hd__a22o_2
*I *6956:X O *D sky130_fd_sc_hd__dlygate4sd3_1
*CAP
1 *6724:A1 0.00012127
2 *6956:X 0.00012127
3 *6724:A1 *6724:A2 3.046e-05
4 *6724:A1 *6724:B2 0.000448959
5 *6724:A1 *348:35 0.000232399
6 *6641:A0 *6724:A1 0.000224577
*RES
1 *6956:X *6724:A1 23.6536 
*END

*D_NET *347 0.00175217
*CONN
*I *6732:A1 I *D sky130_fd_sc_hd__a22o_2
*I *6957:X O *D sky130_fd_sc_hd__dlygate4sd3_1
*CAP
1 *6732:A1 0.00042783
2 *6957:X 0.00042783
3 *6732:A1 *6732:A2 0.000118086
4 *6732:A1 *6812:RESET_B 7.42892e-05
5 *6732:A1 *505:81 0.000390559
6 *6957:A *6732:A1 2.59355e-05
7 *6966:A *6732:A1 8.85048e-05
8 *337:22 *6732:A1 0.000199133
*RES
1 *6957:X *6732:A1 36.4929 
*END

*D_NET *348 0.0143295
*CONN
*I *6724:B1 I *D sky130_fd_sc_hd__a22o_2
*I *6732:B1 I *D sky130_fd_sc_hd__a22o_2
*I *6729:B1 I *D sky130_fd_sc_hd__a22o_2
*I *6721:B1 I *D sky130_fd_sc_hd__a22o_2
*I *6727:B1 I *D sky130_fd_sc_hd__a22o_2
*I *6728:B1 I *D sky130_fd_sc_hd__a22o_2
*I *6912:X O *D sky130_fd_sc_hd__clkdlybuf4s25_1
*CAP
1 *6724:B1 0
2 *6732:B1 0
3 *6729:B1 0.000323213
4 *6721:B1 0
5 *6727:B1 0.000478646
6 *6728:B1 0
7 *6912:X 0.00148095
8 *348:51 0.000567112
9 *348:47 0.00114722
10 *348:41 0.00124258
11 *348:35 0.00140953
12 *348:18 0.00238344
13 *6727:B1 *6563:A_N 7.59996e-05
14 *6727:B1 *6718:B2 0.000128694
15 *6727:B1 *423:10 0.000227532
16 *6727:B1 *440:55 0.000341033
17 *6727:B1 *440:76 0.000625535
18 *6729:B1 *6729:B2 0.000102665
19 *6729:B1 *513:59 0.000160816
20 *348:18 *6720:A1 0.000114914
21 *348:18 *6728:A1 5.52238e-05
22 *348:18 *6728:A2 1.50923e-05
23 *348:18 *6741:B2 0.00018345
24 *348:18 *6843:RESET_B 1.36251e-05
25 *348:18 *440:91 0
26 *348:18 *512:73 3.77018e-05
27 *348:35 *6724:B2 0.000166485
28 *348:35 *6728:A1 2.14757e-05
29 *348:35 *6851:RESET_B 0.000102545
30 *348:35 *511:55 0.000115825
31 *348:35 *512:73 2.24079e-05
32 *348:41 *6732:A2 0
33 *348:41 *370:29 5.01876e-06
34 *348:41 *370:31 1.53725e-05
35 *348:47 *6721:A2 6.57815e-05
36 *348:47 *440:76 0.000198619
37 *348:47 *475:110 6.1041e-05
38 *348:51 *440:76 1.16111e-05
39 *6638:A0 *6729:B1 0.000165278
40 *6641:A1 *348:41 0.000381367
41 *6641:S *348:35 0
42 *6641:S *348:41 0
43 *6721:A1 *348:47 0.000170379
44 *6721:A1 *348:51 5.71472e-05
45 *6724:A1 *348:35 0.000232399
46 *6804:CLK *348:18 0.00075137
47 *6847:D *348:41 9.47456e-05
48 *6851:D *348:35 0
49 *6855:CLK *6729:B1 8.86084e-05
50 *6855:D *348:41 0
51 *6911:A *348:18 0.00017816
52 *6966:A *348:35 0
53 *6966:A *348:41 0
54 *6967:A *348:18 0.000123673
55 *3:16 *348:35 0
56 *45:16 *348:47 0
57 *266:14 *348:18 6.26177e-05
58 *312:29 *348:35 0.000122565
59 *337:14 *348:18 0
60 *337:22 *348:47 0
*RES
1 *6912:X *348:18 40.0143 
2 *348:18 *6728:B1 9.3 
3 *348:18 *348:35 19.125 
4 *348:35 *348:41 9.39286 
5 *348:41 *348:47 14.5893 
6 *348:47 *348:51 1.375 
7 *348:51 *6727:B1 30.4964 
8 *348:51 *6721:B1 9.3 
9 *348:47 *6729:B1 25.425 
10 *348:41 *6732:B1 13.8 
11 *348:35 *6724:B1 13.8 
*END

*D_NET *349 0.000356437
*CONN
*I *6722:A1 I *D sky130_fd_sc_hd__a22o_2
*I *6958:X O *D sky130_fd_sc_hd__dlygate4sd3_1
*CAP
1 *6722:A1 3.50847e-05
2 *6958:X 3.50847e-05
3 *6722:A1 *478:39 0.000100625
4 *6958:A *6722:A1 0.000185643
*RES
1 *6958:X *6722:A1 20.3679 
*END

*D_NET *350 0.00100523
*CONN
*I *6726:A1 I *D sky130_fd_sc_hd__a22o_2
*I *6959:X O *D sky130_fd_sc_hd__dlygate4sd3_1
*CAP
1 *6726:A1 0.000272033
2 *6959:X 0.000272033
3 *6726:A1 *6723:B2 3.40886e-05
4 *6726:A1 *6726:A2 0.000411475
5 *6635:A0 *6726:A1 1.56e-05
*RES
1 *6959:X *6726:A1 23.6536 
*END

*D_NET *351 0.00117529
*CONN
*I *6730:A1 I *D sky130_fd_sc_hd__a22o_2
*I *6960:X O *D sky130_fd_sc_hd__dlygate4sd3_1
*CAP
1 *6730:A1 0.000218214
2 *6960:X 0.000218214
3 *6730:A1 *6730:A2 3.046e-05
4 *6730:A1 *6935:A 0.000290271
5 *6730:A1 *359:89 8.4205e-05
6 *6730:A1 *359:91 3.82411e-05
7 *6730:A1 *513:83 0.000265447
8 *6639:A0 *6730:A1 0
9 *6846:CLK *6730:A1 1.02504e-05
10 *6853:D *6730:A1 1.99877e-05
*RES
1 *6960:X *6730:A1 33.9571 
*END

*D_NET *352 0.000956044
*CONN
*I *6725:A1 I *D sky130_fd_sc_hd__a22o_2
*I *6961:X O *D sky130_fd_sc_hd__dlygate4sd3_1
*CAP
1 *6725:A1 0.000247123
2 *6961:X 0.000247123
3 *6725:A1 *6717:B2 6.76337e-05
4 *6725:A1 *359:99 0
5 *6725:A1 *477:10 8.45453e-05
6 *6725:A1 *513:83 0.000104263
7 *6725:B1 *6725:A1 8.66186e-05
8 *6840:D *6725:A1 0.000104974
9 *6961:A *6725:A1 1.37644e-05
*RES
1 *6961:X *6725:A1 33.8679 
*END

*D_NET *353 0.00276905
*CONN
*I *6718:A1 I *D sky130_fd_sc_hd__a22o_2
*I *6962:X O *D sky130_fd_sc_hd__dlygate4sd3_1
*CAP
1 *6718:A1 0.000936765
2 *6962:X 0.000936765
3 *6718:A1 *6618:S0 4.39404e-05
4 *6718:A1 *359:47 7.42729e-05
5 *6718:A1 *359:59 3.5285e-05
6 *1114:DIODE *6718:A1 0.000479542
7 *6841:D *6718:A1 0.000173226
8 *6842:D *6718:A1 8.92551e-05
*RES
1 *6962:X *6718:A1 42.4571 
*END

*D_NET *354 0.00122144
*CONN
*I *6731:A1 I *D sky130_fd_sc_hd__a22o_2
*I *6963:X O *D sky130_fd_sc_hd__dlygate4sd3_1
*CAP
1 *6731:A1 0.000401168
2 *6963:X 0.000401168
3 *6731:A1 *359:59 9.07151e-05
4 *6731:A1 *359:79 5.2458e-05
5 *6731:B1 *6731:A1 1.33343e-05
6 *6963:A *6731:A1 2.28499e-05
7 *337:57 *6731:A1 0.000227539
8 *337:67 *6731:A1 1.22049e-05
*RES
1 *6963:X *6731:A1 24.2116 
*END

*D_NET *355 0.000930621
*CONN
*I *6707:A1 I *D sky130_fd_sc_hd__a21o_2
*I *6964:X O *D sky130_fd_sc_hd__dlygate4sd3_1
*CAP
1 *6707:A1 0.000251347
2 *6964:X 0.000251347
3 *6707:A1 *6644:B 0.000388651
4 *6707:B1 *6707:A1 3.92757e-05
*RES
1 *6964:X *6707:A1 31.6357 
*END

*D_NET *356 0.00206169
*CONN
*I *6727:A1 I *D sky130_fd_sc_hd__a22o_2
*I *6965:X O *D sky130_fd_sc_hd__dlygate4sd3_1
*CAP
1 *6727:A1 0.000554807
2 *6965:X 0.000554807
3 *6727:A1 *6563:A_N 0.000142725
4 *6727:A1 *440:55 8.42334e-05
5 *6636:S *6727:A1 0.000103267
6 *155:12 *6727:A1 0
7 *311:18 *6727:A1 0.000621854
*RES
1 *6965:X *6727:A1 37.2429 
*END

*D_NET *357 0.00208663
*CONN
*I *6728:A1 I *D sky130_fd_sc_hd__a22o_2
*I *6966:X O *D sky130_fd_sc_hd__dlygate4sd3_1
*CAP
1 *6728:A1 0.000707464
2 *6966:X 0.000707464
3 *6728:A1 *6812:RESET_B 3.61629e-06
4 *6728:A1 *370:10 0
5 *6728:A1 *501:103 0.000144556
6 *6728:A1 *505:81 1.24368e-05
7 *6728:A1 *512:73 9.71197e-05
8 *6843:CLK *6728:A1 9.50426e-05
9 *6914:A *6728:A1 0
10 *3:16 *6728:A1 2.24063e-05
11 *303:38 *6728:A1 0.000219828
12 *348:18 *6728:A1 5.52238e-05
13 *348:35 *6728:A1 2.14757e-05
*RES
1 *6966:X *6728:A1 39.5821 
*END

*D_NET *358 0.00250719
*CONN
*I *6720:A1 I *D sky130_fd_sc_hd__a22o_2
*I *6967:X O *D sky130_fd_sc_hd__dlygate4sd3_1
*CAP
1 *6720:A1 0.000322958
2 *6967:X 0.000322958
3 *6720:A1 *6720:A2 7.32535e-05
4 *6720:A1 *6720:B2 4.1325e-05
5 *6720:A1 *6843:RESET_B 4.96155e-05
6 *6720:A1 *501:103 0.000187951
7 *6637:A0 *6720:A1 9.13624e-05
8 *6843:D *6720:A1 0.000164204
9 *6911:A *6720:A1 0.000574073
10 *6967:A *6720:A1 0.000271345
11 *337:14 *6720:A1 0.000293236
12 *348:18 *6720:A1 0.000114914
*RES
1 *6967:X *6720:A1 40.3857 
*END

*D_NET *359 0.0273137
*CONN
*I *6720:A2 I *D sky130_fd_sc_hd__a22o_2
*I *6726:A2 I *D sky130_fd_sc_hd__a22o_2
*I *6718:A2 I *D sky130_fd_sc_hd__a22o_2
*I *6731:A2 I *D sky130_fd_sc_hd__a22o_2
*I *6722:A2 I *D sky130_fd_sc_hd__a22o_2
*I *6730:A2 I *D sky130_fd_sc_hd__a22o_2
*I *6723:A2 I *D sky130_fd_sc_hd__a22o_2
*I *6717:A2 I *D sky130_fd_sc_hd__a22o_2
*I *6725:A2 I *D sky130_fd_sc_hd__a22o_2
*I *6719:A2 I *D sky130_fd_sc_hd__a22o_2
*I *6913:X O *D sky130_fd_sc_hd__clkdlybuf4s25_1
*CAP
1 *6720:A2 0.000142009
2 *6726:A2 0.000279026
3 *6718:A2 0
4 *6731:A2 1.13807e-06
5 *6722:A2 0
6 *6730:A2 2.71301e-05
7 *6723:A2 0.000327146
8 *6717:A2 0.000239486
9 *6725:A2 0
10 *6719:A2 0.000255063
11 *6913:X 0.00015953
12 *359:99 0.000730093
13 *359:91 0.000900844
14 *359:89 0.000511197
15 *359:79 0.000817405
16 *359:59 0.000722257
17 *359:47 0.000609644
18 *359:41 0.0019419
19 *359:16 0.00250188
20 *359:8 0.00119044
21 *6717:A2 *6840:RESET_B 0.000126375
22 *6717:A2 *475:124 3.23834e-05
23 *6719:A2 *7024:A 0.000360311
24 *6719:A2 *504:76 7.54239e-05
25 *6719:A2 *510:55 0.000248841
26 *6720:A2 *6720:B2 0.00015003
27 *6723:A2 *6723:B2 3.21334e-05
28 *6723:A2 *6935:A 0
29 *6723:A2 *7038:A 0
30 *6723:A2 *432:18 2.60251e-05
31 *6723:A2 *503:55 3.39451e-05
32 *6726:A2 *6723:B2 0.000160803
33 *6726:A2 *6849:RESET_B 0
34 *6726:A2 *6875:D 0.000268536
35 *359:16 *6717:B2 0.00388376
36 *359:16 *6718:B2 0.000292286
37 *359:16 *6720:B2 8.79856e-06
38 *359:16 *510:55 0.00343426
39 *359:41 *7024:A 0.000151181
40 *359:41 *503:55 0.00205597
41 *359:47 *6618:S1 0
42 *359:47 *6841:RESET_B 0
43 *359:47 *6849:RESET_B 0
44 *359:47 *441:14 0.000294278
45 *359:79 *6731:B2 7.17997e-05
46 *359:79 *478:39 0.000492445
47 *359:89 *6722:B2 0
48 *359:89 *7038:A 0
49 *359:89 *478:39 3.52408e-05
50 *359:89 *513:83 4.8843e-05
51 *359:91 *513:83 1.02936e-05
52 *359:99 *513:83 0.000326116
53 uo_out[5] *6723:A2 0
54 *6560:B *359:99 5.33005e-05
55 *6635:A0 *6726:A2 6.94952e-05
56 *6636:A0 *359:41 1.90936e-05
57 *6639:A0 *359:89 4.83969e-05
58 *6639:A1 *6723:A2 1.17968e-05
59 *6717:A1 *6717:A2 3.046e-05
60 *6718:A1 *359:47 7.42729e-05
61 *6718:A1 *359:59 3.5285e-05
62 *6719:A1 *359:41 0
63 *6719:B1 *6719:A2 6.61058e-05
64 *6720:A1 *6720:A2 7.32535e-05
65 *6722:B1 *359:89 5.80706e-06
66 *6723:B1 *6730:A2 3.99614e-06
67 *6723:B1 *359:91 2.59355e-05
68 *6723:B1 *359:99 5.91367e-05
69 *6725:A1 *359:99 0
70 *6725:B1 *6717:A2 4.30868e-05
71 *6726:A1 *6726:A2 0.000411475
72 *6730:A1 *6730:A2 3.046e-05
73 *6730:A1 *359:89 8.4205e-05
74 *6730:A1 *359:91 3.82411e-05
75 *6731:A1 *359:59 9.07151e-05
76 *6731:A1 *359:79 5.2458e-05
77 *6731:B1 *359:59 0
78 *6731:B1 *359:79 2.4502e-05
79 *6843:D *6720:A2 2.03618e-05
80 *6845:CLK *6723:A2 9.64979e-05
81 *6848:D *6717:A2 5.54183e-05
82 *6853:D *6723:A2 0
83 *6853:D *359:89 2.14302e-05
84 *6854:D *359:79 5.55405e-05
85 *6952:A *359:99 0.000230475
86 *6958:A *359:79 4.34013e-05
87 *6958:A *359:89 0.000109044
88 *6963:A *359:59 0.00014183
89 *7029:A *359:41 0
90 *7031:A *6726:A2 0.000192479
91 *7031:A *359:41 0
92 *7031:A *359:47 1.94135e-05
93 *7035:A *6723:A2 1.76727e-05
94 *154:35 *6717:A2 1.89507e-06
95 *265:12 *359:8 0.00022459
96 *302:17 *6720:A2 0
97 *312:14 *359:16 0.000121926
98 *316:14 *6723:A2 6.74815e-05
99 *319:8 *6717:A2 0
100 *323:10 *6723:A2 6.65398e-05
101 *337:14 *6720:A2 2.14658e-05
102 *337:24 *6719:A2 3.02745e-05
103 *337:46 *359:47 4.1331e-06
104 *337:57 *359:59 0.000145083
105 *337:67 *359:59 0.000228285
106 *337:67 *359:79 3.55679e-05
107 *337:85 *6717:A2 2.83284e-06
108 *337:105 *6723:A2 3.23658e-05
*RES
1 *6913:X *359:8 15.9786 
2 *359:8 *359:16 13.501 
3 *359:16 *6719:A2 20.6304 
4 *359:16 *359:41 13.3243 
5 *359:41 *359:47 10.3482 
6 *359:47 *359:59 7.96429 
7 *359:59 *359:79 17.7946 
8 *359:79 *359:89 17.0089 
9 *359:89 *359:91 1.76786 
10 *359:91 *359:99 9.80357 
11 *359:99 *6725:A2 9.3 
12 *359:99 *6717:A2 23.5857 
13 *359:91 *6723:A2 24.8357 
14 *359:89 *6730:A2 10.0321 
15 *359:79 *6722:A2 9.3 
16 *359:59 *6731:A2 9.43393 
17 *359:47 *6718:A2 9.3 
18 *359:41 *6726:A2 22.6304 
19 *359:8 *6720:A2 16.8714 
*END

*D_NET *360 0.00199007
*CONN
*I *6708:B2 I *D sky130_fd_sc_hd__o22a_2
*I *6968:X O *D sky130_fd_sc_hd__dlygate4sd3_1
*CAP
1 *6708:B2 0.0005979
2 *6968:X 0.0005979
3 *6708:B2 *6706:C 0
4 *6708:B2 *6968:A 0.000273269
5 *6708:B2 *6980:A 1.5424e-05
6 *6708:B2 *401:107 0.00040381
7 *6708:B2 *507:10 0
8 *6708:B1 *6708:B2 3.93247e-05
9 *6836:CLK *6708:B2 0
10 *6836:D *6708:B2 6.24386e-05
11 *6858:D *6708:B2 0
*RES
1 *6968:X *6708:B2 39.4571 
*END

*D_NET *361 0.00045702
*CONN
*I *6645:A1 I *D sky130_fd_sc_hd__mux2_1
*I *6969:X O *D sky130_fd_sc_hd__dlygate4sd3_1
*CAP
1 *6645:A1 0.000207382
2 *6969:X 0.000207382
3 *317:42 *6645:A1 3.08664e-05
4 *317:50 *6645:A1 1.13883e-05
*RES
1 *6969:X *6645:A1 30.725 
*END

*D_NET *362 0.00180747
*CONN
*I *6694:A2 I *D sky130_fd_sc_hd__a31o_2
*I *6692:B2 I *D sky130_fd_sc_hd__o22a_2
*I *6970:X O *D sky130_fd_sc_hd__dlygate4sd3_1
*CAP
1 *6694:A2 0.000349825
2 *6692:B2 0.000233295
3 *6970:X 0
4 *362:4 0.000583119
5 *6692:B2 *6692:A1 9.25014e-06
6 *6692:B2 *6829:RESET_B 0
7 *6692:B2 *1090:25 5.03772e-05
8 *6694:A2 *6606:C 5.58941e-05
9 *6694:A2 *6829:RESET_B 0.000206319
10 *6690:A1 *6692:B2 0.000114925
11 *6692:B1 *6692:B2 5.33433e-05
12 *6829:CLK *6692:B2 1.15281e-05
13 *6829:CLK *6694:A2 3.05446e-05
14 *195:10 *6694:A2 0
15 *222:12 *6692:B2 3.24051e-05
16 *252:12 *6692:B2 7.6644e-05
*RES
1 *6970:X *362:4 9.3 
2 *362:4 *6692:B2 22.8 
3 *362:4 *6694:A2 23.8536 
*END

*D_NET *363 0.000593712
*CONN
*I *6744:B2 I *D sky130_fd_sc_hd__a22o_2
*I *6971:X O *D sky130_fd_sc_hd__dlygate4sd3_1
*CAP
1 *6744:B2 0.000166823
2 *6971:X 0.000166823
3 *6744:B2 *6744:B1 5.28071e-05
4 *6744:B2 *6748:B1 2.89016e-05
5 *6744:B2 *6971:A 5.33005e-05
6 *6744:B2 *505:24 0.000125057
*RES
1 *6971:X *6744:B2 22.4393 
*END

*D_NET *364 0.000239763
*CONN
*I *6748:B2 I *D sky130_fd_sc_hd__a22o_2
*I *6972:X O *D sky130_fd_sc_hd__dlygate4sd3_1
*CAP
1 *6748:B2 9.36677e-05
2 *6972:X 9.36677e-05
3 *6748:B2 *6748:A2 0
4 *6748:B2 *6748:B1 5.24274e-05
5 *302:253 *6748:B2 0
*RES
1 *6972:X *6748:B2 29.2429 
*END

*D_NET *365 0.00164999
*CONN
*I *6740:B2 I *D sky130_fd_sc_hd__a22o_2
*I *6973:X O *D sky130_fd_sc_hd__dlygate4sd3_1
*CAP
1 *6740:B2 0.000471362
2 *6973:X 0.000471362
3 *6740:B2 *6567:A 2.59355e-05
4 *6740:B2 *6740:A1 5.33005e-05
5 *6740:B2 *6754:A 7.77751e-05
6 *6740:B2 *401:10 0
7 *6740:B2 *403:61 0.000123137
8 *6740:B2 *528:26 5.33072e-05
9 *6769:CLK *6740:B2 0.000363528
10 *311:87 *6740:B2 1.02821e-05
*RES
1 *6973:X *6740:B2 35.2429 
*END

*D_NET *366 0.00249852
*CONN
*I *6736:B2 I *D sky130_fd_sc_hd__a22o_2
*I *6974:X O *D sky130_fd_sc_hd__dlygate4sd3_1
*CAP
1 *6736:B2 0.000785
2 *6974:X 0.000785
3 *6736:B2 *6569:B 0.000268409
4 *6736:B2 *6736:B1 1.41029e-05
5 *6736:B2 *6974:A 0.000276211
6 *6736:B2 *396:130 0.000100294
7 *6736:B2 *433:21 0.000129868
8 *6736:B2 *508:78 0.000103253
9 *306:21 *6736:B2 3.63775e-05
*RES
1 *6974:X *6736:B2 39.225 
*END

*D_NET *367 0.00256114
*CONN
*I *6747:B2 I *D sky130_fd_sc_hd__a22o_2
*I *6975:X O *D sky130_fd_sc_hd__dlygate4sd3_1
*CAP
1 *6747:B2 0.000843034
2 *6975:X 0.000843034
3 *6747:B2 *6734:B1 0
4 *6747:B2 *6747:A1 2.83284e-06
5 *6747:B2 *396:20 1.69961e-05
6 *6747:B2 *396:130 0.000315152
7 *6747:B2 *430:52 0.000483795
8 *6747:B2 *514:20 5.62934e-05
9 *186:42 *6747:B2 0
*RES
1 *6975:X *6747:B2 39.225 
*END

*D_NET *368 0.000471294
*CONN
*I *6662:B2 I *D sky130_fd_sc_hd__a32o_2
*I *6976:X O *D sky130_fd_sc_hd__dlygate4sd3_1
*CAP
1 *6662:B2 0.000156279
2 *6976:X 0.000156279
3 *6662:B2 *6662:B1 0.000158736
4 *6662:B2 *6976:A 0
5 *6662:B2 *434:44 0
*RES
1 *6976:X *6662:B2 31.3679 
*END

*D_NET *369 0.00101616
*CONN
*I *6734:B2 I *D sky130_fd_sc_hd__a22o_2
*I *6977:X O *D sky130_fd_sc_hd__dlygate4sd3_1
*CAP
1 *6734:B2 0.000287658
2 *6977:X 0.000287658
3 *6734:B2 *6734:B1 0.000292806
4 *6734:B2 *6761:A 3.51442e-05
5 *6734:B2 *6790:RESET_B 1.20741e-05
6 *6734:B2 *6857:RESET_B 0.000100823
7 *6734:B2 *506:27 0
8 *6857:D *6734:B2 0
*RES
1 *6977:X *6734:B2 33.3321 
*END

*D_NET *370 0.0101878
*CONN
*I *6724:A2 I *D sky130_fd_sc_hd__a22o_2
*I *6729:A2 I *D sky130_fd_sc_hd__a22o_2
*I *6721:A2 I *D sky130_fd_sc_hd__a22o_2
*I *6727:A2 I *D sky130_fd_sc_hd__a22o_2
*I *6732:A2 I *D sky130_fd_sc_hd__a22o_2
*I *6728:A2 I *D sky130_fd_sc_hd__a22o_2
*I *6914:X O *D sky130_fd_sc_hd__clkdlybuf4s25_1
*CAP
1 *6724:A2 8.89619e-06
2 *6729:A2 4.30445e-05
3 *6721:A2 0.000271735
4 *6727:A2 0.000709297
5 *6732:A2 0.000129842
6 *6728:A2 1.07327e-05
7 *6914:X 0.000387547
8 *370:63 0.00031478
9 *370:46 0.0013206
10 *370:31 0.000975749
11 *370:29 0.00133135
12 *370:10 0.00148613
13 *6721:A2 *440:76 0.000289375
14 *6724:A2 *6724:B2 3.046e-05
15 *6727:A2 *6844:RESET_B 7.40229e-05
16 *6727:A2 *513:59 0.00015676
17 *6728:A2 *512:73 3.046e-05
18 *6729:A2 *513:59 1.46968e-05
19 *6732:A2 *6812:RESET_B 6.6922e-05
20 *370:10 *513:49 9.87983e-06
21 *370:29 *6727:B2 0
22 *370:46 *513:59 4.61474e-05
23 *6641:A1 *370:46 0.000146523
24 *6721:A1 *6721:A2 0.000160879
25 *6724:A1 *6724:A2 3.046e-05
26 *6728:A1 *370:10 0
27 *6732:A1 *6732:A2 0.000118086
28 *6843:CLK *370:10 9.50426e-05
29 *6843:CLK *370:29 4.22135e-06
30 *6847:D *370:31 6.26466e-05
31 *6852:CLK *6727:A2 1.36251e-05
32 *6852:D *6729:A2 5.4826e-05
33 *6855:CLK *6727:A2 0.000514153
34 *6855:CLK *6729:A2 3.02036e-05
35 *6855:CLK *370:46 7.77751e-05
36 *6914:A *370:10 7.34161e-05
37 *6966:A *6732:A2 0.000138998
38 *6966:A *370:29 1.90936e-05
39 *6966:A *370:31 0.000443293
40 *3:16 *370:29 0
41 *41:14 *6721:A2 0.000297509
42 *41:14 *6729:A2 7.03479e-05
43 *45:16 *6721:A2 0
44 *45:16 *6729:A2 0
45 *302:17 *370:10 0
46 *310:32 *6727:A2 2.70591e-05
47 *348:18 *6728:A2 1.50923e-05
48 *348:41 *6732:A2 0
49 *348:41 *370:29 5.01876e-06
50 *348:41 *370:31 1.53725e-05
51 *348:47 *6721:A2 6.57815e-05
*RES
1 *6914:X *370:10 20.3357 
2 *370:10 *6728:A2 14.1036 
3 *370:10 *370:29 9.0781 
4 *370:29 *370:31 5.89286 
5 *370:31 *6732:A2 16.8714 
6 *370:31 *370:46 12.4286 
7 *370:46 *6727:A2 29.6214 
8 *370:46 *370:63 4.5 
9 *370:63 *6721:A2 20.6393 
10 *370:63 *6729:A2 15.1393 
11 *370:29 *6724:A2 14.1036 
*END

*D_NET *371 0.00194786
*CONN
*I *6709:A I *D sky130_fd_sc_hd__and2_2
*I *6978:X O *D sky130_fd_sc_hd__dlygate4sd3_1
*CAP
1 *6709:A 0.000718694
2 *6978:X 0.000718694
3 *6709:A *1079:12 2.56694e-05
4 *6706:A_N *6709:A 3.54682e-05
5 *305:59 *6709:A 5.09894e-05
6 *305:68 *6709:A 0.000398345
*RES
1 *6978:X *6709:A 38.6714 
*END

*D_NET *372 0.00208449
*CONN
*I *6670:B2 I *D sky130_fd_sc_hd__a32o_2
*I *6979:X O *D sky130_fd_sc_hd__dlygate4sd3_1
*CAP
1 *6670:B2 0.000581139
2 *6979:X 0.000581139
3 *6670:B2 *6670:B1 6.47484e-05
4 *6670:B2 *6979:A 7.70035e-05
5 *6670:B2 *397:33 0.000186662
6 *6670:B2 *397:44 0.000269428
7 *6670:B2 *1098:29 2.27129e-05
8 *6821:CLK *6670:B2 0
9 *6821:D *6670:B2 0.000301654
*RES
1 *6979:X *6670:B2 39.0464 
*END

*D_NET *373 0.00143547
*CONN
*I *6735:B2 I *D sky130_fd_sc_hd__a22o_2
*I *6980:X O *D sky130_fd_sc_hd__dlygate4sd3_1
*CAP
1 *6735:B2 0.000419737
2 *6980:X 0.000419737
3 *6735:B2 *6735:A1 4.98155e-05
4 *6735:B2 *6980:A 0.000320024
5 *6735:B2 *401:92 2.01483e-05
6 *6735:B2 *401:107 0.000177107
7 *6735:B2 *507:16 2.89016e-05
*RES
1 *6980:X *6735:B2 26.9571 
*END

*D_NET *374 0.00163756
*CONN
*I *6745:B2 I *D sky130_fd_sc_hd__a22o_2
*I *6981:X O *D sky130_fd_sc_hd__dlygate4sd3_1
*CAP
1 *6745:B2 0.00045229
2 *6981:X 0.00045229
3 *6745:B2 *6745:B1 8.33655e-05
4 *6745:B2 *6981:A 7.61932e-05
5 *6745:B2 *501:14 0.000337637
6 *6745:B2 *504:24 6.09804e-05
7 *6868:D *6745:B2 0.000174805
*RES
1 *6981:X *6745:B2 36.2071 
*END

*D_NET *375 0.00121644
*CONN
*I *6503:A I *D sky130_fd_sc_hd__inv_2
*I *6982:X O *D sky130_fd_sc_hd__dlygate4sd3_1
*CAP
1 *6503:A 0.00057992
2 *6982:X 0.00057992
3 *143:8 *6503:A 5.65955e-05
*RES
1 *6982:X *6503:A 28.2964 
*END

*D_NET *376 0.00213028
*CONN
*I *6746:B2 I *D sky130_fd_sc_hd__a22o_2
*I *6983:X O *D sky130_fd_sc_hd__dlygate4sd3_1
*CAP
1 *6746:B2 0.000657941
2 *6983:X 0.000657941
3 *6746:B2 *6859:RESET_B 0
4 *6746:B2 *402:118 0
5 *6746:B2 *402:126 0
6 *6746:B2 *504:24 0.000363098
7 *6591:A2 *6746:B2 0.000356028
8 *6593:C *6746:B2 1.69115e-05
9 *6869:D *6746:B2 7.83587e-05
*RES
1 *6983:X *6746:B2 37.0643 
*END

*D_NET *377 0.00351684
*CONN
*I *6742:B2 I *D sky130_fd_sc_hd__a22o_2
*I *6984:X O *D sky130_fd_sc_hd__dlygate4sd3_1
*CAP
1 *6742:B2 0.00129934
2 *6984:X 0.00129934
3 *6742:B2 *6742:A1 0.000227532
4 *6742:B2 *6742:A2 0.000240007
5 *6742:B2 *6742:B1 5.33005e-05
6 *6742:B2 *6767:RESET_B 1.28585e-05
7 *6742:B2 *6859:RESET_B 5.54204e-05
8 *6742:B2 *6860:RESET_B 0
9 *6742:B2 *431:16 0
10 *6742:B2 *534:10 0
11 *6590:A2 *6742:B2 1.85392e-05
12 *6865:CLK *6742:B2 1.02936e-05
13 *302:219 *6742:B2 0.000101601
14 *307:6 *6742:B2 0.000198615
*RES
1 *6984:X *6742:B2 46.5464 
*END

*D_NET *378 0.00148463
*CONN
*I *6739:B2 I *D sky130_fd_sc_hd__a22o_2
*I *6985:X O *D sky130_fd_sc_hd__dlygate4sd3_1
*CAP
1 *6739:B2 0.000177645
2 *6985:X 0.000177645
3 *6739:B2 *6739:A2 1.46576e-05
4 *6739:B2 *6985:A 5.52302e-05
5 *6739:B2 *500:35 0.000268403
6 *6739:B2 *511:22 1.3228e-05
7 *6739:B2 *512:73 0.000652583
8 *6862:D *6739:B2 0.000125238
*RES
1 *6985:X *6739:B2 25.3143 
*END

*D_NET *379 0.00346336
*CONN
*I *6737:B2 I *D sky130_fd_sc_hd__a22o_2
*I *6986:X O *D sky130_fd_sc_hd__dlygate4sd3_1
*CAP
1 *6737:B2 0.001083
2 *6986:X 0.001083
3 *6737:B2 *6742:A2 2.0658e-05
4 *6737:B2 *6860:RESET_B 0
5 *6737:B2 *395:81 0.00013415
6 *6737:B2 *433:21 0.000443232
7 *6865:CLK *6737:B2 2.89114e-05
8 *307:6 *6737:B2 0.000670399
*RES
1 *6986:X *6737:B2 45.5286 
*END

*D_NET *380 0.00176035
*CONN
*I *6741:B2 I *D sky130_fd_sc_hd__a22o_2
*I *6987:X O *D sky130_fd_sc_hd__dlygate4sd3_1
*CAP
1 *6741:B2 0.000371348
2 *6987:X 0.000371348
3 *6741:B2 *6581:A 2.39654e-05
4 *6741:B2 *6741:A1 0.00011089
5 *6741:B2 *6987:A 0.000141355
6 *6741:B2 *501:103 0.000314548
7 *6741:B2 *513:14 9.22222e-06
8 *265:12 *6741:B2 2.63834e-05
9 *266:14 *6741:B2 0.000207835
10 *348:18 *6741:B2 0.00018345
*RES
1 *6987:X *6741:B2 37.3321 
*END

*D_NET *381 0.0164434
*CONN
*I *6693:A1 I *D sky130_fd_sc_hd__o21a_2
*I *6647:A1 I *D sky130_fd_sc_hd__mux2_1
*I *6665:B1 I *D sky130_fd_sc_hd__a32o_2
*I *6649:B1 I *D sky130_fd_sc_hd__a32o_2
*I *6658:B1 I *D sky130_fd_sc_hd__a32o_2
*I *6662:B1 I *D sky130_fd_sc_hd__a32o_2
*I *6650:B1 I *D sky130_fd_sc_hd__a21o_2
*I *6685:A1 I *D sky130_fd_sc_hd__o21a_2
*I *6692:A1 I *D sky130_fd_sc_hd__o22a_2
*I *6689:B1 I *D sky130_fd_sc_hd__a32o_2
*I *6915:X O *D sky130_fd_sc_hd__clkdlybuf4s25_1
*CAP
1 *6693:A1 0
2 *6647:A1 0.000295677
3 *6665:B1 0.000168563
4 *6649:B1 0.000228377
5 *6658:B1 4.46343e-05
6 *6662:B1 0.00034671
7 *6650:B1 0
8 *6685:A1 0.000727056
9 *6692:A1 8.97521e-05
10 *6689:B1 0.000264772
11 *6915:X 0
12 *381:135 0.000794412
13 *381:118 0.000723154
14 *381:107 0.000969371
15 *381:92 0.00172794
16 *381:73 0.00139987
17 *381:65 0.000922564
18 *381:36 0.00120687
19 *381:8 0.000420478
20 *381:4 0.00040197
21 *6647:A1 *6647:A0 0.000360375
22 *6647:A1 *435:73 6.05161e-06
23 *6649:B1 *6649:A2 5.93111e-06
24 *6649:B1 *6649:B2 1.99877e-05
25 *6649:B1 *439:60 0
26 *6649:B1 *1085:16 0
27 *6649:B1 *1092:12 0
28 *6658:B1 *397:92 4.76227e-05
29 *6662:B1 *6817:RESET_B 0.000485292
30 *6662:B1 *6976:A 0
31 *6662:B1 *397:12 0
32 *6662:B1 *397:14 0
33 *6662:B1 *434:44 0
34 *6662:B1 *1096:42 3.33238e-05
35 *6665:B1 *6647:A0 2.18827e-05
36 *6665:B1 *6656:A 0
37 *6665:B1 *6665:A1 2.56601e-05
38 *6665:B1 *6665:B2 7.71367e-05
39 *6665:B1 *1097:10 0
40 *6685:A1 *6606:A 0
41 *6685:A1 *6685:B1 5.83233e-05
42 *6685:A1 *6691:C 0
43 *6685:A1 *398:28 0.000155348
44 *6685:A1 *428:77 0
45 *6685:A1 *1088:34 6.8646e-06
46 *6689:B1 *6689:B2 6.84048e-05
47 *6689:B1 *428:77 0
48 *6692:A1 *6829:RESET_B 0
49 *381:8 *428:75 9.90431e-05
50 *381:36 *428:75 0.000260954
51 *381:65 *6606:C 6.8646e-06
52 *381:65 *6693:B1 0.00014285
53 *381:73 *6606:B 9.25014e-06
54 *381:73 *398:125 9.4998e-05
55 *381:73 *1091:10 0.000141375
56 *381:92 *6816:RESET_B 3.02581e-06
57 *381:92 *6817:RESET_B 0.000292708
58 *381:92 *398:125 8.44494e-05
59 *381:92 *434:10 4.80729e-05
60 *381:107 *397:92 6.44345e-05
61 *381:118 *397:92 8.98869e-06
62 *381:118 *397:101 4.45768e-06
63 *381:135 *6656:A 1.56e-05
64 *381:135 *397:101 2.36692e-05
65 *6611:A2 *381:73 0
66 *6649:A3 *6649:B1 5.16759e-05
67 *6650:A1 *381:92 6.44866e-05
68 *6658:A2 *6658:B1 0
69 *6658:A2 *381:118 5.33433e-05
70 *6658:A2 *381:135 2.44318e-05
71 *6662:B2 *6662:B1 0.000158736
72 *6682:A_N *6685:A1 1.74352e-05
73 *6685:A2 *6685:A1 6.29133e-05
74 *6686:A3 *6685:A1 7.83366e-05
75 *6686:B1 *6685:A1 2.07937e-05
76 *6688:C *6685:A1 5.10822e-05
77 *6689:A3 *6689:B1 5.52238e-05
78 *6690:A2 *6689:B1 0
79 *6692:B2 *6692:A1 9.25014e-06
80 *6693:A2 *381:65 6.09919e-05
81 *6694:A1 *381:65 0.000117621
82 *6694:B1 *381:65 9.90431e-05
83 *6816:D *381:92 2.89016e-05
84 *6818:D *381:107 0.0004903
85 *6820:CLK *6647:A1 6.5185e-05
86 *6820:CLK *6665:B1 3.17067e-05
87 *6820:D *6665:B1 4.25622e-05
88 *6820:D *381:135 3.72932e-05
89 *6916:A *381:36 0.000108535
90 *195:10 *6685:A1 3.5707e-05
91 *195:10 *381:65 3.71496e-05
92 *195:10 *381:73 0
93 *197:10 *381:92 0.000188335
94 *199:33 *381:73 0
95 *205:32 *6685:A1 0.000123039
96 *205:32 *6689:B1 0.000320185
97 *222:12 *6689:B1 1.88048e-05
98 *222:12 *6692:A1 3.56119e-05
99 *227:10 *6649:B1 3.69697e-05
100 *246:18 *6685:A1 2.61337e-05
101 *251:6 *6689:B1 0.000186669
102 *253:14 *6685:A1 0.000100969
103 *253:14 *381:65 4.33438e-05
104 *302:272 *381:73 0.000146748
105 *302:276 *381:73 4.32258e-06
106 *304:8 *381:73 0
107 *304:20 *6685:A1 0
108 *305:83 *6649:B1 4.46186e-06
*RES
1 *6915:X *381:4 9.3 
2 *381:4 *381:8 5.44643 
3 *381:8 *6689:B1 20.6973 
4 *381:8 *6692:A1 15.4429 
5 *381:4 *381:36 9.14286 
6 *381:36 *6685:A1 36.4607 
7 *381:36 *381:65 9.14286 
8 *381:65 *381:73 23.4821 
9 *381:73 *6650:B1 9.3 
10 *381:73 *381:92 18.625 
11 *381:92 *6662:B1 22.1482 
12 *381:92 *381:107 14.8929 
13 *381:107 *6658:B1 10.4786 
14 *381:107 *381:118 2.17857 
15 *381:118 *6649:B1 22.8759 
16 *381:118 *381:135 8.73214 
17 *381:135 *6665:B1 17.7018 
18 *381:135 *6647:A1 20.4964 
19 *381:65 *6693:A1 9.3 
*END

*D_NET *382 0.00228533
*CONN
*I *6743:B2 I *D sky130_fd_sc_hd__a22o_2
*I *6988:X O *D sky130_fd_sc_hd__dlygate4sd3_1
*CAP
1 *6743:B2 0.000517783
2 *6988:X 0.000517783
3 *6743:B2 *6743:A2 0.000289375
4 *6743:B2 *6856:RESET_B 4.61329e-05
5 *6743:B2 *402:59 0.000458678
6 *6743:B2 *501:85 0.000142063
7 *6584:B *6743:B2 0.000186662
8 *6584:C *6743:B2 0.00012685
*RES
1 *6988:X *6743:B2 38.3679 
*END

*D_NET *383 0.00236694
*CONN
*I *6654:A1 I *D sky130_fd_sc_hd__a22o_2
*I *6989:X O *D sky130_fd_sc_hd__dlygate4sd3_1
*CAP
1 *6654:A1 0.000575076
2 *6989:X 0.000575076
3 *6654:A1 *6653:A 0.000146591
4 *6654:A1 *1094:16 0.000224583
5 *6654:A1 *1094:42 9.60939e-05
6 *6654:A2 *6654:A1 1.57155e-05
7 *6654:B1 *6654:A1 3.1056e-05
8 *6818:CLK *6654:A1 0.00021528
9 *193:18 *6654:A1 0.000487467
*RES
1 *6989:X *6654:A1 39.0464 
*END

*D_NET *384 0.00215041
*CONN
*I *6738:B2 I *D sky130_fd_sc_hd__a22o_2
*I *6990:X O *D sky130_fd_sc_hd__dlygate4sd3_1
*CAP
1 *6738:B2 0.000854698
2 *6990:X 0.000854698
3 *6738:B2 *510:55 1.03859e-05
4 *302:181 *6738:B2 5.44215e-05
5 *302:191 *6738:B2 0.000203668
6 *303:64 *6738:B2 0.000172536
7 *303:70 *6738:B2 0
*RES
1 *6990:X *6738:B2 39.225 
*END

*D_NET *385 0.00203322
*CONN
*I *6733:B2 I *D sky130_fd_sc_hd__a22o_2
*I *6991:X O *D sky130_fd_sc_hd__dlygate4sd3_1
*CAP
1 *6733:B2 0.000603975
2 *6991:X 0.000603975
3 *6733:B2 *6733:A1 2.61406e-05
4 *6733:B2 *6733:A2 9.87526e-05
5 *6733:B2 *6733:B1 1.59373e-05
6 *6733:B2 *6991:A 0.000323108
7 *6733:B2 *1084:28 2.56597e-05
8 *6733:B2 *1084:32 5.63225e-05
9 *6598:B *6733:B2 9.42321e-05
10 *6856:D *6733:B2 0.000185118
*RES
1 *6991:X *6733:B2 29.8679 
*END

*D_NET *386 0.00121972
*CONN
*I *6642:B1 I *D sky130_fd_sc_hd__a21oi_2
*I *6992:X O *D sky130_fd_sc_hd__dlygate4sd3_1
*CAP
1 *6642:B1 0.000315206
2 *6992:X 0.000315206
3 *6642:B1 *440:80 4.6025e-06
4 *6642:B1 *440:91 5.78972e-05
5 *6642:B1 *508:78 0.000399848
6 *273:12 *6642:B1 0.000126963
*RES
1 *6992:X *6642:B1 33.0643 
*END

*D_NET *387 0.000910724
*CONN
*I *6689:B2 I *D sky130_fd_sc_hd__a32o_2
*I *6993:X O *D sky130_fd_sc_hd__dlygate4sd3_1
*CAP
1 *6689:B2 0.000236165
2 *6993:X 0.000236165
3 *6689:B2 *398:55 0
4 *6689:B2 *398:68 0
5 *6689:A2 *6689:B2 0.000230475
6 *6689:A3 *6689:B2 3.18676e-05
7 *6689:B1 *6689:B2 6.84048e-05
8 *205:32 *6689:B2 3.73163e-05
9 *251:6 *6689:B2 7.03295e-05
*RES
1 *6993:X *6689:B2 33.1714 
*END

*D_NET *388 0.00144748
*CONN
*I *6714:A1 I *D sky130_fd_sc_hd__a22o_2
*I *6994:X O *D sky130_fd_sc_hd__dlygate4sd3_1
*CAP
1 *6714:A1 0.000500685
2 *6994:X 0.000500685
3 *6714:A1 *6994:A 5.49489e-05
4 *6714:A1 *1081:30 0.000331632
5 *6714:A2 *6714:A1 5.95283e-05
*RES
1 *6994:X *6714:A1 27.7607 
*END

*D_NET *389 0.000832907
*CONN
*I *6679:B2 I *D sky130_fd_sc_hd__a32o_2
*I *6995:X O *D sky130_fd_sc_hd__dlygate4sd3_1
*CAP
1 *6679:B2 0.00022586
2 *6995:X 0.00022586
3 *6679:B2 *6995:A 0.000104974
4 *6678:B *6679:B2 0
5 *304:26 *6679:B2 0.000276211
*RES
1 *6995:X *6679:B2 31.5286 
*END

*D_NET *390 0.000489529
*CONN
*I *6658:B2 I *D sky130_fd_sc_hd__a32o_2
*I *6996:X O *D sky130_fd_sc_hd__dlygate4sd3_1
*CAP
1 *6658:B2 0.000188267
2 *6996:X 0.000188267
3 *6658:B2 *439:60 3.79467e-05
4 *6658:B2 *1095:63 7.50473e-05
5 *227:12 *6658:B2 0
*RES
1 *6996:X *6658:B2 30.7071 
*END

*D_NET *391 0.00130858
*CONN
*I *6649:B2 I *D sky130_fd_sc_hd__a32o_2
*I *6997:X O *D sky130_fd_sc_hd__dlygate4sd3_1
*CAP
1 *6649:B2 0.00041164
2 *6997:X 0.00041164
3 *6649:B2 *6649:A2 4.05376e-05
4 *6649:B2 *6814:RESET_B 0
5 *6649:B2 *1092:12 0
6 *6649:A1 *6649:B2 2.19835e-05
7 *6649:B1 *6649:B2 1.99877e-05
8 *305:83 *6649:B2 0.00040279
*RES
1 *6997:X *6649:B2 35.5464 
*END

*D_NET *392 0.00612234
*CONN
*I *6670:B1 I *D sky130_fd_sc_hd__a32o_2
*I *6673:B2 I *D sky130_fd_sc_hd__a2bb2o_2
*I *6676:B2 I *D sky130_fd_sc_hd__a2bb2o_2
*I *6683:A1 I *D sky130_fd_sc_hd__o21a_2
*I *6679:B1 I *D sky130_fd_sc_hd__a32o_2
*I *6916:X O *D sky130_fd_sc_hd__clkdlybuf4s25_1
*CAP
1 *6670:B1 0.00013302
2 *6673:B2 0.000197557
3 *6676:B2 0.000449751
4 *6683:A1 0
5 *6679:B1 0.000182816
6 *6916:X 0.000665182
7 *392:54 0.000447358
8 *392:37 0.000853068
9 *392:10 0.000561462
10 *6670:B1 *397:44 0
11 *6673:B2 *6673:B1 3.57366e-05
12 *6673:B2 *1099:24 1.92905e-05
13 *6673:B2 *1099:32 3.11255e-05
14 *6676:B2 *6823:RESET_B 0
15 *6676:B2 *439:60 0
16 *6676:B2 *1100:10 0
17 *6679:B1 *6679:A1 5.30637e-06
18 *6679:B1 *6995:A 0
19 *6679:B1 *1086:23 0
20 *392:10 *6605:B 0
21 *392:10 *6679:A1 0
22 *392:10 *6680:D 8.07879e-05
23 *6670:A2 *6670:B1 9.25014e-06
24 *6670:A3 *6670:B1 5.41797e-05
25 *6670:B2 *6670:B1 6.47484e-05
26 *6671:B *6676:B2 1.08359e-05
27 *6671:C *6676:B2 0.000171368
28 *6672:A2 *6670:B1 2.94103e-05
29 *6672:A2 *6673:B2 6.51946e-05
30 *6672:A2 *392:54 4.13496e-05
31 *6673:A1_N *6673:B2 1.66955e-05
32 *6673:A2_N *6673:B2 2.59355e-05
33 *6674:B *6670:B1 9.47312e-05
34 *6674:B *6673:B2 0.000128154
35 *6675:A2 *6676:B2 0
36 *6681:B *6676:B2 5.33005e-05
37 *6681:B *392:37 0.000352853
38 *6683:A2 *6679:B1 1.02504e-05
39 *6683:A2 *392:10 0.000117896
40 *6684:A2 *6679:B1 5.31542e-05
41 *6684:B1 *392:10 1.31516e-05
42 *6821:D *6670:B1 6.47484e-05
43 *227:37 *392:37 0.000837386
44 *236:10 *6670:B1 0
45 *236:16 *6676:B2 9.41642e-05
46 *237:6 *392:54 5.62995e-05
47 *239:6 *6673:B2 6.05161e-06
48 *241:12 *6676:B2 0
49 *246:12 *392:10 2.24828e-05
50 *246:12 *392:37 6.62898e-05
*RES
1 *6916:X *392:10 20.05 
2 *392:10 *6679:B1 16.9652 
3 *392:10 *6683:A1 13.8 
4 *6916:X *392:37 20.1214 
5 *392:37 *6676:B2 27.175 
6 *392:37 *392:54 6.67857 
7 *392:54 *6673:B2 18.05 
8 *392:54 *6670:B1 17.2821 
*END

*D_NET *393 0.00125307
*CONN
*I *6665:B2 I *D sky130_fd_sc_hd__a32o_2
*I *6998:X O *D sky130_fd_sc_hd__dlygate4sd3_1
*CAP
1 *6665:B2 0.00046314
2 *6998:X 0.00046314
3 *6665:B2 *6998:A 0.000141734
4 *6665:A3 *6665:B2 0.000107914
5 *6665:B1 *6665:B2 7.71367e-05
*RES
1 *6998:X *6665:B2 26.5286 
*END

*D_NET *394 0.000588257
*CONN
*I *6683:B1 I *D sky130_fd_sc_hd__o21a_2
*I *6999:X O *D sky130_fd_sc_hd__dlygate4sd3_1
*CAP
1 *6683:B1 0.00023598
2 *6999:X 0.00023598
3 *6683:B1 *6824:RESET_B 6.75007e-05
4 *6684:B1 *6683:B1 4.87953e-05
*RES
1 *6999:X *6683:B1 31.8321 
*END

*D_NET *395 0.0193116
*CONN
*I *6742:B1 I *D sky130_fd_sc_hd__a22o_2
*I *6737:B1 I *D sky130_fd_sc_hd__a22o_2
*I *6745:B1 I *D sky130_fd_sc_hd__a22o_2
*I *6744:B1 I *D sky130_fd_sc_hd__a22o_2
*I *6735:B1 I *D sky130_fd_sc_hd__a22o_2
*I *6701:B I *D sky130_fd_sc_hd__and2b_2
*I *6736:B1 I *D sky130_fd_sc_hd__a22o_2
*I *6747:B1 I *D sky130_fd_sc_hd__a22o_2
*I *6734:B1 I *D sky130_fd_sc_hd__a22o_2
*I *6740:B1 I *D sky130_fd_sc_hd__a22o_2
*I *6917:X O *D sky130_fd_sc_hd__clkdlybuf4s25_1
*CAP
1 *6742:B1 6.79234e-05
2 *6737:B1 0
3 *6745:B1 0.000299416
4 *6744:B1 0.000149549
5 *6735:B1 0
6 *6701:B 0.000133648
7 *6736:B1 3.957e-05
8 *6747:B1 0
9 *6734:B1 0.000639161
10 *6740:B1 0.000472949
11 *6917:X 0
12 *395:124 0.00162395
13 *395:100 0.000556712
14 *395:96 0.00201229
15 *395:83 0.000471231
16 *395:81 0.000393009
17 *395:73 0.000592829
18 *395:20 0.00127453
19 *395:18 0.000765586
20 *395:4 0.000752475
21 *6701:B *6701:A_N 7.43578e-06
22 *6701:B *507:10 0.000150618
23 *6701:B *507:16 0
24 *6734:B1 *6734:A2 5.80858e-06
25 *6734:B1 *6761:A 5.33614e-05
26 *6734:B1 *6800:D 0.000151136
27 *6734:B1 *6857:RESET_B 0.000127665
28 *6734:B1 *430:62 0.000135039
29 *6734:B1 *522:10 7.0538e-05
30 *6736:B1 *508:78 9.03127e-05
31 *6736:B1 *509:33 0.000112662
32 *6740:B1 *6567:A 0
33 *6740:B1 *6568:A 0.000183127
34 *6740:B1 *6588:B 4.43299e-05
35 *6740:B1 *6740:A1 5.52302e-05
36 *6740:B1 *6801:D 0.000396892
37 *6740:B1 *7023:A 9.92409e-05
38 *6740:B1 *401:16 0.000232927
39 *6740:B1 *403:61 6.04711e-05
40 *6740:B1 *506:27 0
41 *6740:B1 *528:26 2.11419e-05
42 *6742:B1 *6768:RESET_B 8.53773e-05
43 *6742:B1 *6870:RESET_B 2.40461e-05
44 *6744:B1 *6573:B 3.90079e-06
45 *6744:B1 *6748:B1 7.49387e-06
46 *6744:B1 *6971:A 1.24368e-05
47 *6745:B1 *6745:A2 0.000265132
48 *6745:B1 *6748:B1 0.000114047
49 *6745:B1 *6971:A 5.20232e-05
50 *6745:B1 *501:14 7.80714e-06
51 *6745:B1 *501:26 3.1877e-05
52 *6745:B1 *505:24 6.56976e-05
53 *395:18 *6747:A1 0
54 *395:18 *6747:A2 1.6864e-05
55 *395:18 *6870:RESET_B 0
56 *395:18 *396:20 6.90985e-05
57 *395:18 *396:130 0
58 *395:18 *430:52 8.39471e-05
59 *395:18 *504:28 5.71472e-05
60 *395:20 *6801:D 8.63305e-05
61 *395:73 *6768:RESET_B 8.71613e-05
62 *395:73 *6870:RESET_B 2.8454e-05
63 *395:73 *504:28 0.000185643
64 *395:81 *6742:A2 0.000242136
65 *395:81 *401:33 8.15444e-05
66 *395:81 *401:52 5.65801e-06
67 *395:81 *401:54 6.87975e-06
68 *395:81 *433:21 6.07037e-07
69 *395:81 *508:78 1.1594e-05
70 *395:81 *509:33 9.54798e-06
71 *395:83 *508:78 3.42147e-05
72 *395:83 *509:33 4.15592e-05
73 *395:96 *401:33 3.7143e-05
74 *395:96 *502:45 0
75 *395:100 *6858:RESET_B 0
76 *395:100 *431:62 0
77 *395:100 *507:16 0
78 *395:100 *508:10 0.000167125
79 *395:100 *508:48 9.58074e-05
80 *395:124 *6748:B1 2.06178e-05
81 *395:124 *6836:RESET_B 0.000396076
82 *395:124 *6971:A 2.06178e-05
83 *395:124 *402:126 0.00136311
84 *395:124 *502:45 0
85 *6589:A2 *6740:B1 5.48198e-05
86 *6590:A1 *395:18 6.57701e-05
87 *6590:A1 *395:73 0.000172309
88 *6734:B2 *6734:B1 0.000292806
89 *6736:B2 *6736:B1 1.41029e-05
90 *6737:B2 *395:81 0.00013415
91 *6742:B2 *6742:B1 5.33005e-05
92 *6744:B2 *6744:B1 5.28071e-05
93 *6745:B2 *6745:B1 8.33655e-05
94 *6747:B2 *6734:B1 0
95 *6836:CLK *6701:B 0.00027214
96 *6836:CLK *395:100 0.000199698
97 *6857:D *6734:B1 0
98 *6859:CLK *395:100 0
99 *6865:CLK *6742:B1 2.59355e-05
100 *6867:D *6744:B1 2.59355e-05
101 *6868:D *6745:B1 0.000173083
102 *7587:A *395:100 0.000121366
103 *155:51 *395:81 6.35412e-05
104 *186:54 *6740:B1 5.54547e-05
105 *302:191 *395:81 0.000118938
106 *302:219 *395:81 0.000186286
107 *302:219 *395:96 0
108 *302:219 *395:124 0
109 *306:21 *395:18 3.36219e-05
110 *306:25 *6740:B1 2.59355e-05
111 *306:25 *395:18 7.87416e-05
112 *306:25 *395:20 0.000214724
113 *306:27 *6734:B1 9.80405e-05
114 *306:33 *6734:B1 0.0002177
115 *306:37 *6734:B1 0.000272716
116 *308:35 *395:100 0.000142797
117 *309:29 *6745:B1 0
*RES
1 *6917:X *395:4 9.3 
2 *395:4 *395:18 17.8929 
3 *395:18 *395:20 3.82143 
4 *395:20 *6740:B1 30.8 
5 *395:20 *6734:B1 43.7286 
6 *395:18 *6747:B1 9.3 
7 *395:4 *395:73 7.99107 
8 *395:73 *395:81 11.6514 
9 *395:81 *395:83 0.580357 
10 *395:83 *6736:B1 15.2911 
11 *395:83 *395:96 4.24973 
12 *395:96 *395:100 14.6154 
13 *395:100 *6701:B 17.4071 
14 *395:100 *6735:B1 13.8 
15 *395:96 *395:124 7.04885 
16 *395:124 *6744:B1 16.55 
17 *395:124 *6745:B1 22.1214 
18 *395:81 *6737:B1 13.8 
19 *395:73 *6742:B1 15.5232 
*END

*D_NET *396 0.0239885
*CONN
*I *6748:B1 I *D sky130_fd_sc_hd__a22o_2
*I *6746:B1 I *D sky130_fd_sc_hd__a22o_2
*I *6917:A I *D sky130_fd_sc_hd__clkdlybuf4s25_1
*I *6743:B1 I *D sky130_fd_sc_hd__a22o_2
*I *6739:B1 I *D sky130_fd_sc_hd__a22o_2
*I *6733:B1 I *D sky130_fd_sc_hd__a22o_2
*I *6741:B1 I *D sky130_fd_sc_hd__a22o_2
*I *6738:B1 I *D sky130_fd_sc_hd__a22o_2
*I *6918:X O *D sky130_fd_sc_hd__clkdlybuf4s25_1
*CAP
1 *6748:B1 0.00114075
2 *6746:B1 3.82418e-05
3 *6917:A 4.43412e-05
4 *6743:B1 8.75765e-05
5 *6739:B1 0.000221484
6 *6733:B1 0.000120956
7 *6741:B1 0.000129888
8 *6738:B1 0
9 *6918:X 0
10 *396:130 0.00217451
11 *396:65 0.000706128
12 *396:59 0.000843129
13 *396:57 0.00232666
14 *396:28 0.00376451
15 *396:20 0.00205904
16 *396:4 0.00131844
17 *6733:B1 *6733:A1 0.00017679
18 *6733:B1 *1084:32 0.000137561
19 *6739:B1 *6572:B 0.000148712
20 *6739:B1 *6739:A2 1.58533e-05
21 *6739:B1 *402:10 7.83659e-05
22 *6739:B1 *511:34 7.22594e-05
23 *6741:B1 *6741:A1 5.52302e-05
24 *6741:B1 *6741:A2 7.54606e-05
25 *6743:B1 *6743:A1 9.54798e-06
26 *6743:B1 *6856:RESET_B 0
27 *6748:B1 *6573:B 3.97794e-05
28 *6748:B1 *6576:A 0.000134123
29 *6748:B1 *6748:A2 0.000117429
30 *6748:B1 *6971:A 2.07371e-05
31 *6748:B1 *6974:A 9.22103e-06
32 *6748:B1 *517:10 4.04863e-05
33 *396:20 *6747:A1 0
34 *396:20 *430:52 0.000175726
35 *396:28 *6582:A 3.18676e-05
36 *396:28 *6587:A 4.43256e-05
37 *396:28 *6588:A 0.000117553
38 *396:28 *6738:A2 0.00028227
39 *396:28 *504:76 7.77476e-05
40 *396:28 *510:23 7.08266e-05
41 *396:57 *7011:A 9.60875e-05
42 *396:57 *504:76 0.000152412
43 *396:57 *1084:28 0.000624791
44 *396:65 *6733:A1 6.24939e-05
45 *396:130 *6569:B 1.21258e-05
46 *396:130 *6768:RESET_B 0.000211961
47 *396:130 *6870:RESET_B 4.85935e-05
48 *396:130 *6974:A 0.000153863
49 *396:130 *6975:A 9.91086e-05
50 *396:130 *514:20 6.79057e-05
51 *6589:B1 *396:28 2.47833e-05
52 *6590:C1 *396:57 1.90936e-05
53 *6590:D1 *396:28 4.5089e-05
54 *6593:A *6748:B1 3.97677e-05
55 *6593:C *6748:B1 0.000263524
56 *6733:B2 *6733:B1 1.59373e-05
57 *6736:B2 *396:130 0.000100294
58 *6744:A2 *6748:B1 3.69999e-05
59 *6744:B1 *6748:B1 7.49387e-06
60 *6744:B2 *6748:B1 2.89016e-05
61 *6745:B1 *6748:B1 0.000114047
62 *6747:B2 *396:20 1.69961e-05
63 *6747:B2 *396:130 0.000315152
64 *6748:B2 *6748:B1 5.24274e-05
65 *6788:CLK *396:57 0
66 *6789:CLK *396:57 5.04881e-05
67 *6856:CLK *6739:B1 0.000350758
68 *6860:D *396:130 0.00010096
69 *6866:D *6743:B1 1.14483e-05
70 *6867:D *6748:B1 0.000334369
71 *6869:D *6748:B1 0.000177815
72 *6869:D *396:130 5.71472e-05
73 *155:18 *6743:B1 0.000144531
74 *155:51 *396:57 0.000142231
75 *179:22 *6917:A 2.66984e-05
76 *179:22 *396:20 2.42054e-05
77 *179:22 *396:28 4.44754e-05
78 *186:42 *396:20 0.000316111
79 *186:42 *396:130 7.03295e-05
80 *187:12 *6739:B1 5.58577e-05
81 *265:12 *6733:B1 0
82 *266:14 *396:65 0.000224341
83 *302:181 *396:57 2.15245e-05
84 *302:239 *6748:B1 0
85 *302:253 *6748:B1 0
86 *303:51 *6741:B1 3.01045e-05
87 *303:51 *396:57 0.000502459
88 *303:51 *396:59 0.000113073
89 *303:51 *396:65 0.000161077
90 *303:64 *396:57 0.000576509
91 *306:21 *396:130 0.000711618
92 *309:29 *6748:B1 6.8646e-06
93 *311:24 *6739:B1 0.000126446
94 *395:18 *396:20 6.90985e-05
95 *395:18 *396:130 0
96 *395:124 *6748:B1 2.06178e-05
*RES
1 *6918:X *396:4 9.3 
2 *396:4 *396:20 16.0536 
3 *396:20 *396:28 25.125 
4 *396:28 *6738:B1 9.3 
5 *396:28 *396:57 39.6786 
6 *396:57 *396:59 2.17857 
7 *396:59 *396:65 10.8929 
8 *396:65 *6741:B1 16.1036 
9 *396:65 *6733:B1 16.8 
10 *396:59 *6739:B1 25.1036 
11 *396:57 *6743:B1 20.2464 
12 *396:20 *6917:A 10.3357 
13 *396:4 *396:130 30.7321 
14 *396:130 *6746:B1 10.0321 
15 *396:130 *6748:B1 39.425 
*END

*D_NET *397 0.0158
*CONN
*I *6649:A2 I *D sky130_fd_sc_hd__a32o_2
*I *6647:A0 I *D sky130_fd_sc_hd__mux2_1
*I *6665:A1 I *D sky130_fd_sc_hd__a32o_2
*I *6658:A1 I *D sky130_fd_sc_hd__a32o_2
*I *6651:A3 I *D sky130_fd_sc_hd__a31o_2
*I *6662:A1 I *D sky130_fd_sc_hd__a32o_2
*I *6672:B1 I *D sky130_fd_sc_hd__o21ai_2
*I *6675:B1 I *D sky130_fd_sc_hd__o21ai_2
*I *6670:A1 I *D sky130_fd_sc_hd__a32o_2
*I *6679:A1 I *D sky130_fd_sc_hd__a32o_2
*I *6919:X O *D sky130_fd_sc_hd__clkdlybuf4s25_1
*CAP
1 *6649:A2 0.000667309
2 *6647:A0 0.000252867
3 *6665:A1 5.64576e-05
4 *6658:A1 0
5 *6651:A3 0
6 *6662:A1 9.27009e-05
7 *6672:B1 0
8 *6675:B1 0.000169328
9 *6670:A1 0
10 *6679:A1 0.000732227
11 *6919:X 0
12 *397:101 0.000815005
13 *397:92 0.000920326
14 *397:82 0.00116653
15 *397:44 0.000609414
16 *397:33 0.00144072
17 *397:14 0.00194079
18 *397:12 0.000780603
19 *397:10 0.00094573
20 *397:4 0.000550329
21 *6647:A0 *435:73 0
22 *6662:A1 *1096:42 0.00014285
23 *6665:A1 *1097:10 0
24 *6675:B1 *6672:A1 1.76039e-05
25 *6679:A1 *6605:B 0
26 *6679:A1 *6677:A 5.41794e-05
27 *6679:A1 *6680:D 2.66026e-05
28 *6679:A1 *1100:22 0
29 *397:10 *6608:A 6.42242e-05
30 *397:10 *6817:RESET_B 0
31 *397:10 *7042:A 0.000196968
32 *397:10 *434:10 0
33 *397:10 *1093:16 0
34 *397:12 *6655:D 0
35 *397:12 *6817:RESET_B 0
36 *397:12 *1094:12 0.000176226
37 *397:44 *6672:A1 5.41797e-05
38 *397:82 *6818:RESET_B 7.36174e-05
39 *397:82 *1093:16 0
40 *397:92 *6655:D 0.000114121
41 *397:92 *6818:RESET_B 0.000175157
42 *397:92 *1093:16 0
43 *397:92 *1095:10 7.03295e-05
44 *397:101 *6656:A 2.89114e-05
45 *6604:D *397:12 0
46 *6647:A1 *6647:A0 0.000360375
47 *6649:A1 *6649:A2 6.85766e-05
48 *6649:B1 *6649:A2 5.93111e-06
49 *6649:B2 *6649:A2 4.05376e-05
50 *6656:B *397:92 0
51 *6656:B *397:101 9.60939e-05
52 *6658:A2 *397:101 1.02821e-05
53 *6658:B1 *397:92 4.76227e-05
54 *6661:A *397:33 0.000170964
55 *6662:A3 *397:14 0.000128154
56 *6662:A3 *397:33 1.86687e-05
57 *6662:B1 *397:12 0
58 *6662:B1 *397:14 0
59 *6665:B1 *6647:A0 2.18827e-05
60 *6665:B1 *6665:A1 2.56601e-05
61 *6670:B1 *397:44 0
62 *6670:B2 *397:33 0.000186662
63 *6670:B2 *397:44 0.000269428
64 *6672:A2 *397:44 0
65 *6673:A2_N *397:44 6.8646e-06
66 *6675:A2 *6675:B1 0
67 *6678:B *6679:A1 5.41794e-05
68 *6679:A2 *6679:A1 1.32552e-05
69 *6679:A3 *6679:A1 9.60875e-05
70 *6679:B1 *6679:A1 5.30637e-06
71 *6681:C *6679:A1 0
72 *6684:A2 *6679:A1 8.26966e-05
73 *6814:D *6647:A0 5.62995e-05
74 *6815:D *6649:A2 6.78055e-06
75 *6818:D *397:92 0.000353086
76 *6820:CLK *6647:A0 0.000202128
77 *6820:D *397:101 0.000269428
78 *6821:CLK *397:44 0.000309773
79 *6821:D *397:33 3.14193e-05
80 *6916:A *6679:A1 0
81 *6916:A *397:14 0
82 *227:45 *6679:A1 0
83 *227:45 *397:14 0
84 *304:41 *6675:B1 0.00025263
85 *304:41 *397:44 0.000172368
86 *381:107 *397:92 6.44345e-05
87 *381:118 *397:92 8.98869e-06
88 *381:118 *397:101 4.45768e-06
89 *381:135 *397:101 2.36692e-05
90 *392:10 *6679:A1 0
*RES
1 *6919:X *397:4 9.3 
2 *397:4 *397:10 11.9821 
3 *397:10 *397:12 9.23214 
4 *397:12 *397:14 4.07143 
5 *397:14 *6679:A1 26.0679 
6 *397:14 *397:33 16.9464 
7 *397:33 *6670:A1 9.3 
8 *397:33 *397:44 13.2857 
9 *397:44 *6675:B1 17.9071 
10 *397:44 *6672:B1 13.8 
11 *397:12 *6662:A1 15.1571 
12 *397:10 *6651:A3 13.8 
13 *397:4 *397:82 7.05357 
14 *397:82 *397:92 15.6071 
15 *397:92 *6658:A1 9.3 
16 *397:92 *397:101 11.1964 
17 *397:101 *6665:A1 14.8357 
18 *397:101 *6647:A0 20.675 
19 *397:82 *6649:A2 21.7286 
*END

*D_NET *398 0.0164819
*CONN
*I *6650:A2 I *D sky130_fd_sc_hd__a21o_2
*I *6644:B I *D sky130_fd_sc_hd__or2_2
*I *6919:A I *D sky130_fd_sc_hd__clkdlybuf4s25_1
*I *6654:B2 I *D sky130_fd_sc_hd__a22o_2
*I *6682:B I *D sky130_fd_sc_hd__and2b_2
*I *6691:C I *D sky130_fd_sc_hd__and4_2
*I *6690:B1 I *D sky130_fd_sc_hd__o21a_2
*I *6613:A I *D sky130_fd_sc_hd__or2_2
*I *6689:A1 I *D sky130_fd_sc_hd__a32o_2
*I *6686:A2 I *D sky130_fd_sc_hd__a31o_2
*I *6920:X O *D sky130_fd_sc_hd__clkdlybuf4s25_1
*CAP
1 *6650:A2 0
2 *6644:B 0.000674415
3 *6919:A 0.000388489
4 *6654:B2 5.31155e-05
5 *6682:B 0
6 *6691:C 9.3707e-05
7 *6690:B1 0
8 *6613:A 0.000226248
9 *6689:A1 0
10 *6686:A2 0.000334617
11 *6920:X 0.000341025
12 *398:129 0.00118082
13 *398:125 0.000493277
14 *398:104 0.00049937
15 *398:68 0.000660697
16 *398:55 0.000711782
17 *398:34 0.000978289
18 *398:28 0.00089968
19 *398:14 0.00119615
20 *398:8 0.00116843
21 *6613:A *6813:RESET_B 5.33005e-05
22 *6613:A *6828:RESET_B 0.000146071
23 *6644:B *6644:A 0.000181796
24 *6644:B *6706:C 9.25014e-06
25 *6686:A2 *6826:RESET_B 0.00010326
26 *6686:A2 *428:85 0
27 *6686:A2 *1088:21 0
28 *6686:A2 *1089:16 0
29 *6919:A *7042:A 0.00010096
30 *6919:A *434:10 0.000142856
31 *6919:A *439:43 8.07313e-05
32 *6919:A *439:60 0.000386389
33 *398:14 *6605:A 0
34 *398:34 *6825:RESET_B 0.000123588
35 *398:34 *1089:25 0.000274294
36 *398:55 *1089:16 0
37 *398:55 *1089:25 0.000359997
38 *398:68 *6970:A 7.50697e-05
39 *398:68 *428:75 5.33882e-05
40 *398:68 *514:24 0
41 *6650:A1 *398:125 5.71472e-05
42 *6682:A_N *398:28 4.57331e-05
43 *6685:A1 *6691:C 0
44 *6685:A1 *398:28 0.000155348
45 *6685:A2 *398:14 5.52238e-05
46 *6685:A2 *398:28 0.000114263
47 *6686:A3 *6686:A2 2.27416e-05
48 *6686:A3 *398:28 0
49 *6686:B1 *6686:A2 0
50 *6686:B1 *398:28 2.89016e-05
51 *6687:A2 *398:34 2.59355e-05
52 *6689:B2 *398:55 0
53 *6689:B2 *398:68 0
54 *6690:A2 *398:68 0.000115636
55 *6706:A_N *6644:B 9.90367e-05
56 *6707:A1 *6644:B 0.000388651
57 *6707:A2 *6919:A 0.000446603
58 *6707:B1 *6644:B 3.77602e-05
59 *6708:A1 *6644:B 0.000886543
60 *6817:D *398:14 0
61 *6818:CLK *398:129 3.51442e-05
62 *6826:D *6686:A2 1.72894e-05
63 *6829:CLK *6613:A 0.000523781
64 *6829:CLK *398:68 9.90367e-05
65 *6835:CLK *6919:A 5.33005e-05
66 *6920:A *398:14 3.17067e-05
67 *6920:A *398:104 6.5185e-05
68 *6920:A *398:125 7.6021e-05
69 *193:18 *6654:B2 3.32631e-05
70 *199:33 *6644:B 0
71 *199:33 *398:125 3.22834e-05
72 *199:33 *398:129 0
73 *205:32 *6691:C 0.00017309
74 *205:32 *398:28 0.000173804
75 *221:24 *6644:B 9.90431e-05
76 *222:12 *398:68 0
77 *224:12 *398:125 0.000128146
78 *247:8 *398:28 0
79 *252:12 *6613:A 4.01768e-05
80 *252:12 *398:68 2.77173e-05
81 *304:8 *398:14 0
82 *304:8 *398:104 0
83 *304:8 *398:125 0
84 *304:10 *398:14 0
85 *304:14 *398:14 0
86 *304:20 *398:14 0
87 *305:12 *6644:B 1.43864e-05
88 *305:16 *6644:B 8.21307e-05
89 *305:16 *398:129 1.08359e-05
90 *305:18 *398:129 0.000115474
91 *381:73 *398:125 9.4998e-05
92 *381:92 *398:125 8.44494e-05
*RES
1 *6920:X *398:8 17.6214 
2 *398:8 *398:14 17.6071 
3 *398:14 *398:28 13.3036 
4 *398:28 *398:34 15.6964 
5 *398:34 *6686:A2 19.3357 
6 *398:34 *398:55 14.7857 
7 *398:55 *6689:A1 13.8 
8 *398:55 *398:68 13.7679 
9 *398:68 *6613:A 24.6036 
10 *398:68 *6690:B1 9.3 
11 *398:28 *6691:C 16.05 
12 *398:14 *6682:B 9.3 
13 *398:8 *398:104 1.64286 
14 *398:104 *6654:B2 14.7464 
15 *398:104 *398:125 12.4464 
16 *398:125 *398:129 6.75 
17 *398:129 *6919:A 24.2286 
18 *398:129 *6644:B 30.9964 
19 *398:125 *6650:A2 9.3 
*END

*D_NET *399 0.00207841
*CONN
*I *6565:B I *D sky130_fd_sc_hd__and2_2
*I *7028:X O *D sky130_fd_sc_hd__clkdlybuf4s25_1
*CAP
1 *6565:B 0.000684587
2 *7028:X 0.000684587
3 *6565:B *6875:RESET_B 9.81055e-05
4 *6635:A0 *6565:B 0.00014183
5 *7029:A *6565:B 7.38699e-05
6 *301:45 *6565:B 0.000308016
7 *302:97 *6565:B 5.56943e-05
8 *302:99 *6565:B 3.17163e-05
*RES
1 *7028:X *6565:B 39.8143 
*END

*D_NET *400 0.00289278
*CONN
*I *6595:A I *D sky130_fd_sc_hd__nand2_2
*I *6597:A I *D sky130_fd_sc_hd__and3_2
*I *7587:X O *D sky130_fd_sc_hd__clkdlybuf4s25_1
*CAP
1 *6595:A 0.000195378
2 *6597:A 0
3 *7587:X 0.000636031
4 *400:14 0.00083141
5 *400:14 *6571:A 4.25716e-05
6 *400:14 *6577:A 3.18676e-05
7 *400:14 *6577:B 9.90431e-05
8 *400:14 *6836:RESET_B 0.000368104
9 *400:14 *6980:A 4.42832e-05
10 *6591:B2 *400:14 2.59921e-05
11 *6594:D1 *400:14 0.000129188
12 *6595:B *6595:A 7.61932e-05
13 *6597:C *6595:A 0.00014183
14 *6610:A1 *6595:A 4.14279e-05
15 *6610:A1 *400:14 0.000229456
*RES
1 *7587:X *400:14 30.6214 
2 *400:14 *6597:A 9.3 
3 *400:14 *6595:A 22.2643 
*END

*D_NET *401 0.0199733
*CONN
*I *6740:A2 I *D sky130_fd_sc_hd__a22o_2
*I *6737:A2 I *D sky130_fd_sc_hd__a22o_2
*I *6736:A2 I *D sky130_fd_sc_hd__a22o_2
*I *6703:B1 I *D sky130_fd_sc_hd__o21ai_2
*I *6706:C I *D sky130_fd_sc_hd__and3b_2
*I *6735:A2 I *D sky130_fd_sc_hd__a22o_2
*I *6734:A2 I *D sky130_fd_sc_hd__a22o_2
*I *6644:A I *D sky130_fd_sc_hd__or2_2
*I *6742:A2 I *D sky130_fd_sc_hd__a22o_2
*I *6747:A2 I *D sky130_fd_sc_hd__a22o_2
*I *6921:X O *D sky130_fd_sc_hd__clkdlybuf4s25_1
*CAP
1 *6740:A2 1.76649e-05
2 *6737:A2 8.89619e-06
3 *6736:A2 1.58284e-05
4 *6703:B1 0.000326842
5 *6706:C 0.000321999
6 *6735:A2 1.3832e-05
7 *6734:A2 0.00132259
8 *6644:A 0.000300591
9 *6742:A2 0.000248378
10 *6747:A2 4.67755e-05
11 *6921:X 0.00034145
12 *401:107 0.000953215
13 *401:92 0.000600163
14 *401:58 0.00175849
15 *401:56 0.00102846
16 *401:54 0.000729213
17 *401:52 0.000219884
18 *401:33 0.000949889
19 *401:16 0.00141145
20 *401:10 0.00113107
21 *6644:A *6701:A_N 0.000399713
22 *6644:A *507:10 0
23 *6703:B1 *6703:A1 0.000219818
24 *6703:B1 *6703:A2 0.000144773
25 *6703:B1 *1079:20 4.38128e-05
26 *6734:A2 *6761:A 3.04242e-05
27 *6735:A2 *6735:A1 1.7017e-05
28 *6736:A2 *508:48 3.046e-05
29 *6737:A2 *6569:B 3.046e-05
30 *6740:A2 *528:26 1.50923e-05
31 *6742:A2 *6742:A1 0.000158956
32 *6747:A2 *6747:A1 1.8038e-05
33 *401:10 *6769:RESET_B 0
34 *401:10 *6770:RESET_B 0
35 *401:10 *6973:A 0
36 *401:10 *403:61 0
37 *401:10 *528:18 0
38 *401:10 *528:26 1.08175e-05
39 *401:10 *533:28 2.72967e-05
40 *401:16 *6587:B 8.49755e-06
41 *401:16 *504:76 8.98149e-05
42 *401:16 *506:27 6.97007e-05
43 *401:16 *506:31 4.12053e-05
44 *401:16 *508:78 0.00086448
45 *401:16 *528:26 5.25192e-06
46 *401:33 *502:45 0
47 *401:33 *508:78 0.00111365
48 *401:54 *509:33 6.44928e-05
49 *401:56 *6571:B 0
50 *401:56 *6799:RESET_B 0
51 *401:56 *433:21 0
52 *401:56 *507:10 0
53 *401:56 *507:16 0
54 *401:56 *508:10 0
55 *401:56 *508:48 0
56 *401:56 *509:33 8.15939e-05
57 *401:58 *6701:A_N 1.04707e-05
58 *401:58 *6799:RESET_B 0
59 *401:58 *507:10 0
60 *401:92 *6735:A1 8.87344e-05
61 *401:92 *507:16 0.00014285
62 *401:107 *6836:RESET_B 0
63 *401:107 *6980:A 0.000361914
64 *6589:A2 *401:16 5.31122e-05
65 *6589:B2 *401:16 0.000141962
66 *6596:C1 *6703:B1 2.44318e-05
67 *6644:B *6644:A 0.000181796
68 *6644:B *6706:C 9.25014e-06
69 *6704:C_N *6703:B1 1.02936e-05
70 *6705:A *6706:C 0
71 *6706:A_N *6706:C 5.7298e-05
72 *6707:B1 *6706:C 1.76039e-05
73 *6708:B2 *6706:C 0
74 *6708:B2 *401:107 0.00040381
75 *6734:B1 *6734:A2 5.80858e-06
76 *6735:B2 *401:92 2.01483e-05
77 *6735:B2 *401:107 0.000177107
78 *6737:B2 *6742:A2 2.0658e-05
79 *6740:B1 *401:16 0.000232927
80 *6740:B2 *401:10 0
81 *6742:B2 *6742:A2 0.000240007
82 *6774:CLK *6734:A2 4.64488e-06
83 *6792:CLK *6734:A2 1.7491e-05
84 *6836:D *6706:C 0
85 *6859:CLK *401:52 9.69119e-06
86 *6859:CLK *401:54 4.95618e-05
87 *6859:CLK *401:56 2.8266e-06
88 *6860:D *6742:A2 0.000289196
89 *6863:CLK *401:16 0
90 *6865:CLK *6742:A2 0.000268902
91 *155:51 *401:16 4.54479e-05
92 *155:51 *401:33 0.000241451
93 *199:33 *6703:B1 0.000758581
94 *199:33 *6706:C 0.000110242
95 *199:33 *401:107 3.33214e-06
96 *302:253 *6706:C 9.01334e-05
97 *302:253 *401:107 3.88323e-05
98 *305:12 *6706:C 0.000110318
99 *305:16 *6706:C 0
100 *306:8 *6742:A2 0
101 *306:8 *401:52 3.4323e-06
102 *306:21 *6737:A2 3.046e-05
103 *306:25 *6747:A2 3.04242e-05
104 *307:6 *6742:A2 4.58976e-05
105 *395:18 *6747:A2 1.6864e-05
106 *395:81 *6742:A2 0.000242136
107 *395:81 *401:33 8.15444e-05
108 *395:81 *401:52 5.65801e-06
109 *395:81 *401:54 6.87975e-06
110 *395:96 *401:33 3.7143e-05
*RES
1 *6921:X *401:10 18.8179 
2 *401:10 *401:16 12.0852 
3 *401:16 *6747:A2 18.0939 
4 *401:16 *401:33 5.4028 
5 *401:33 *6742:A2 22.5768 
6 *401:33 *401:52 1.52679 
7 *401:52 *401:54 2.25 
8 *401:54 *401:56 10.4464 
9 *401:56 *401:58 2.40179 
10 *401:58 *6644:A 20.7018 
11 *401:58 *6734:A2 23.7697 
12 *401:56 *401:92 9.39286 
13 *401:92 *6735:A2 9.72857 
14 *401:92 *401:107 13.75 
15 *401:107 *6706:C 21.0366 
16 *401:107 *6703:B1 24.2286 
17 *401:54 *6736:A2 14.1036 
18 *401:52 *6737:A2 14.1036 
19 *401:10 *6740:A2 14.1036 
*END

*D_NET *402 0.028497
*CONN
*I *6739:A2 I *D sky130_fd_sc_hd__a22o_2
*I *6746:A2 I *D sky130_fd_sc_hd__a22o_2
*I *6745:A2 I *D sky130_fd_sc_hd__a22o_2
*I *6748:A2 I *D sky130_fd_sc_hd__a22o_2
*I *6921:A I *D sky130_fd_sc_hd__clkdlybuf4s25_1
*I *6738:A2 I *D sky130_fd_sc_hd__a22o_2
*I *6743:A2 I *D sky130_fd_sc_hd__a22o_2
*I *6716:B I *D sky130_fd_sc_hd__and2_2
*I *6733:A2 I *D sky130_fd_sc_hd__a22o_2
*I *6741:A2 I *D sky130_fd_sc_hd__a22o_2
*I *6922:X O *D sky130_fd_sc_hd__clkdlybuf4s25_1
*CAP
1 *6739:A2 0.000159296
2 *6746:A2 3.19659e-06
3 *6745:A2 0.00033322
4 *6748:A2 0.000301537
5 *6921:A 0
6 *6738:A2 0.000305646
7 *6743:A2 9.46424e-05
8 *6716:B 0
9 *6733:A2 0.000159544
10 *6741:A2 0.000115574
11 *6922:X 0
12 *402:126 0.00144612
13 *402:118 0.00393859
14 *402:99 0.00370502
15 *402:80 0.00295011
16 *402:59 0.00258436
17 *402:22 0.000290388
18 *402:20 0.000589656
19 *402:10 0.00103431
20 *402:6 0.000192981
21 *6733:A2 *6733:A1 0.000118978
22 *6733:A2 *1084:32 1.82609e-05
23 *6738:A2 *6582:A 8.01067e-05
24 *6738:A2 *510:23 0.000509459
25 *6738:A2 *526:10 6.63151e-05
26 *6739:A2 *6572:B 0.000145411
27 *6739:A2 *511:34 8.08022e-05
28 *6739:A2 *511:53 1.02504e-05
29 *6745:A2 *6867:RESET_B 0
30 *6745:A2 *6971:A 1.04707e-05
31 *6745:A2 *438:26 0
32 *6745:A2 *502:12 1.46576e-05
33 *6745:A2 *504:12 0.000114824
34 *6745:A2 *505:24 6.39829e-05
35 *6746:A2 *6746:A1 1.57155e-05
36 *6748:A2 *6749:A 0
37 *6748:A2 *6836:RESET_B 6.81247e-05
38 *6748:A2 *6867:RESET_B 0
39 *6748:A2 *6971:A 0.000113119
40 *6748:A2 *517:10 7.80096e-05
41 *6748:A2 *521:6 1.50923e-05
42 *402:80 *6512:A 0.000134278
43 *402:80 *6861:RESET_B 0.000145336
44 *402:80 *6937:A 5.96031e-05
45 *402:80 *503:55 0.000101601
46 *402:80 *505:81 0.000101623
47 *402:80 *545:6 0.000244318
48 *402:99 *6514:A 0.000227526
49 *402:99 *6776:RESET_B 0
50 *402:99 *6803:D 0.000275304
51 *402:99 *7012:A 0
52 *402:99 *501:85 0.000126446
53 *402:99 *526:10 4.46186e-06
54 *402:99 *533:28 0.000279626
55 *402:118 *6746:A1 0.000452047
56 *402:118 *6767:RESET_B 0.000162006
57 *402:118 *6770:RESET_B 4.34472e-05
58 *402:118 *438:65 0
59 *402:118 *503:35 0.000138676
60 *402:118 *503:55 8.23597e-06
61 *402:118 *519:10 0
62 *402:118 *533:28 5.33005e-05
63 *402:126 *6746:A1 1.90936e-05
64 *402:126 *6836:RESET_B 2.40453e-05
65 *402:126 *505:24 0.00022916
66 *6584:C *6743:A2 0.000333188
67 *6584:C *402:20 7.79058e-05
68 *6584:C *402:59 2.77173e-05
69 *6584:C *402:80 0.00014006
70 *6584:D *402:80 3.18676e-05
71 *6590:C1 *402:80 0.000272193
72 *6593:C *6746:A2 1.46576e-05
73 *6593:C *402:118 0.00054664
74 *6716:A *6733:A2 0.000140187
75 *6716:A *402:20 8.6229e-06
76 *6733:B2 *6733:A2 9.87526e-05
77 *6739:B1 *6739:A2 1.58533e-05
78 *6739:B1 *402:10 7.83659e-05
79 *6739:B2 *6739:A2 1.46576e-05
80 *6741:B1 *6741:A2 7.54606e-05
81 *6743:B2 *6743:A2 0.000289375
82 *6743:B2 *402:59 0.000458678
83 *6745:B1 *6745:A2 0.000265132
84 *6746:B2 *402:118 0
85 *6746:B2 *402:126 0
86 *6748:B1 *6748:A2 0.000117429
87 *6748:B2 *6748:A2 0
88 *6782:CLK *402:118 5.38293e-05
89 *6788:CLK *402:80 0.000287795
90 *6788:D *402:80 0.000237449
91 *6856:CLK *402:20 0
92 *6856:CLK *402:22 0
93 *6861:D *6738:A2 0
94 *6861:D *402:99 0
95 *6862:D *6739:A2 1.46576e-05
96 *6869:D *402:118 4.81894e-05
97 *187:12 *6739:A2 7.36162e-05
98 *187:12 *402:10 3.34783e-05
99 *187:27 *6739:A2 0.00018459
100 *266:14 *402:20 0
101 *303:51 *6741:A2 0.000196889
102 *303:51 *402:20 9.58126e-05
103 *303:70 *6738:A2 0
104 *307:28 *402:118 0
105 *308:14 *6748:A2 4.25809e-05
106 *308:18 *6748:A2 1.80583e-05
107 *311:87 *402:118 0
108 *395:124 *402:126 0.00136311
109 *396:28 *6738:A2 0.00028227
*RES
1 *6922:X *402:6 13.8 
2 *402:6 *402:10 5.53571 
3 *402:10 *402:20 16.8214 
4 *402:20 *402:22 0.428571 
5 *402:22 *6741:A2 12.2107 
6 *402:22 *6733:A2 22.1973 
7 *402:20 *6716:B 9.3 
8 *402:10 *402:59 5.875 
9 *402:59 *6743:A2 13.2107 
10 *402:59 *402:80 34.9821 
11 *402:80 *6738:A2 22.6929 
12 *402:80 *402:99 17.625 
13 *402:99 *6921:A 9.3 
14 *402:99 *402:118 30.0762 
15 *402:118 *402:126 9.44992 
16 *402:126 *6748:A2 21.0589 
17 *402:126 *6745:A2 21.8134 
18 *402:118 *6746:A2 13.9473 
19 *402:6 *6739:A2 17.9473 
*END

*D_NET *403 0.0156266
*CONN
*I *6789:RESET_B I *D sky130_fd_sc_hd__dfrtp_2
*I *6788:RESET_B I *D sky130_fd_sc_hd__dfrtp_2
*I *6787:RESET_B I *D sky130_fd_sc_hd__dfrtp_2
*I *6792:RESET_B I *D sky130_fd_sc_hd__dfrtp_2
*I *6769:RESET_B I *D sky130_fd_sc_hd__dfrtp_2
*I *6770:RESET_B I *D sky130_fd_sc_hd__dfrtp_2
*I *6791:RESET_B I *D sky130_fd_sc_hd__dfrtp_2
*I *6794:RESET_B I *D sky130_fd_sc_hd__dfrtp_2
*I *6795:RESET_B I *D sky130_fd_sc_hd__dfrtp_2
*I *6793:RESET_B I *D sky130_fd_sc_hd__dfrtp_2
*I *6923:X O *D sky130_fd_sc_hd__clkdlybuf4s25_1
*CAP
1 *6789:RESET_B 0.000200392
2 *6788:RESET_B 0.000592767
3 *6787:RESET_B 0.000527723
4 *6792:RESET_B 0.000165365
5 *6769:RESET_B 0.000464195
6 *6770:RESET_B 0.000348751
7 *6791:RESET_B 6.26071e-05
8 *6794:RESET_B 2.80259e-05
9 *6795:RESET_B 0.000576209
10 *6793:RESET_B 0.000833258
11 *6923:X 0.00023978
12 *403:61 0.00165392
13 *403:47 0.00139742
14 *403:23 0.000835998
15 *403:21 0.00101837
16 *6769:RESET_B *6567:A 0
17 *6769:RESET_B *6973:A 4.58976e-05
18 *6769:RESET_B *501:65 0.000641888
19 *6770:RESET_B *6754:A 0.00017335
20 *6770:RESET_B *547:10 0.00012401
21 *6787:RESET_B *6755:A 0.000144773
22 *6787:RESET_B *6781:D 4.96155e-05
23 *6787:RESET_B *512:57 0.000785688
24 *6787:RESET_B *546:20 7.49387e-06
25 *6788:RESET_B *6513:A 2.49484e-05
26 *6788:RESET_B *6756:A 0
27 *6788:RESET_B *6778:RESET_B 0.000275094
28 *6788:RESET_B *533:28 0
29 *6788:RESET_B *545:29 0
30 *6789:RESET_B *545:29 5.42764e-05
31 *6792:RESET_B *540:8 4.50862e-05
32 *6795:RESET_B *6771:RESET_B 0
33 *6795:RESET_B *6796:D 0
34 *6795:RESET_B *6796:RESET_B 4.57445e-05
35 *6795:RESET_B *7010:A 0
36 *6795:RESET_B *7242:A 0
37 *6795:RESET_B *7245:A 0
38 *6795:RESET_B *532:10 1.20135e-05
39 *403:21 *7008:A 0.000126639
40 *403:21 *540:8 7.77352e-05
41 *403:23 *6762:A 0.000143804
42 *403:23 *6772:RESET_B 0
43 *403:23 *6796:RESET_B 3.47561e-05
44 *403:23 *539:10 0.000175519
45 *403:47 *6772:RESET_B 0
46 *403:47 *6797:D 0.000176234
47 *403:47 *7008:A 0
48 *403:47 *425:66 8.31156e-05
49 *403:47 *506:27 0
50 *403:61 *6567:A 1.94945e-05
51 *403:61 *6568:A 7.79091e-05
52 *403:61 *6568:B 1.11775e-05
53 *403:61 *6582:B 0
54 *403:61 *6588:B 2.13687e-05
55 *403:61 *6754:A 4.29471e-05
56 *403:61 *6775:D 0.000186599
57 *403:61 *6801:D 0.000102545
58 *403:61 *425:66 0.000186303
59 *403:61 *506:27 0
60 *403:61 *509:12 0.000261234
61 *403:61 *512:10 8.44545e-05
62 *403:61 *528:26 1.13265e-05
63 *403:61 *542:8 0.000128154
64 *403:61 *543:16 2.59093e-05
65 *6589:A1 *403:61 0.000211706
66 *6740:B1 *403:61 6.04711e-05
67 *6740:B2 *403:61 0.000123137
68 *6769:CLK *6769:RESET_B 9.38453e-05
69 *6769:D *6769:RESET_B 0.000118154
70 *6770:CLK *6787:RESET_B 0.000144773
71 *6770:D *6770:RESET_B 0
72 *6770:D *6787:RESET_B 0.000125877
73 *6771:CLK *6795:RESET_B 0
74 *6773:CLK *6792:RESET_B 5.33005e-05
75 *6774:CLK *6792:RESET_B 0.000223065
76 *6787:D *6788:RESET_B 8.33803e-05
77 *6792:D *403:47 8.39e-05
78 *6793:CLK *403:21 0.000144773
79 *6805:CLK *6770:RESET_B 0
80 *311:87 *6769:RESET_B 0.000358971
81 *311:87 *6770:RESET_B 0
82 *317:8 *6793:RESET_B 0.000227636
83 *318:16 *6794:RESET_B 2.51837e-05
84 *318:18 *6795:RESET_B 0
85 *318:18 *403:23 0
86 *318:38 *403:23 0
87 *318:71 *6792:RESET_B 3.12359e-05
88 *318:71 *6793:RESET_B 0.000121842
89 *401:10 *6769:RESET_B 0
90 *401:10 *6770:RESET_B 0
91 *401:10 *403:61 0
92 *402:118 *6770:RESET_B 4.34472e-05
*RES
1 *6923:X *6793:RESET_B 22.1214 
2 *6793:RESET_B *403:21 13.2054 
3 *403:21 *403:23 5.58929 
4 *403:23 *6795:RESET_B 14.8125 
5 *403:23 *6794:RESET_B 4.97321 
6 *403:21 *403:47 8.375 
7 *403:47 *6791:RESET_B 5.38393 
8 *403:47 *403:61 22.4911 
9 *403:61 *6770:RESET_B 9.02679 
10 *403:61 *6769:RESET_B 25.4286 
11 *6793:RESET_B *6792:RESET_B 13.0446 
12 *6770:RESET_B *6787:RESET_B 7.39286 
13 *6787:RESET_B *6788:RESET_B 16.8214 
14 *6788:RESET_B *6789:RESET_B 12.1607 
*END

*D_NET *404 0.0177348
*CONN
*I *6765:RESET_B I *D sky130_fd_sc_hd__dfrtp_2
*I *6764:RESET_B I *D sky130_fd_sc_hd__dfrtp_2
*I *6766:RESET_B I *D sky130_fd_sc_hd__dfrtp_2
*I *6767:RESET_B I *D sky130_fd_sc_hd__dfrtp_2
*I *6768:RESET_B I *D sky130_fd_sc_hd__dfrtp_2
*I *6923:A I *D sky130_fd_sc_hd__clkdlybuf4s25_1
*I *6790:RESET_B I *D sky130_fd_sc_hd__dfrtp_2
*I *6924:X O *D sky130_fd_sc_hd__clkdlybuf4s25_1
*CAP
1 *6765:RESET_B 0
2 *6764:RESET_B 0.00030094
3 *6766:RESET_B 0.000794823
4 *6767:RESET_B 0.00181912
5 *6768:RESET_B 0.00288541
6 *6923:A 0.00043274
7 *6790:RESET_B 0.000939371
8 *6924:X 0
9 *404:95 0.000694298
10 *404:20 0.00216497
11 *404:4 0.00120384
12 *6764:RESET_B *437:39 0
13 *6764:RESET_B *537:12 0
14 *6766:RESET_B *438:20 8.94203e-05
15 *6767:RESET_B *501:65 1.20135e-05
16 *6767:RESET_B *503:55 0.000182358
17 *6767:RESET_B *505:81 0.000220881
18 *6768:RESET_B *6753:A 0.000272371
19 *6768:RESET_B *6870:RESET_B 1.68833e-05
20 *6768:RESET_B *6975:A 1.3142e-05
21 *6768:RESET_B *433:21 0
22 *6768:RESET_B *498:14 1.21258e-05
23 *6768:RESET_B *501:65 4.32253e-05
24 *6768:RESET_B *514:10 0
25 *6768:RESET_B *514:12 0
26 *6768:RESET_B *514:20 0
27 *6768:RESET_B *520:31 4.22135e-06
28 *6790:RESET_B *498:14 0.000116412
29 *6790:RESET_B *506:27 0.000290648
30 *6790:RESET_B *509:12 0.000109314
31 *6790:RESET_B *522:23 0.000288933
32 *6790:RESET_B *543:16 5.33334e-05
33 *6923:A *6939:A 0.000175484
34 *6923:A *428:41 9.60939e-05
35 *6923:A *475:8 0.000137983
36 *6923:A *498:14 0.000894784
37 *6923:A *514:24 0.00101027
38 *404:20 *498:14 0.000118903
39 *404:95 *6784:D 0
40 *404:95 *436:10 0
41 *404:95 *437:39 0
42 *404:95 *503:16 0
43 *6610:A1 *6768:RESET_B 7.43578e-06
44 *6610:A2 *6768:RESET_B 5.80203e-05
45 *6612:B *6923:A 2.8266e-06
46 *6734:B2 *6790:RESET_B 1.20741e-05
47 *6742:B1 *6768:RESET_B 8.53773e-05
48 *6742:B2 *6767:RESET_B 1.28585e-05
49 *6768:CLK *6768:RESET_B 9.80173e-05
50 *6768:D *6768:RESET_B 0.000125877
51 *6809:CLK *404:95 0
52 *6865:CLK *6768:RESET_B 0.000175038
53 *6865:D *6768:RESET_B 6.48068e-05
54 *6874:D *6768:RESET_B 0.000122814
55 *155:51 *6768:RESET_B 0.000596846
56 *155:68 *6768:RESET_B 0
57 *155:68 *6923:A 1.68257e-05
58 *186:42 *6768:RESET_B 2.59355e-05
59 *186:42 *6923:A 3.17067e-05
60 *302:199 *6768:RESET_B 0
61 *309:8 *6764:RESET_B 0
62 *309:69 *6764:RESET_B 0
63 *317:8 *6923:A 0.000442939
64 *395:73 *6768:RESET_B 8.71613e-05
65 *396:130 *6768:RESET_B 0.000211961
66 *402:118 *6767:RESET_B 0.000162006
*RES
1 *6924:X *404:4 9.3 
2 *404:4 *6790:RESET_B 24.4554 
3 *404:4 *404:20 3.41071 
4 *404:20 *6923:A 37.05 
5 *404:20 *6768:RESET_B 37.3839 
6 *6768:RESET_B *6767:RESET_B 20.0647 
7 *6767:RESET_B *6766:RESET_B 6.44643 
8 *6766:RESET_B *404:95 11 
9 *404:95 *6764:RESET_B 9.48214 
10 *404:95 *6765:RESET_B 4.5 
*END

*D_NET *405 0.0210367
*CONN
*I *6530:A I *D sky130_fd_sc_hd__and3_2
*I *6538:A I *D sky130_fd_sc_hd__and3_2
*I *6524:A I *D sky130_fd_sc_hd__and3_2
*I *6526:A I *D sky130_fd_sc_hd__and3_2
*I *6533:A I *D sky130_fd_sc_hd__and3_2
*I *6528:A I *D sky130_fd_sc_hd__and3_2
*I *6534:A I *D sky130_fd_sc_hd__and3_2
*I *6532:A I *D sky130_fd_sc_hd__and3_2
*I *6535:A I *D sky130_fd_sc_hd__and3_2
*I *6539:A I *D sky130_fd_sc_hd__and3_2
*I *6925:X O *D sky130_fd_sc_hd__clkdlybuf4s25_1
*CAP
1 *6530:A 0
2 *6538:A 0.000308296
3 *6524:A 6.40361e-05
4 *6526:A 0
5 *6533:A 0
6 *6528:A 0
7 *6534:A 0.000388223
8 *6532:A 0.00104994
9 *6535:A 0
10 *6539:A 0
11 *6925:X 0.000359878
12 *405:113 0.00122239
13 *405:95 0.00110264
14 *405:89 0.000427008
15 *405:66 0.00150229
16 *405:62 0.000524954
17 *405:51 0.0004997
18 *405:43 0.000776915
19 *405:28 0.00136014
20 *405:10 0.001584
21 *6524:A *7081:A 2.89114e-05
22 *6532:A *6532:B 9.80173e-05
23 *6532:A *6629:B2 5.65955e-05
24 *6532:A *7399:A 3.36817e-05
25 *6532:A *7401:A 0.000244527
26 *6532:A *7410:A 1.74352e-05
27 *6532:A *7410:B 0.000211957
28 *6534:A *6528:B 6.86396e-05
29 *6534:A *6528:C 0.000272327
30 *6534:A *7336:A 0.000111776
31 *6534:A *7453:A 5.52238e-05
32 *6534:A *411:46 8.25843e-06
33 *6534:A *411:55 0.000151563
34 *6538:A *6538:B 1.40415e-05
35 *405:10 *6540:B 0.000177934
36 *405:10 *7147:A 3.4879e-05
37 *405:10 *408:22 9.21958e-05
38 *405:28 *6540:B 2.48938e-05
39 *405:28 *6545:B 5.08737e-05
40 *405:28 *6558:A 5.52238e-05
41 *405:28 *6630:A2 5.49544e-05
42 *405:28 *7347:A 2.524e-05
43 *405:28 *7348:A 7.21807e-05
44 *405:28 *7351:A 2.524e-05
45 *405:28 *7352:A 0.000116058
46 *405:28 *7354:A 0.000110942
47 *405:28 *7355:A 4.11274e-05
48 *405:28 *7361:A 2.79827e-05
49 *405:28 *7362:A 9.23364e-05
50 *405:28 *7363:A 0.000119475
51 *405:28 *408:22 0.000280098
52 *405:28 *409:121 0.000491865
53 *405:28 *411:114 0
54 *405:28 *852:12 0.000114413
55 *405:43 *6630:A2 5.49489e-05
56 *405:43 *415:32 0.000135009
57 *405:51 *6616:A2 1.88477e-05
58 *405:51 *7062:A 0.000155772
59 *405:51 *7063:A 1.9774e-05
60 *405:51 *415:32 0.000289298
61 *405:62 *6616:A2 1.58163e-05
62 *405:62 *6626:B1 0.000406219
63 *405:66 *6626:B1 9.25014e-06
64 *405:66 *7313:A 6.65302e-05
65 *405:89 *6526:B 9.71197e-05
66 *405:89 *6625:A1 7.49387e-06
67 *405:89 *7441:A 7.32272e-05
68 *405:89 *412:77 8.07951e-05
69 *405:89 *413:96 3.67452e-05
70 *405:95 *7413:A 0.000126439
71 *405:95 *7415:A 0.000151333
72 *405:95 *412:66 0.000873169
73 *405:95 *412:77 2.48938e-05
74 *405:95 *413:96 0.000332455
75 *405:113 *6528:C 8.67797e-05
76 *405:113 *7334:A 0.000286194
77 *405:113 *7336:A 0.000227603
78 *405:113 *7338:A 2.44999e-05
79 *6532:C *6532:A 3.47797e-05
80 *6533:C *405:95 5.52238e-05
81 *6533:C *405:113 0.00014183
82 *6538:C *6538:A 0.000524093
83 *6626:C1 *405:66 0.000259461
84 *148:65 *405:66 0
85 *151:113 *6532:A 0.00125346
86 *151:113 *405:89 0.000129515
87 *151:130 *405:62 0.000214856
88 *151:130 *405:66 0.000261133
89 *152:77 *405:28 1.08616e-05
90 *213:10 *405:66 0
*RES
1 *6925:X *405:10 19.4607 
2 *405:10 *405:28 40.8036 
3 *405:28 *6539:A 9.3 
4 *405:28 *405:43 7.64286 
5 *405:43 *405:51 10.875 
6 *405:51 *6535:A 9.3 
7 *405:51 *405:62 10.3214 
8 *405:62 *405:66 13.125 
9 *405:66 *6532:A 31.6929 
10 *405:66 *405:89 8.53571 
11 *405:89 *405:95 16.3929 
12 *405:95 *405:113 22.8571 
13 *405:113 *6534:A 18.05 
14 *405:113 *6528:A 9.3 
15 *405:95 *6533:A 9.3 
16 *405:89 *6526:A 13.8 
17 *405:62 *6524:A 14.7643 
18 *405:43 *6538:A 20.0857 
19 *405:10 *6530:A 13.8 
*END

*D_NET *406 0.0128514
*CONN
*I *6544:A I *D sky130_fd_sc_hd__and3_2
*I *6543:A I *D sky130_fd_sc_hd__and3_2
*I *6545:A I *D sky130_fd_sc_hd__and3_2
*I *6542:A I *D sky130_fd_sc_hd__and3_2
*I *6537:A I *D sky130_fd_sc_hd__and3_2
*I *6540:A I *D sky130_fd_sc_hd__and3_2
*I *6926:X O *D sky130_fd_sc_hd__clkdlybuf4s25_1
*CAP
1 *6544:A 0
2 *6543:A 4.53801e-05
3 *6545:A 0.000272963
4 *6542:A 9.14401e-05
5 *6537:A 0.000901043
6 *6540:A 6.51925e-05
7 *6926:X 0.000138798
8 *406:58 0.000475793
9 *406:41 0.00211272
10 *406:20 0.001229
11 *406:18 0.000651197
12 *406:12 0.000681085
13 *6537:A *7094:A 2.80715e-05
14 *6537:A *7095:A 9.47974e-05
15 *6537:A *7096:A 9.21898e-05
16 *6537:A *7097:A 6.42095e-05
17 *6537:A *7124:A 0
18 *6537:A *7136:A 3.27461e-05
19 *6537:A *588:6 0.000158415
20 *6537:A *621:12 0
21 *6540:A *7144:A 1.58163e-05
22 *6540:A *408:22 1.00375e-05
23 *6542:A *414:105 9.94037e-05
24 *6545:A *7200:A 0
25 *406:12 *7250:A 0.000186662
26 *406:12 *481:46 0.000100831
27 *406:18 *408:22 4.47299e-05
28 *406:41 *7132:A 6.98553e-06
29 *406:41 *7134:A 2.21826e-05
30 *406:41 *7135:A 2.3906e-05
31 *406:41 *7136:A 2.84026e-05
32 *406:41 *7137:A 6.06291e-06
33 *406:41 *7138:A 7.93654e-05
34 *406:41 *7139:A 8.4901e-05
35 *406:41 *7140:A 6.3789e-05
36 *406:41 *7145:A 0.000283475
37 *406:41 *7154:B 7.66879e-05
38 *406:58 *7136:A 0.000134752
39 *406:58 *7200:A 0
40 *6562:A *406:18 0.000239892
41 *6614:A1 *406:18 0.000208009
42 *6622:A1 *406:18 1.94879e-05
43 *6925:A *6540:A 0.00012401
44 *6925:A *406:18 0.00120476
45 *6925:A *406:20 0.00027338
46 *6926:A *406:18 1.17968e-05
47 *145:12 *406:12 0.00034756
48 *145:12 *406:18 0.000136958
49 *150:45 *406:41 8.8829e-05
50 *152:56 *6540:A 0.00015656
51 *152:56 *406:18 0.00114592
52 *152:56 *406:20 0.000266551
53 *153:51 *406:12 9.90367e-05
54 *153:51 *406:18 9.60939e-05
55 *217:10 *6537:A 0
56 *218:20 *406:58 0
57 *285:9 *406:18 2.95726e-05
*RES
1 *6926:X *406:12 23.05 
2 *406:12 *406:18 26.2321 
3 *406:18 *406:20 3.46429 
4 *406:20 *6540:A 15.9786 
5 *406:20 *406:41 25.7857 
6 *406:41 *6537:A 28.8714 
7 *406:41 *406:58 2.25 
8 *406:58 *6542:A 15.5679 
9 *406:58 *6545:A 18.2821 
10 *406:18 *6543:A 14.3357 
11 *406:12 *6544:A 9.3 
*END

*D_NET *407 0.0649302
*CONN
*I *6560:C I *D sky130_fd_sc_hd__and3_2
*I *6559:C I *D sky130_fd_sc_hd__and3_2
*I *6550:C I *D sky130_fd_sc_hd__and3_2
*I *6549:C I *D sky130_fd_sc_hd__and3_2
*I *6552:C I *D sky130_fd_sc_hd__and3_2
*I *6548:C I *D sky130_fd_sc_hd__and3_2
*I *6555:C I *D sky130_fd_sc_hd__and3_2
*I *6551:C I *D sky130_fd_sc_hd__and3_2
*I *6547:C I *D sky130_fd_sc_hd__and3_2
*I *6556:C I *D sky130_fd_sc_hd__and3_2
*I *6927:X O *D sky130_fd_sc_hd__clkdlybuf4s25_1
*CAP
1 *6560:C 0.0002101
2 *6559:C 0.00434583
3 *6550:C 0.000123256
4 *6549:C 0.000205855
5 *6552:C 2.58943e-05
6 *6548:C 0
7 *6555:C 0
8 *6551:C 0
9 *6547:C 0.000230863
10 *6556:C 0.000534774
11 *6927:X 0
12 *407:124 0.00475619
13 *407:107 0.00292351
14 *407:94 0.00401959
15 *407:55 0.000392727
16 *407:53 0.00115708
17 *407:49 0.0018022
18 *407:39 0.0022409
19 *407:14 0.00199746
20 *407:10 0.00106813
21 *407:8 0.00363733
22 *407:6 0.00363733
23 *407:4 0.000200259
24 *6547:C *6547:A 0.000271301
25 *6547:C *414:28 8.70565e-05
26 *6549:C *6549:A 0.000146901
27 *6549:C *6553:A 0
28 *6550:C *6550:A 8.46885e-05
29 *6552:C *6552:A 1.68417e-05
30 *6552:C *412:26 7.20655e-05
31 *6556:C *412:10 9.77274e-05
32 *6556:C *478:79 0.000283474
33 *6559:C *6559:A 1.28585e-05
34 *6559:C *6695:A0 0.000128553
35 *6559:C *6717:B2 0.000501752
36 *6559:C *442:24 0
37 *6559:C *451:20 0.000660496
38 *6559:C *475:126 0.000135203
39 *6559:C *477:18 0.000121813
40 *6559:C *478:39 0.000103231
41 *6560:C *412:149 2.40966e-05
42 *6560:C *513:83 7.86636e-05
43 *407:8 *412:49 0.000444978
44 *407:8 *412:149 0.00529358
45 *407:39 *412:20 0.000798125
46 *407:39 *413:52 0.00363709
47 *407:55 *414:26 5.71472e-06
48 *407:55 *414:28 0.000182871
49 *407:94 *6549:A 2.19502e-05
50 *407:94 *413:52 0.0007129
51 *407:94 *415:14 0.000457449
52 *407:94 *478:73 0.00114383
53 *407:107 *413:71 0.00442365
54 *407:107 *413:84 8.46829e-05
55 *407:107 *415:14 0.000358897
56 *407:124 *478:39 9.0145e-05
57 uio_out[6] *6559:C 0.000558197
58 *6552:B *407:39 7.83587e-05
59 *6553:B *407:94 0
60 *6556:B *407:39 0
61 *6559:B *6559:C 0.000172674
62 *6560:B *6560:C 0.000287039
63 *6560:B *407:124 8.44353e-05
64 *6618:A0 *6559:C 0
65 *6634:A0 *6560:C 0
66 *6695:A1 *6559:C 0.000135217
67 *6723:B1 *6560:C 0
68 *6845:CLK *6560:C 0
69 *6929:A *6550:C 0
70 *7571:en *407:53 0.000318101
71 *7571:en *407:55 7.41433e-05
72 *7579:en *6549:C 0
73 *7589:A *6556:C 0.00046288
74 *40:16 *6559:C 3.86644e-05
75 *41:14 *6559:C 0.000341599
76 *146:10 *6552:C 3.18676e-05
77 *146:10 *407:49 0.00137153
78 *146:10 *407:53 0.000675084
79 *148:32 *407:14 6.12253e-05
80 *148:32 *407:94 0.000128249
81 *151:52 *407:14 9.07743e-05
82 *151:52 *407:39 0.000432609
83 *151:52 *407:94 0.00239266
84 *272:10 *6560:C 0.000139192
85 *272:10 *407:124 3.5703e-05
86 *279:12 *407:39 0.00010326
87 *283:12 *6556:C 0.000108511
88 *283:12 *407:8 0.00200277
89 *337:85 *6559:C 0.000813613
*RES
1 *6927:X *407:4 9.3 
2 *407:4 *407:6 4.5 
3 *407:6 *407:8 125.955 
4 *407:8 *407:10 3.41 
5 *407:10 *407:14 3.6732 
6 *407:14 *6556:C 23.7554 
7 *407:14 *407:39 45.4643 
8 *407:39 *407:49 20.0893 
9 *407:49 *407:53 14.9286 
10 *407:53 *407:55 2.58929 
11 *407:55 *6547:C 12.7107 
12 *407:55 *6551:C 9.3 
13 *407:53 *6555:C 9.3 
14 *407:49 *6548:C 9.3 
15 *407:39 *6552:C 14.7643 
16 *407:10 *407:94 10.5234 
17 *407:94 *6549:C 16.3536 
18 *407:94 *407:107 46.9286 
19 *407:107 *6550:C 20.55 
20 *407:4 *407:124 7.45536 
21 *407:124 *6559:C 31.97 
22 *407:124 *6560:C 19.3625 
*END

*D_NET *408 0.043307
*CONN
*I *6561:C I *D sky130_fd_sc_hd__and3_2
*I *6562:C I *D sky130_fd_sc_hd__and3_2
*I *6558:C I *D sky130_fd_sc_hd__and3_2
*I *6557:C I *D sky130_fd_sc_hd__and3_2
*I *6554:C I *D sky130_fd_sc_hd__and3_2
*I *6553:C I *D sky130_fd_sc_hd__and3_2
*I *6928:X O *D sky130_fd_sc_hd__clkdlybuf4s25_1
*CAP
1 *6561:C 0
2 *6562:C 0
3 *6558:C 0
4 *6557:C 0
5 *6554:C 0
6 *6553:C 0.000321874
7 *6928:X 0.000320464
8 *408:121 0.00132961
9 *408:117 0.00302716
10 *408:70 0.00196082
11 *408:60 0.00307424
12 *408:42 0.00348336
13 *408:32 0.0040378
14 *408:28 0.00225947
15 *408:22 0.00185988
16 *408:12 0.00160504
17 *408:10 0.00203291
18 *6553:C *6553:A 8.35869e-06
19 *408:22 *6540:B 1.50563e-05
20 *408:22 *6558:A 4.38128e-05
21 *408:22 *7144:A 9.42962e-05
22 *408:28 *6558:A 5.52302e-05
23 *408:28 *409:108 0
24 *408:32 *7456:A 0
25 *408:32 *7458:A 0
26 *408:32 *7460:A 4.57538e-05
27 *408:32 *7462:A 4.98872e-05
28 *408:32 *409:19 0
29 *408:32 *409:32 0
30 *408:32 *411:46 0.00025263
31 *408:42 *409:17 0.000931481
32 *408:42 *415:14 0.00019461
33 *408:60 *6550:A 0
34 *408:60 *409:6 0.0011443
35 *408:60 *409:17 4.64763e-05
36 *408:60 *415:14 0.000138715
37 *408:70 *411:32 9.25014e-06
38 *408:70 *415:14 0.000669823
39 *408:117 *411:145 0.00205641
40 *6540:A *408:22 1.00375e-05
41 *6557:B *408:28 0.000293438
42 *6557:B *408:32 1.02504e-05
43 *6561:B *408:121 0.00271162
44 *6562:A *408:22 7.60406e-05
45 *6622:A1 *408:22 5.58875e-06
46 *6925:A *408:22 6.39262e-05
47 *6926:A *408:10 7.3237e-05
48 *6926:A *408:22 0
49 *7578:en *408:10 2.92126e-05
50 *7578:en *408:12 9.59532e-06
51 *7578:en *408:22 4.6025e-06
52 *7578:en *408:117 0.000659436
53 *7579:en *6553:C 2.37159e-05
54 *7583:en *408:70 0.000230482
55 *148:34 *408:42 0
56 *149:20 *6553:C 5.52302e-05
57 *149:37 *408:60 0.000424897
58 *149:37 *408:70 0.000172536
59 *149:41 *408:60 0.000183152
60 *150:20 *6553:C 2.59355e-05
61 *150:20 *408:70 0.0034269
62 *152:56 *408:22 0.000821733
63 *153:26 *408:121 0.000893698
64 *153:34 *408:22 7.80167e-05
65 *154:25 *408:117 0
66 *201:20 *408:22 0.000221907
67 *205:12 *408:10 7.65804e-05
68 *206:26 *408:22 0
69 *206:26 *408:28 0
70 *269:18 *408:32 1.01912e-05
71 *273:12 *408:121 0.000494411
72 *285:9 *408:117 0.000734875
73 *405:10 *408:22 9.21958e-05
74 *405:28 *408:22 0.000280098
75 *406:18 *408:22 4.47299e-05
*RES
1 *6928:X *408:10 18.0946 
2 *408:10 *408:12 0.276786 
3 *408:12 *408:22 44.9821 
4 *408:22 *408:28 10.0179 
5 *408:28 *408:32 39.2321 
6 *408:32 *408:42 47.7679 
7 *408:42 *408:60 32.125 
8 *408:60 *408:70 45.5 
9 *408:70 *6553:C 22.675 
10 *408:42 *6554:C 9.3 
11 *408:28 *6557:C 13.8 
12 *408:22 *6558:C 9.3 
13 *408:12 *6562:C 13.8 
14 *408:10 *408:117 15.3709 
15 *408:117 *408:121 49.0982 
16 *408:121 *6561:C 9.3 
*END

*D_NET *409 0.0315698
*CONN
*I *6550:B I *D sky130_fd_sc_hd__and3_2
*I *6540:B I *D sky130_fd_sc_hd__and3_2
*I *6530:C I *D sky130_fd_sc_hd__and3_2
*I *6558:A I *D sky130_fd_sc_hd__and3_2
*I *6545:B I *D sky130_fd_sc_hd__and3_2
*I *6535:B I *D sky130_fd_sc_hd__and3_2
*I *6626:B1 I *D sky130_fd_sc_hd__a221o_2
*I *6630:B1 I *D sky130_fd_sc_hd__a221o_2
*I *6617:B1 I *D sky130_fd_sc_hd__a221o_2
*I *6554:A I *D sky130_fd_sc_hd__and3_2
*I *6929:X O *D sky130_fd_sc_hd__clkdlybuf4s25_1
*CAP
1 *6550:B 0.000401371
2 *6540:B 0.000249109
3 *6530:C 4.985e-05
4 *6558:A 0.00010599
5 *6545:B 0.00104905
6 *6535:B 6.59538e-05
7 *6626:B1 0.000506635
8 *6630:B1 0
9 *6617:B1 0
10 *6554:A 0
11 *6929:X 0.000572827
12 *409:121 0.000473358
13 *409:108 0.000456725
14 *409:55 0.000830319
15 *409:47 0.00144917
16 *409:38 0.00104679
17 *409:32 0.00133353
18 *409:19 0.0022642
19 *409:17 0.00312684
20 *409:6 0.00128689
21 *6530:C *6530:B 1.58213e-06
22 *6535:B *6616:A2 9.90431e-05
23 *6540:B *7144:A 5.52302e-05
24 *6545:B *6630:A2 6.12955e-05
25 *6545:B *7112:A 0.000127246
26 *6545:B *7117:A 0.000146071
27 *6545:B *411:129 1.26314e-05
28 *6626:B1 *7062:A 0.00012401
29 *6626:B1 *7078:A 1.36161e-05
30 *6626:B1 *7079:A 7.16657e-05
31 *6626:B1 *413:127 1.73979e-05
32 *6626:B1 *415:32 0.000101363
33 *409:6 *415:14 0.000245029
34 *409:17 *415:14 0.000515012
35 *409:19 *6532:B 0.00108751
36 *409:19 *7450:A 0
37 *409:19 *7453:A 0
38 *409:19 *7456:A 4.03318e-05
39 *409:19 *7458:A 5.35423e-05
40 *409:19 *7460:A 0
41 *409:19 *7462:A 0
42 *409:19 *7464:A 0
43 *409:19 *7468:A 0
44 *409:19 *7471:A 0
45 *409:19 *7474:B 0
46 *409:19 *411:46 0
47 *409:32 *6532:B 3.51442e-05
48 *409:32 *414:69 0.00022791
49 *409:38 *6630:B2 1.97502e-05
50 *409:38 *7353:A 6.29385e-05
51 *409:38 *7354:A 2.03982e-05
52 *409:38 *7356:A 3.82062e-05
53 *409:38 *7358:A 3.49408e-05
54 *409:38 *7359:A 2.51217e-05
55 *409:38 *7360:A 0.000140055
56 *409:38 *7361:A 2.09082e-05
57 *409:47 *6630:A1 3.54964e-05
58 *409:47 *6630:A2 0.000441683
59 *409:47 *6630:B2 1.40034e-05
60 *409:47 *411:114 0.000147593
61 *409:55 *6630:A2 1.98839e-05
62 *409:55 *411:114 7.66438e-05
63 *409:55 *411:129 0.000167918
64 *409:55 *415:49 0.000160145
65 *409:108 *7361:A 0.000150618
66 *409:108 *414:69 3.32262e-05
67 *409:108 *414:93 0
68 *409:121 *7361:A 9.25014e-06
69 *409:121 *7365:A 8.15939e-05
70 *6538:C *409:55 3.69697e-05
71 *6545:C *6545:B 4.00276e-06
72 *6557:B *409:32 0
73 *6557:B *409:108 0
74 *6621:A1 *6545:B 0.000424848
75 *6624:C1 *6545:B 0.000143862
76 *6925:A *6540:B 0.000324167
77 *7574:en *6558:A 0.000100625
78 *149:41 *6550:B 0.000169451
79 *149:41 *409:6 0.000624484
80 *149:41 *409:17 0.00250478
81 *150:20 *6550:B 0.000316184
82 *151:77 *409:17 0.000656694
83 *151:149 *6626:B1 3.38136e-05
84 *151:149 *409:55 0.000266602
85 *152:77 *6540:B 0.000275294
86 *152:77 *6558:A 3.14078e-05
87 *152:77 *409:121 0.000160733
88 *152:109 *409:55 5.10822e-05
89 *213:10 *6545:B 0.00119314
90 *213:10 *6626:B1 0.000138437
91 *213:10 *409:55 6.6667e-05
92 *216:16 *409:38 0.000108742
93 *217:10 *409:38 2.54558e-06
94 *217:10 *409:47 0.000101859
95 *218:20 *6545:B 0.000376184
96 *405:10 *6540:B 0.000177934
97 *405:28 *6540:B 2.48938e-05
98 *405:28 *6545:B 5.08737e-05
99 *405:28 *6558:A 5.52238e-05
100 *405:28 *409:121 0.000491865
101 *405:62 *6626:B1 0.000406219
102 *405:66 *6626:B1 9.25014e-06
103 *408:22 *6540:B 1.50563e-05
104 *408:22 *6558:A 4.38128e-05
105 *408:28 *6558:A 5.52302e-05
106 *408:28 *409:108 0
107 *408:32 *409:19 0
108 *408:32 *409:32 0
109 *408:42 *409:17 0.000931481
110 *408:60 *409:6 0.0011443
111 *408:60 *409:17 4.64763e-05
*RES
1 *6929:X *409:6 20.1036 
2 *409:6 *6554:A 9.3 
3 *409:6 *409:17 39.5536 
4 *409:17 *409:19 38.9821 
5 *409:19 *6617:B1 13.8 
6 *409:19 *409:32 5.03571 
7 *409:32 *409:38 16.4464 
8 *409:38 *6630:B1 9.3 
9 *409:38 *409:47 5.6875 
10 *409:47 *409:55 12.4018 
11 *409:55 *6626:B1 33.7643 
12 *409:55 *6535:B 14.7464 
13 *409:47 *6545:B 45.2554 
14 *409:32 *409:108 4.125 
15 *409:108 *6558:A 16.8179 
16 *409:108 *409:121 6.5 
17 *409:121 *6530:C 14.3357 
18 *409:121 *6540:B 22.4071 
19 *6929:X *6550:B 24.475 
*END

*D_NET *410 0.00271693
*CONN
*I *6875:D I *D sky130_fd_sc_hd__dfrtp_2
*I *7029:X O *D sky130_fd_sc_hd__clkdlybuf4s25_1
*CAP
1 *6875:D 0.000843626
2 *7029:X 0.000843626
3 *6875:D *6849:RESET_B 1.19402e-05
4 *6635:A0 *6875:D 8.91822e-05
5 *6635:A1 *6875:D 0
6 *6726:A2 *6875:D 0.000268536
7 *6849:CLK *6875:D 2.89016e-05
8 *6849:D *6875:D 0
9 *7028:A *6875:D 0
10 *7029:A *6875:D 0.000171407
11 *7030:A *6875:D 0.000358555
12 *7031:A *6875:D 3.4323e-06
13 *301:45 *6875:D 9.77274e-05
14 *334:10 *6875:D 0
*RES
1 *7029:X *6875:D 42.9929 
*END

*D_NET *411 0.061078
*CONN
*I *6614:B1 I *D sky130_fd_sc_hd__a22o_2
*I *6544:B I *D sky130_fd_sc_hd__and3_2
*I *6561:A I *D sky130_fd_sc_hd__and3_2
*I *6539:B I *D sky130_fd_sc_hd__and3_2
*I *6557:A I *D sky130_fd_sc_hd__and3_2
*I *6616:B1 I *D sky130_fd_sc_hd__a22o_2
*I *6528:C I *D sky130_fd_sc_hd__and3_2
*I *6534:B I *D sky130_fd_sc_hd__and3_2
*I *6553:A I *D sky130_fd_sc_hd__and3_2
*I *6549:B I *D sky130_fd_sc_hd__and3_2
*I *6930:X O *D sky130_fd_sc_hd__clkdlybuf4s25_1
*CAP
1 *6614:B1 0
2 *6544:B 5.37317e-05
3 *6561:A 0
4 *6539:B 0
5 *6557:A 0.00105163
6 *6616:B1 2.79199e-05
7 *6528:C 0.000311918
8 *6534:B 0
9 *6553:A 6.65685e-05
10 *6549:B 0.000114531
11 *6930:X 0
12 *411:147 0.00144006
13 *411:145 0.00378591
14 *411:141 0.00399103
15 *411:129 0.00300708
16 *411:114 0.00197128
17 *411:91 0.00175318
18 *411:78 0.00183792
19 *411:55 0.00237317
20 *411:46 0.00120657
21 *411:34 0.00251909
22 *411:32 0.00184386
23 *411:6 0.000320928
24 *411:4 0.000274011
25 *6528:C *6528:B 0.000105689
26 *6544:B *6795:CLK 9.60337e-06
27 *6557:A *7355:A 2.3541e-05
28 *6557:A *7356:A 3.47984e-05
29 *411:34 *413:71 0.00368683
30 *411:34 *413:84 0.00524538
31 *411:46 *7453:A 7.34128e-05
32 *411:46 *7462:A 9.65295e-05
33 *411:46 *7463:A 5.323e-05
34 *411:46 *7464:A 3.52408e-05
35 *411:46 *7465:A 7.71279e-05
36 *411:46 *7474:B 2.06583e-05
37 *411:55 *6528:B 5.33005e-05
38 *411:78 *6625:B2 0
39 *411:78 *7071:A 2.47093e-05
40 *411:78 *7072:A 0.000118134
41 *411:78 *7073:A 8.45364e-05
42 *411:78 *7074:A 0
43 *411:78 *7317:A 4.48113e-05
44 *411:78 *7338:A 0
45 *411:78 *7341:A 0
46 *411:78 *7344:A 0
47 *411:78 *7345:A 0
48 *411:78 *7391:A 0
49 *411:78 *7394:A 0
50 *411:78 *7397:A 0
51 *411:78 *7399:A 0
52 *411:78 *7448:A 7.60306e-05
53 *411:114 *6630:A1 0.000101227
54 *411:114 *7089:A 5.26625e-05
55 *411:114 *413:127 0
56 *411:129 *6614:A2 0
57 *411:129 *7224:A 1.80626e-05
58 *411:129 *414:120 3.75052e-05
59 *411:129 *720:12 7.15687e-05
60 *411:147 *6720:B2 9.71123e-06
61 *411:147 *507:38 0.000733327
62 *6534:A *6528:C 0.000272327
63 *6534:A *411:46 8.25843e-06
64 *6534:A *411:55 0.000151563
65 *6542:C *411:129 7.6644e-05
66 *6545:B *411:129 1.26314e-05
67 *6549:C *6553:A 0
68 *6553:C *6553:A 8.35869e-06
69 *6557:B *6557:A 4.33308e-05
70 *6561:B *411:147 0.00272505
71 *6614:A1 *411:129 0.000137983
72 *6614:A1 *411:141 0.000289383
73 *6614:A1 *411:145 0
74 *6614:B2 *411:129 3.34295e-05
75 *6614:B2 *411:141 9.59537e-05
76 *6615:A1 *411:145 0.00029823
77 *6615:B2 *411:145 0.000269278
78 *6616:A1 *6616:B1 5.33005e-05
79 *6620:A1 *411:129 0.00012401
80 *6621:A1 *411:129 0.000118871
81 *6624:B1 *411:129 0
82 *6628:C1 *411:129 0.00014576
83 *6631:A1 *411:129 0.00018532
84 *7578:en *411:145 0
85 *7579:en *6553:A 2.50767e-05
86 *7583:en *411:6 0.000402784
87 *148:34 *411:34 0
88 *150:12 *6549:B 5.12581e-05
89 *150:20 *6549:B 9.83388e-05
90 *150:20 *411:6 0.000561817
91 *150:85 *411:129 0
92 *150:85 *411:141 6.12009e-05
93 *151:65 *411:34 0.00560573
94 *151:149 *411:129 0.000784906
95 *152:48 *411:145 0
96 *152:107 *411:129 0.000231759
97 *152:109 *411:129 0.00103359
98 *153:26 *411:147 0.000955932
99 *153:28 *411:145 0.000901433
100 *153:57 *6544:B 1.90936e-05
101 *153:92 *411:129 0.000689061
102 *154:25 *411:145 0
103 *201:20 *411:129 5.41609e-05
104 *216:16 *411:78 0.000853527
105 *216:16 *411:91 0.000247771
106 *216:16 *411:114 0
107 *285:9 *6544:B 5.33005e-05
108 *298:11 *411:145 0.000830867
109 *299:9 *411:145 0.00091613
110 *302:173 *411:147 1.53773e-05
111 *335:16 *411:147 0
112 *405:28 *411:114 0
113 *405:113 *6528:C 8.67797e-05
114 *408:32 *411:46 0.00025263
115 *408:70 *411:32 9.25014e-06
116 *408:117 *411:145 0.00205641
117 *409:19 *411:46 0
118 *409:47 *411:114 0.000147593
119 *409:55 *411:114 7.66438e-05
120 *409:55 *411:129 0.000167918
*RES
1 *6930:X *411:4 9.3 
2 *411:4 *411:6 5.46429 
3 *411:6 *6549:B 11.4964 
4 *411:6 *6553:A 19.3357 
5 *411:4 *411:32 10.9464 
6 *411:32 *411:34 83.9107 
7 *411:34 *411:46 24.6786 
8 *411:46 *6534:B 9.3 
9 *411:46 *411:55 9.96429 
10 *411:55 *6528:C 18.8536 
11 *411:55 *411:78 39.375 
12 *411:78 *6616:B1 14.3357 
13 *411:78 *411:91 7.66071 
14 *411:91 *6557:A 24.7821 
15 *411:91 *411:114 17.8571 
16 *411:114 *6539:B 9.3 
17 *411:114 *411:129 48.375 
18 *411:129 *411:141 13.8368 
19 *411:141 *411:145 12.7536 
20 *411:145 *411:147 46.7232 
21 *411:147 *6561:A 13.8 
22 *411:141 *6544:B 18.0225 
23 *411:129 *6614:B1 9.3 
*END

*D_NET *412 0.0649799
*CONN
*I *6560:A I *D sky130_fd_sc_hd__and3_2
*I *6538:B I *D sky130_fd_sc_hd__and3_2
*I *6614:A2 I *D sky130_fd_sc_hd__a22o_2
*I *6543:B I *D sky130_fd_sc_hd__and3_2
*I *6616:A2 I *D sky130_fd_sc_hd__a22o_2
*I *6526:C I *D sky130_fd_sc_hd__and3_2
*I *6533:B I *D sky130_fd_sc_hd__and3_2
*I *6556:A I *D sky130_fd_sc_hd__and3_2
*I *6552:A I *D sky130_fd_sc_hd__and3_2
*I *6548:B I *D sky130_fd_sc_hd__and3_2
*I *6931:X O *D sky130_fd_sc_hd__clkdlybuf4s25_1
*CAP
1 *6560:A 2.41864e-05
2 *6538:B 0.00017986
3 *6614:A2 0.000636039
4 *6543:B 0.0019326
5 *6616:A2 0.000464126
6 *6526:C 4.16506e-05
7 *6533:B 2.64143e-05
8 *6556:A 0
9 *6552:A 3.16677e-05
10 *6548:B 0.000487814
11 *6931:X 0.000482336
12 *412:149 0.0036596
13 *412:108 0.00335554
14 *412:81 0.00129987
15 *412:77 0.000895329
16 *412:66 0.0011767
17 *412:55 0.00969348
18 *412:49 0.0132064
19 *412:26 0.00132058
20 *412:20 0.00160524
21 *412:10 0.00165881
22 *6526:C *7441:A 2.89114e-05
23 *6533:B *413:96 1.53815e-05
24 *6543:B *7218:B 0.000139907
25 *6543:B *414:93 2.1398e-05
26 *6560:A *513:83 6.10501e-05
27 *6614:A2 *6627:A2 0.000245158
28 *6614:A2 *6628:A1 5.01117e-05
29 *6614:A2 *6826:RESET_B 0
30 *6614:A2 *7163:A 0.000126439
31 *6616:A2 *7061:A 2.51343e-06
32 *6616:A2 *7062:A 7.83565e-05
33 *6616:A2 *7063:A 0.000201383
34 *6616:A2 *7064:A 0.000117513
35 *6616:A2 *7065:A 1.14548e-05
36 *6616:A2 *7066:A 4.97724e-05
37 *6616:A2 *7506:A 5.33005e-05
38 *412:10 *478:73 0
39 *412:10 *478:79 0.000107329
40 *412:20 *413:52 0.000113073
41 *412:26 *6522:A 6.9276e-05
42 *412:26 *6522:B 2.44318e-05
43 *412:66 *7432:A 0
44 *412:66 *7441:A 0
45 *412:66 *413:96 1.75291e-05
46 *412:77 *7069:A 5.80217e-05
47 *412:77 *7286:A 0
48 *412:77 *7441:A 0
49 *412:77 *413:96 6.8646e-06
50 *412:77 *413:111 4.06782e-05
51 *412:81 *7060:A 4.82872e-05
52 *412:81 *7061:A 1.67669e-05
53 *412:81 *7506:A 0.000181803
54 *412:108 *6524:B 0.00027073
55 *412:108 *6627:A2 0.000180795
56 *412:108 *415:49 0.00117216
57 *6535:B *6616:A2 9.90431e-05
58 *6535:C *6616:A2 1.92789e-05
59 *6537:C *412:108 7.83587e-05
60 *6538:A *6538:B 1.40415e-05
61 *6538:C *6538:B 1.03968e-05
62 *6552:C *6552:A 1.68417e-05
63 *6552:C *412:26 7.20655e-05
64 *6556:B *6548:B 0.000276211
65 *6556:B *412:26 0.000530425
66 *6556:C *412:10 9.77274e-05
67 *6560:B *412:149 0.000427199
68 *6560:C *412:149 2.40966e-05
69 *6614:B2 *6614:A2 0
70 *6617:C1 *6616:A2 4.11553e-05
71 *6619:A2 *412:10 4.46186e-06
72 *6619:A3 *412:10 0
73 *6620:A1 *6614:A2 0
74 *6621:A2 *6543:B 4.15183e-05
75 *6624:B1 *6614:A2 8.03868e-05
76 *6628:A2 *6614:A2 0.000427246
77 *6628:A2 *412:108 0.000238658
78 *6631:A2 *412:108 0.0002253
79 *6634:A0 *412:149 1.89507e-06
80 *6717:A1 *412:149 0.000140133
81 *6826:D *6614:A2 5.26184e-05
82 *7589:A *412:10 5.71472e-05
83 *7589:A *412:26 0.00153894
84 *146:10 *6548:B 0.00143086
85 *146:10 *6552:A 3.2065e-05
86 *146:10 *412:26 0.00119416
87 *148:18 *412:20 2.59004e-05
88 *148:18 *412:26 0.000495276
89 *149:84 *6538:B 4.56594e-05
90 *149:84 *412:77 0.000541331
91 *149:84 *412:108 0.000880706
92 *150:85 *6614:A2 7.24878e-05
93 *152:105 *6543:B 0
94 *153:20 *412:149 0.00245808
95 *201:20 *6614:A2 3.95241e-05
96 *272:10 *412:149 0
97 *283:12 *412:49 0
98 *319:8 *412:149 9.85424e-06
99 *405:51 *6616:A2 1.88477e-05
100 *405:62 *6616:A2 1.58163e-05
101 *405:89 *412:77 8.07951e-05
102 *405:95 *412:66 0.000873169
103 *405:95 *412:77 2.48938e-05
104 *407:8 *412:49 0.000444978
105 *407:8 *412:149 0.00529358
106 *407:39 *412:20 0.000798125
107 *411:129 *6614:A2 0
*RES
1 *6931:X *412:10 20.5857 
2 *412:10 *412:20 25.3214 
3 *412:20 *412:26 28.9107 
4 *412:26 *6548:B 23.7107 
5 *412:26 *6552:A 10.0321 
6 *412:20 *6556:A 9.3 
7 *412:10 *412:49 10.2946 
8 *412:49 *412:55 33.4596 
9 *412:55 *6533:B 14.3804 
10 *412:55 *412:66 11.8125 
11 *412:66 *6526:C 14.3357 
12 *412:66 *412:77 15.9107 
13 *412:77 *412:81 6.26786 
14 *412:81 *6616:A2 18.675 
15 *412:81 *412:108 32.5625 
16 *412:108 *6543:B 26.4023 
17 *412:108 *6614:A2 29.6661 
18 *412:77 *6538:B 16.4964 
19 *412:49 *412:149 121.705 
20 *412:149 *6560:A 14.5321 
*END

*D_NET *413 0.0812406
*CONN
*I *6528:B I *D sky130_fd_sc_hd__and3_2
*I *6524:C I *D sky130_fd_sc_hd__and3_2
*I *6632:B2 I *D sky130_fd_sc_hd__a221o_2
*I *6620:B2 I *D sky130_fd_sc_hd__a22o_2
*I *6530:B I *D sky130_fd_sc_hd__and3_2
*I *6526:B I *D sky130_fd_sc_hd__and3_2
*I *6550:A I *D sky130_fd_sc_hd__and3_2
*I *6549:A I *D sky130_fd_sc_hd__and3_2
*I *6547:B I *D sky130_fd_sc_hd__and3_2
*I *6548:A I *D sky130_fd_sc_hd__and3_2
*I *7588:X O *D sky130_fd_sc_hd__clkbuf_8
*CAP
1 *6528:B 0.000363163
2 *6524:C 0
3 *6632:B2 0.000145512
4 *6620:B2 0.00155196
5 *6530:B 0.000733655
6 *6526:B 0.000137102
7 *6550:A 0.000140129
8 *6549:A 0.00014609
9 *6547:B 0.000892878
10 *6548:A 7.57597e-05
11 *7588:X 2.52056e-05
12 *413:138 0.00258002
13 *413:127 0.0033331
14 *413:111 0.00201381
15 *413:96 0.00201709
16 *413:88 0.00228424
17 *413:84 0.00333907
18 *413:71 0.00376196
19 *413:54 0.00079063
20 *413:52 0.00304527
21 *413:18 0.00140435
22 *413:12 0.00345719
23 *413:10 0.00421666
24 *413:8 0.00424187
25 *6526:B *7441:A 2.77258e-05
26 *6528:B *7336:A 1.22995e-05
27 *6528:B *7338:A 0.00016507
28 *6528:B *7474:A 0
29 *6530:B *7357:A 6.29324e-05
30 *6530:B *7368:A 5.55274e-05
31 *6530:B *7369:A 8.30355e-06
32 *6530:B *7370:A 5.60465e-05
33 *6530:B *7371:A 7.20081e-05
34 *6530:B *7378:A 2.42119e-05
35 *6530:B *7378:B 3.06628e-05
36 *6547:B *6547:A 4.7812e-05
37 *6547:B *414:26 0.000358977
38 *6620:B2 *6826:RESET_B 0
39 *6620:B2 *7168:A 2.66026e-05
40 *6620:B2 *687:14 7.71303e-05
41 *6632:B2 *7191:A 1.46624e-05
42 *413:8 *6697:S 5.52302e-05
43 *413:84 *415:14 0.000149146
44 *413:88 *7474:A 0
45 *413:96 *7334:A 1.46717e-05
46 *413:96 *7335:A 0
47 *413:96 *7413:A 0.000129868
48 *413:96 *7415:A 0.000154762
49 *413:111 *7081:A 5.03772e-05
50 *413:127 *7067:A 0
51 *413:127 *7068:A 6.42338e-05
52 *413:127 *7071:A 0.000154524
53 *413:127 *7072:A 3.88029e-05
54 *413:127 *7073:A 2.3541e-05
55 *413:127 *7074:A 0.000160455
56 *413:127 *7078:A 2.79827e-05
57 *413:127 *7079:A 0.000135625
58 *413:127 *7081:A 0.000158415
59 *413:127 *7347:A 0.000313465
60 *413:127 *7354:A 0
61 *413:127 *7372:A 0
62 *413:127 *7376:A 0
63 *413:127 *852:12 7.92879e-05
64 *413:138 *7141:A 0
65 *413:138 *7191:A 3.5707e-05
66 *6528:C *6528:B 0.000105689
67 *6530:C *6530:B 1.58213e-06
68 *6533:B *413:96 1.53815e-05
69 *6533:C *413:96 0.000497949
70 *6534:A *6528:B 6.86396e-05
71 *6549:C *6549:A 0.000146901
72 *6550:C *6550:A 8.46885e-05
73 *6551:B *6547:B 0.000162223
74 *6555:B *413:18 0.000928544
75 *6555:B *413:52 0.000348579
76 *6616:A1 *413:127 3.13773e-05
77 *6620:A1 *6620:B2 0.000130635
78 *6621:B1 *6620:B2 0.000712837
79 *6626:B1 *413:127 1.73979e-05
80 *6632:A2 *6620:B2 0.000862484
81 *6632:A2 *6632:B2 0
82 *7571:en *6547:B 0.000150458
83 *7581:en *6547:B 0.000534222
84 *146:10 *6547:B 0.000583398
85 *148:34 *413:52 0
86 *148:34 *413:71 0
87 *149:20 *6549:A 4.69432e-05
88 *149:84 *413:111 0.00053508
89 *149:84 *413:127 2.37761e-05
90 *150:12 *6549:A 5.99973e-05
91 *151:8 *413:10 0.00583062
92 *151:33 *413:52 0.000190917
93 *151:52 *413:52 0.000651912
94 *151:65 *413:71 0.000264212
95 *151:130 *413:96 2.84494e-05
96 *151:130 *413:111 0.000279021
97 *151:130 *413:127 8.07879e-05
98 *152:8 *413:10 0
99 *152:10 *413:10 0
100 *153:80 *6632:B2 2.85551e-05
101 *206:46 *6620:B2 0.000236248
102 *216:16 *413:127 4.96187e-05
103 *217:10 *6632:B2 0.000193125
104 *217:10 *413:127 0.000766321
105 *217:10 *413:138 0.001625
106 *218:20 *6632:B2 1.403e-05
107 *279:12 *413:52 0.00296001
108 *405:89 *6526:B 9.71197e-05
109 *405:89 *413:96 3.67452e-05
110 *405:95 *413:96 0.000332455
111 *407:39 *413:52 0.00363709
112 *407:94 *6549:A 2.19502e-05
113 *407:94 *413:52 0.0007129
114 *407:107 *413:71 0.00442365
115 *407:107 *413:84 8.46829e-05
116 *408:60 *6550:A 0
117 *411:34 *413:71 0.00368683
118 *411:34 *413:84 0.00524538
119 *411:55 *6528:B 5.33005e-05
120 *411:114 *413:127 0
121 *412:20 *413:52 0.000113073
122 *412:66 *413:96 1.75291e-05
123 *412:77 *413:96 6.8646e-06
124 *412:77 *413:111 4.06782e-05
*RES
1 *7588:X *413:8 14.3357 
2 *413:8 *413:10 126.411 
3 *413:10 *413:12 4.5 
4 *413:12 *413:18 15.1964 
5 *413:18 *6548:A 14.8357 
6 *413:18 *6547:B 43.4607 
7 *413:12 *413:52 78.9821 
8 *413:52 *413:54 0.428571 
9 *413:54 *6549:A 21.5143 
10 *413:54 *413:71 42.0179 
11 *413:71 *6550:A 20.8536 
12 *413:71 *413:84 61.3214 
13 *413:84 *413:88 10.6964 
14 *413:88 *413:96 37.75 
15 *413:96 *6526:B 15.5679 
16 *413:96 *413:111 13.7679 
17 *413:111 *413:127 47.8036 
18 *413:127 *6530:B 23.3714 
19 *413:127 *413:138 20.7679 
20 *413:138 *6620:B2 47.8357 
21 *413:138 *6632:B2 16.9429 
22 *413:111 *6524:C 9.3 
23 *413:88 *6528:B 20.425 
*END

*D_NET *414 0.0669946
*CONN
*I *6559:A I *D sky130_fd_sc_hd__and3_2
*I *6615:A2 I *D sky130_fd_sc_hd__a221o_2
*I *6537:B I *D sky130_fd_sc_hd__and3_2
*I *6524:B I *D sky130_fd_sc_hd__and3_2
*I *6542:B I *D sky130_fd_sc_hd__and3_2
*I *6617:A2 I *D sky130_fd_sc_hd__a221o_2
*I *6532:B I *D sky130_fd_sc_hd__and3_2
*I *6555:A I *D sky130_fd_sc_hd__and3_2
*I *6551:A I *D sky130_fd_sc_hd__and3_2
*I *6547:A I *D sky130_fd_sc_hd__and3_2
*I *6932:X O *D sky130_fd_sc_hd__clkdlybuf4s25_1
*CAP
1 *6559:A 0.00441739
2 *6615:A2 0.000676389
3 *6537:B 0.000132163
4 *6524:B 0.000600262
5 *6542:B 0
6 *6617:A2 4.15868e-05
7 *6532:B 0.000541258
8 *6555:A 0
9 *6551:A 0
10 *6547:A 9.84532e-05
11 *6932:X 0
12 *414:120 0.00127671
13 *414:105 0.00147625
14 *414:93 0.00231584
15 *414:69 0.000778192
16 *414:63 0.0116051
17 *414:57 0.0165814
18 *414:28 0.000131663
19 *414:26 0.000493228
20 *414:4 0.00192177
21 *6524:B *7061:A 0.000128161
22 *6524:B *7097:A 0.000151333
23 *6524:B *7122:A 0.000104236
24 *6524:B *415:49 0.00071831
25 *6532:B *7389:A 4.94362e-05
26 *6532:B *7403:A 0.000125731
27 *6532:B *7406:A 0.000154762
28 *6537:B *7097:A 2.59355e-05
29 *6615:A2 *6795:CLK 0.000104177
30 *6615:A2 *7187:A 0.000127446
31 *6615:A2 *7188:A 0.000129214
32 *6615:A2 *7208:A 8.15939e-05
33 *6615:A2 *7211:A 0.000123288
34 *6615:A2 *7218:A 0.000125731
35 *6615:A2 *7218:B 0.000169405
36 *414:93 *7147:A 0.000128146
37 *414:93 *7218:B 5.83304e-05
38 *414:93 *7361:A 2.05938e-05
39 *414:93 *7363:A 0.000126439
40 *414:93 *7369:A 0.000127446
41 *414:105 *7136:A 0.000283689
42 *414:105 *7137:A 3.94886e-05
43 *414:105 *7186:A 3.08382e-06
44 *414:105 *7200:A 2.524e-05
45 *414:105 *7201:A 3.04823e-05
46 *414:105 *7206:A 2.3541e-05
47 *414:105 *7207:A 8.44692e-05
48 *414:105 *7209:A 9.63854e-05
49 *414:105 *7218:A 5.52302e-05
50 *414:105 *7218:B 3.84033e-05
51 *414:120 *6623:B2 0.000124529
52 *414:120 *6627:A2 1.41029e-05
53 *414:120 *7097:A 5.66157e-05
54 *414:120 *7186:A 9.71601e-05
55 *414:120 *415:49 0.000103719
56 *6532:A *6532:B 9.80173e-05
57 *6542:A *414:105 9.94037e-05
58 *6542:C *414:105 3.69047e-06
59 *6542:C *414:120 8.68315e-06
60 *6543:B *414:93 2.1398e-05
61 *6543:C *6615:A2 0.00057477
62 *6547:B *6547:A 4.7812e-05
63 *6547:B *414:26 0.000358977
64 *6547:C *6547:A 0.000271301
65 *6547:C *414:28 8.70565e-05
66 *6551:B *414:26 4.10364e-05
67 *6559:C *6559:A 1.28585e-05
68 *6616:A1 *414:63 0
69 *6616:B2 *6532:B 3.07555e-05
70 *6616:B2 *414:69 2.67601e-05
71 *6617:C1 *6617:A2 5.00087e-05
72 *6618:A0 *6559:A 9.97767e-06
73 *6621:A2 *6615:A2 3.10252e-05
74 *6621:A2 *414:93 0.000142089
75 *6622:A2 *6615:A2 0.000122933
76 *6624:B1 *414:120 0.00029513
77 *6633:B1 *6615:A2 1.14477e-05
78 *6925:A *6615:A2 0
79 *6925:A *414:93 0
80 *7571:en *6547:A 0.000143375
81 *7571:en *414:26 0.000206353
82 *7571:en *414:28 0.00026826
83 *7574:en *414:63 0.000104529
84 *7581:en *414:26 0.000184745
85 *7581:en *414:57 4.19624e-06
86 *7585:en *414:26 4.6025e-06
87 *7585:en *414:57 0.00354133
88 *148:84 *6524:B 0.000109778
89 *149:84 *6524:B 8.80392e-05
90 *150:37 *414:63 0.000449991
91 *150:59 *6615:A2 0.000202235
92 *151:130 *6524:B 0.000295137
93 *151:149 *6524:B 0.000613486
94 *151:149 *414:120 0.000598211
95 *152:67 *414:93 6.8194e-05
96 *152:77 *414:93 0.000994144
97 *153:57 *6615:A2 0.000359051
98 *204:10 *414:69 0.000154179
99 *204:10 *414:93 0.000528334
100 *206:12 *414:63 0.00569067
101 *269:18 *414:63 0.000589224
102 *269:20 *414:63 0.000621309
103 *294:35 *6617:A2 6.05161e-06
104 *407:55 *414:26 5.71472e-06
105 *407:55 *414:28 0.000182871
106 *409:19 *6532:B 0.00108751
107 *409:32 *6532:B 3.51442e-05
108 *409:32 *414:69 0.00022791
109 *409:108 *414:69 3.32262e-05
110 *409:108 *414:93 0
111 *411:129 *414:120 3.75052e-05
112 *412:108 *6524:B 0.00027073
*RES
1 *6932:X *414:4 9.3 
2 *414:4 *414:26 25.8929 
3 *414:26 *414:28 2.53571 
4 *414:28 *6547:A 12.7107 
5 *414:28 *6551:A 9.3 
6 *414:26 *6555:A 9.3 
7 *414:4 *414:57 19.2907 
8 *414:57 *414:63 40.2699 
9 *414:63 *414:69 5.79464 
10 *414:69 *6532:B 28.8357 
11 *414:69 *6617:A2 14.7866 
12 *414:63 *414:93 21.8304 
13 *414:93 *414:105 22.25 
14 *414:105 *6542:B 9.3 
15 *414:105 *414:120 18 
16 *414:120 *6524:B 34.925 
17 *414:120 *6537:B 15.1571 
18 *414:93 *6615:A2 34.5768 
19 *414:57 *6559:A 37.4691 
*END

*D_NET *415 0.0474204
*CONN
*I *6626:A2 I *D sky130_fd_sc_hd__a221o_2
*I *6624:A2 I *D sky130_fd_sc_hd__a221o_2
*I *6627:A2 I *D sky130_fd_sc_hd__a22o_2
*I *6630:A2 I *D sky130_fd_sc_hd__a221o_2
*I *7589:X O *D sky130_fd_sc_hd__clkbuf_4
*CAP
1 *6626:A2 8.03691e-05
2 *6624:A2 9.00006e-06
3 *6627:A2 0.000644832
4 *6630:A2 0.000181338
5 *7589:X 0.00850952
6 *415:49 0.00126434
7 *415:32 0.00117568
8 *415:28 0.00290413
9 *415:18 0.00293226
10 *415:14 0.00900185
11 *6624:A2 *6624:A1 7.13226e-06
12 *6626:A2 *6626:B2 7.57716e-05
13 *6627:A2 *6627:A1 0.000130498
14 *6627:A2 *7163:A 0.00010326
15 *6627:A2 *7185:A 5.33005e-05
16 *6630:A2 *6630:A1 0.000120034
17 *415:14 *6619:S0 0.000316578
18 *415:14 *477:28 0.000148878
19 *415:14 *478:73 0.000653347
20 *415:28 *7319:A 2.80715e-05
21 *415:28 *7320:A 0.000110029
22 *415:28 *7321:A 0.000348774
23 *415:28 *7322:A 6.26329e-06
24 *415:28 *7345:A 7.82904e-05
25 *415:28 *7397:A 1.37743e-05
26 *415:28 *7398:A 4.38647e-05
27 *415:28 *7399:A 0.00012095
28 *415:28 *7448:A 1.37743e-05
29 *415:28 *7449:A 8.28529e-05
30 *415:28 *7450:A 1.68102e-05
31 *415:28 *7473:A 5.37454e-05
32 *415:32 *7078:A 0.000146208
33 *415:49 *6623:B2 5.95766e-05
34 *415:49 *7097:A 0.000198698
35 *415:49 *7122:A 0.000178847
36 *6524:B *415:49 0.00071831
37 *6537:C *415:49 7.83587e-05
38 *6539:C *6630:A2 2.59355e-05
39 *6539:C *415:49 2.83192e-05
40 *6545:B *6630:A2 6.12955e-05
41 *6614:A2 *6627:A2 0.000245158
42 *6619:A0 *415:14 0.000489654
43 *6624:B1 *6627:A2 0.00088994
44 *6625:B1 *415:28 9.03121e-05
45 *6626:B1 *415:32 0.000101363
46 *6626:C1 *415:28 9.892e-05
47 *6628:C1 *6627:A2 1.15281e-05
48 *7579:en *415:14 0.000317446
49 *148:32 *415:14 0.00133049
50 *148:44 *415:18 0.00129548
51 *148:44 *415:28 0
52 *148:54 *415:28 0.000145621
53 *148:65 *415:28 0.000203925
54 *148:84 *415:28 1.1459e-05
55 *148:84 *415:49 0.000155341
56 *149:20 *415:14 0.000338449
57 *149:37 *415:14 0.000713351
58 *149:41 *415:14 0.000816475
59 *149:49 *415:18 0.00182859
60 *150:12 *415:14 0.000199689
61 *150:20 *415:14 0.000782475
62 *151:77 *415:14 0.000410561
63 *213:10 *415:32 0.000863886
64 *405:28 *6630:A2 5.49544e-05
65 *405:43 *6630:A2 5.49489e-05
66 *405:43 *415:32 0.000135009
67 *405:51 *415:32 0.000289298
68 *407:94 *415:14 0.000457449
69 *407:107 *415:14 0.000358897
70 *408:42 *415:14 0.00019461
71 *408:60 *415:14 0.000138715
72 *408:70 *415:14 0.000669823
73 *409:6 *415:14 0.000245029
74 *409:17 *415:14 0.000515012
75 *409:47 *6630:A2 0.000441683
76 *409:55 *6630:A2 1.98839e-05
77 *409:55 *415:49 0.000160145
78 *412:108 *6627:A2 0.000180795
79 *412:108 *415:49 0.00117216
80 *413:84 *415:14 0.000149146
81 *414:120 *6627:A2 1.41029e-05
82 *414:120 *415:49 0.000103719
*RES
1 *7589:X *415:14 41.9152 
2 *415:14 *415:18 27.5446 
3 *415:18 *415:28 43.0536 
4 *415:28 *415:32 16.4643 
5 *415:32 *6630:A2 14.5589 
6 *415:32 *415:49 26 
7 *415:49 *6627:A2 30.9607 
8 *415:49 *6624:A2 13.9473 
9 *415:28 *6626:A2 15.0768 
*END

*D_NET *416 0.000780967
*CONN
*I *7036:A I *D sky130_fd_sc_hd__clkbuf_4
*I *6879:RESET_B I *D sky130_fd_sc_hd__dfrtp_2
*I *6933:X O *D sky130_fd_sc_hd__clkdlybuf4s25_1
*CAP
1 *7036:A 7.80711e-05
2 *6879:RESET_B 0.000218892
3 *6933:X 0.000140821
4 *6879:RESET_B *6933:A 5.71472e-05
5 *6879:RESET_B *442:24 0
6 *7036:A *7021:A 0.000137261
7 *6879:CLK *7036:A 0.000148775
*RES
1 *6933:X *6879:RESET_B 20.4786 
2 *6879:RESET_B *7036:A 11.8268 
*END

*D_NET *417 0.00638861
*CONN
*I *6833:RESET_B I *D sky130_fd_sc_hd__dfrtp_2
*I *6876:RESET_B I *D sky130_fd_sc_hd__dfrtp_2
*I *6885:RESET_B I *D sky130_fd_sc_hd__dfrtp_2
*I *6831:RESET_B I *D sky130_fd_sc_hd__dfrtp_2
*I *6878:RESET_B I *D sky130_fd_sc_hd__dfrtp_2
*I *6887:RESET_B I *D sky130_fd_sc_hd__dfrtp_2
*I *6832:RESET_B I *D sky130_fd_sc_hd__dfrtp_2
*I *6880:RESET_B I *D sky130_fd_sc_hd__dfrtp_2
*I *6886:RESET_B I *D sky130_fd_sc_hd__dfrtp_2
*I *7036:X O *D sky130_fd_sc_hd__clkbuf_4
*CAP
1 *6833:RESET_B 0.000412152
2 *6876:RESET_B 0.000128764
3 *6885:RESET_B 0
4 *6831:RESET_B 0.000602834
5 *6878:RESET_B 0.000411468
6 *6887:RESET_B 0.00053576
7 *6832:RESET_B 0.000113901
8 *6880:RESET_B 0.000323874
9 *6886:RESET_B 0.000323314
10 *7036:X 0.000284141
11 *417:81 0.000497547
12 *417:79 0.000635211
13 *417:8 0.000493554
14 *6831:RESET_B *7026:A 0
15 *6832:RESET_B *6541:A 5.048e-05
16 *6832:RESET_B *6880:D 0.000127945
17 *6832:RESET_B *480:35 0.000112398
18 *6876:RESET_B *7019:A 9.23759e-05
19 *6876:RESET_B *440:36 0
20 *6878:RESET_B *6883:D 0
21 *6878:RESET_B *7017:A 0
22 *6878:RESET_B *7025:A 5.048e-05
23 *6886:RESET_B *6880:D 0
24 *6886:RESET_B *480:35 0.000102207
25 *6886:RESET_B *480:39 0
26 *417:8 *480:39 0
27 *417:79 *7015:A 5.16779e-05
28 *417:79 *7017:A 7.70134e-05
29 *417:79 *440:19 0.000223808
30 *417:81 *6934:A 0
31 uio_out[7] *6832:RESET_B 0
32 *6831:D *6831:RESET_B 0
33 *6878:CLK *6878:RESET_B 0
34 *6883:CLK *417:81 2.97074e-05
35 *152:8 *6878:RESET_B 0
36 *313:20 *6831:RESET_B 1.41706e-05
37 *313:20 *417:81 1.19309e-05
38 *313:30 *6878:RESET_B 0
39 *313:51 *6878:RESET_B 6.92148e-06
40 *313:51 *6887:RESET_B 0.000175785
41 *313:53 *6887:RESET_B 0.000115343
42 *314:60 *6876:RESET_B 4.96254e-05
43 *315:10 *6833:RESET_B 0.000158747
44 *315:12 *6833:RESET_B 0.000150288
45 *315:25 *6832:RESET_B 2.51837e-05
46 *335:16 *6878:RESET_B 0
*RES
1 *7036:X *417:8 18.4786 
2 *417:8 *6886:RESET_B 8.25893 
3 *417:8 *6880:RESET_B 4.5 
4 *6886:RESET_B *6832:RESET_B 12.6339 
5 *6880:RESET_B *6887:RESET_B 6.44643 
6 *6887:RESET_B *6878:RESET_B 12.9375 
7 *6878:RESET_B *417:79 9.08036 
8 *417:79 *417:81 4.98214 
9 *417:81 *6831:RESET_B 7.96429 
10 *417:81 *6885:RESET_B 4.5 
11 *417:79 *6876:RESET_B 7.02679 
12 *6831:RESET_B *6833:RESET_B 7.26786 
*END

*D_NET *418 0.00474494
*CONN
*I *7037:A I *D sky130_fd_sc_hd__clkbuf_4
*I *6834:RESET_B I *D sky130_fd_sc_hd__dfrtp_2
*I *6883:RESET_B I *D sky130_fd_sc_hd__dfrtp_2
*I *6934:X O *D sky130_fd_sc_hd__clkdlybuf4s25_1
*CAP
1 *7037:A 0.000936187
2 *6834:RESET_B 0.000329801
3 *6883:RESET_B 0.000444057
4 *6934:X 0.000318808
5 *418:24 0.00139124
6 *6834:RESET_B *6950:A 0
7 *6883:RESET_B *6883:D 2.86072e-05
8 *7037:A *6877:D 0.000139144
9 *7037:A *6877:RESET_B 3.51971e-05
10 *7037:A *6888:D 0.000402514
11 *7037:A *421:6 2.64262e-06
12 uo_out[3] *6834:RESET_B 7.47832e-05
13 uo_out[3] *7037:A 0
14 *6883:CLK *6883:RESET_B 9.90367e-05
15 *6949:A *418:24 0.000135163
16 *302:56 *6834:RESET_B 4.8063e-05
17 *302:56 *7037:A 0.000222199
18 *302:78 *6834:RESET_B 0
19 *314:12 *418:24 0.0001163
20 *314:19 *418:24 2.12005e-05
*RES
1 *6934:X *6883:RESET_B 13.6125 
2 *6883:RESET_B *418:24 7.45536 
3 *418:24 *6834:RESET_B 10.25 
4 *418:24 *7037:A 29.8179 
*END

*D_NET *419 0.00647879
*CONN
*I *6845:RESET_B I *D sky130_fd_sc_hd__dfrtp_2
*I *6840:RESET_B I *D sky130_fd_sc_hd__dfrtp_2
*I *6888:RESET_B I *D sky130_fd_sc_hd__dfrtp_2
*I *6881:RESET_B I *D sky130_fd_sc_hd__dfrtp_2
*I *6884:RESET_B I *D sky130_fd_sc_hd__dfrtp_2
*I *6848:RESET_B I *D sky130_fd_sc_hd__dfrtp_2
*I *6830:RESET_B I *D sky130_fd_sc_hd__dfrtp_2
*I *6877:RESET_B I *D sky130_fd_sc_hd__dfrtp_2
*I *7037:X O *D sky130_fd_sc_hd__clkbuf_4
*CAP
1 *6845:RESET_B 0.000564151
2 *6840:RESET_B 0.000731944
3 *6888:RESET_B 0.000156155
4 *6881:RESET_B 0
5 *6884:RESET_B 0.000248994
6 *6848:RESET_B 0.000416787
7 *6830:RESET_B 0.000181879
8 *6877:RESET_B 0.000139291
9 *7037:X 0.000265406
10 *419:25 0.000340958
11 *419:23 0.000228782
12 *419:19 0.000351973
13 *6830:RESET_B *477:10 1.07719e-05
14 *6845:RESET_B *6854:RESET_B 3.02581e-06
15 *6845:RESET_B *475:124 0.000131765
16 *6877:RESET_B *6888:D 0.000190917
17 *6877:RESET_B *421:6 0.000624325
18 *6884:RESET_B *6950:A 0.000138106
19 *6888:RESET_B *6888:D 5.52302e-05
20 *419:19 *6888:D 0.00018372
21 uo_out[2] *6830:RESET_B 1.17968e-05
22 uo_out[2] *419:23 4.43046e-05
23 uo_out[2] *419:25 0.00013254
24 uo_out[5] *6877:RESET_B 0.000134807
25 *6717:A2 *6840:RESET_B 0.000126375
26 *6725:B1 *6840:RESET_B 0.000245337
27 *6845:CLK *6845:RESET_B 6.31183e-05
28 *6848:D *6840:RESET_B 4.75521e-05
29 *6848:D *6884:RESET_B 0.000119065
30 *6848:D *419:25 0
31 *6961:A *6830:RESET_B 0.000101545
32 *6961:A *6840:RESET_B 0
33 *6961:A *6884:RESET_B 4.70821e-05
34 *7037:A *6877:RESET_B 3.51971e-05
35 *314:19 *6884:RESET_B 0.000150309
36 *314:27 *6877:RESET_B 0.000142011
37 *314:44 *6888:RESET_B 0.000113574
*RES
1 *7037:X *6877:RESET_B 15.8446 
2 *7037:X *419:19 11.0679 
3 *419:19 *419:23 5.83929 
4 *419:23 *419:25 3.46429 
5 *419:25 *6830:RESET_B 7.84821 
6 *419:25 *6848:RESET_B 4.5 
7 *6848:RESET_B *6884:RESET_B 5.75 
8 *419:23 *6881:RESET_B 4.5 
9 *419:19 *6888:RESET_B 3.08036 
10 *6848:RESET_B *6840:RESET_B 13.9821 
11 *6840:RESET_B *6845:RESET_B 7.67857 
*END

*D_NET *420 0.00330021
*CONN
*I *7038:A I *D sky130_fd_sc_hd__clkbuf_4
*I *6846:RESET_B I *D sky130_fd_sc_hd__dfrtp_2
*I *6853:RESET_B I *D sky130_fd_sc_hd__dfrtp_2
*I *6935:X O *D sky130_fd_sc_hd__clkdlybuf4s25_1
*CAP
1 *7038:A 0.000541372
2 *6846:RESET_B 0.000172117
3 *6853:RESET_B 0.000556939
4 *6935:X 0.000159045
5 *420:10 0.000346729
6 *6846:RESET_B *6723:B2 4.96254e-05
7 *6853:RESET_B *432:18 4.85567e-05
8 *7038:A *6722:B2 1.63058e-05
9 *7038:A *6854:RESET_B 0.00029259
10 *7038:A *432:18 8.94268e-05
11 *7038:A *475:124 0.000222666
12 *7038:A *478:39 1.69961e-05
13 *420:10 *432:18 0
14 *420:10 *513:83 1.15172e-05
15 *6639:A0 *6846:RESET_B 0.000138816
16 *6639:A0 *7038:A 0
17 *6639:A0 *420:10 0.00010059
18 *6723:A2 *7038:A 0
19 *6853:D *7038:A 0.000169973
20 *6958:A *7038:A 0.000185643
21 *7031:A *420:10 6.05161e-06
22 *7034:A *6846:RESET_B 0
23 *7034:A *420:10 0
24 *7035:A *6846:RESET_B 9.23759e-05
25 *323:10 *6853:RESET_B 1.20135e-05
26 *323:10 *7038:A 9.51097e-06
27 *337:105 *7038:A 6.13479e-05
28 *359:89 *7038:A 0
*RES
1 *6935:X *420:10 16.8893 
2 *420:10 *6853:RESET_B 4.97321 
3 *420:10 *6846:RESET_B 8.84821 
4 *6853:RESET_B *7038:A 29.9161 
*END

*D_NET *421 0.00958628
*CONN
*I *6876:D I *D sky130_fd_sc_hd__dfrtp_2
*I *7030:X O *D sky130_fd_sc_hd__clkdlybuf4s25_1
*CAP
1 *6876:D 0
2 *7030:X 0
3 *421:6 0.00286954
4 *421:4 0.00286954
5 *421:6 *6877:D 0.000261277
6 uo_out[1] *421:6 0.000100388
7 uo_out[5] *421:6 0.000436935
8 *6877:CLK *421:6 0.000146571
9 *6877:RESET_B *421:6 0.000624325
10 *7037:A *421:6 2.64262e-06
11 *314:27 *421:6 7.03295e-05
12 *314:44 *421:6 0.00183323
13 *314:60 *421:6 0.000371491
*RES
1 *7030:X *421:4 9.3 
2 *421:4 *421:6 41.6652 
3 *421:6 *6876:D 9.3 
*END

*D_NET *422 0.0144349
*CONN
*I *6812:RESET_B I *D sky130_fd_sc_hd__dfrtp_2
*I *6844:RESET_B I *D sky130_fd_sc_hd__dfrtp_2
*I *6882:RESET_B I *D sky130_fd_sc_hd__dfrtp_2
*I *6875:RESET_B I *D sky130_fd_sc_hd__dfrtp_2
*I *6842:RESET_B I *D sky130_fd_sc_hd__dfrtp_2
*I *6841:RESET_B I *D sky130_fd_sc_hd__dfrtp_2
*I *6849:RESET_B I *D sky130_fd_sc_hd__dfrtp_2
*I *6854:RESET_B I *D sky130_fd_sc_hd__dfrtp_2
*I *7038:X O *D sky130_fd_sc_hd__clkbuf_4
*CAP
1 *6812:RESET_B 0.00120776
2 *6844:RESET_B 0.00182071
3 *6882:RESET_B 0.000220293
4 *6875:RESET_B 0.000289105
5 *6842:RESET_B 9.84253e-05
6 *6841:RESET_B 0.00072688
7 *6849:RESET_B 0.000780031
8 *6854:RESET_B 0.00102013
9 *7038:X 0.000659337
10 *422:85 0.000931671
11 *422:64 0.00059675
12 *6812:RESET_B *505:81 0.000122117
13 *6841:RESET_B *441:14 0
14 *6844:RESET_B *6563:A_N 6.35448e-05
15 *6844:RESET_B *6718:B2 1.31525e-05
16 *6844:RESET_B *6727:B2 5.52238e-05
17 *6844:RESET_B *513:59 0.000246128
18 *6849:RESET_B *442:24 5.7903e-06
19 *6849:RESET_B *475:110 0.000209144
20 *6854:RESET_B *475:110 0.00064613
21 *6854:RESET_B *475:124 0.00015846
22 *6875:RESET_B *7020:A 0.000315179
23 *6882:RESET_B *6850:RESET_B 0
24 *6882:RESET_B *7024:A 0
25 *6882:RESET_B *1108:10 0
26 *422:64 *6618:S1 0.000136182
27 *422:85 *513:59 0.000392112
28 *6565:A *6875:RESET_B 0
29 *6565:B *6875:RESET_B 9.81055e-05
30 *6636:A0 *6844:RESET_B 0.000126566
31 *6636:A0 *6882:RESET_B 3.09531e-05
32 *6636:A0 *422:85 0.000141555
33 *6636:A1 *6882:RESET_B 0
34 *6638:A0 *6812:RESET_B 3.67142e-05
35 *6640:A1 *6849:RESET_B 0
36 *6719:A1 *422:85 7.92229e-06
37 *6721:A1 *6812:RESET_B 0.000354105
38 *6726:A2 *6849:RESET_B 0
39 *6727:A2 *6844:RESET_B 7.40229e-05
40 *6728:A1 *6812:RESET_B 3.61629e-06
41 *6732:A1 *6812:RESET_B 7.42892e-05
42 *6732:A2 *6812:RESET_B 6.6922e-05
43 *6841:CLK *6849:RESET_B 0.000266153
44 *6842:CLK *422:85 1.25672e-06
45 *6842:D *422:64 0.000212057
46 *6844:D *6844:RESET_B 1.035e-05
47 *6845:RESET_B *6854:RESET_B 3.02581e-06
48 *6849:D *6849:RESET_B 0
49 *6850:D *6844:RESET_B 0.00021355
50 *6850:D *6882:RESET_B 0.000166926
51 *6854:CLK *6854:RESET_B 0.000192361
52 *6855:D *6812:RESET_B 3.36426e-05
53 *6875:D *6849:RESET_B 1.19402e-05
54 *6953:A *6812:RESET_B 3.30352e-05
55 *6954:A *422:85 5.45307e-05
56 *6962:A *422:64 4.01768e-05
57 *6963:A *6849:RESET_B 0
58 *6966:A *6812:RESET_B 3.18676e-05
59 *7029:A *6841:RESET_B 0.000122911
60 *7031:A *6841:RESET_B 0
61 *7032:A *6849:RESET_B 1.01912e-05
62 *7038:A *6854:RESET_B 0.00029259
63 *300:12 *6875:RESET_B 0.000178714
64 *300:12 *422:64 0.000121459
65 *301:45 *6875:RESET_B 0.000134714
66 *302:105 *6841:RESET_B 4.19239e-05
67 *303:38 *6812:RESET_B 0.00016135
68 *310:10 *6875:RESET_B 0
69 *310:21 *6844:RESET_B 3.69047e-06
70 *310:32 *6844:RESET_B 9.01699e-05
71 *312:14 *6812:RESET_B 8.75059e-06
72 *312:14 *6841:RESET_B 0
73 *312:14 *6844:RESET_B 5.40584e-05
74 *312:14 *422:64 6.92695e-05
75 *337:105 *6854:RESET_B 0.000145161
76 *359:47 *6841:RESET_B 0
77 *359:47 *6849:RESET_B 0
*RES
1 *7038:X *6854:RESET_B 34.0232 
2 *6854:RESET_B *6849:RESET_B 16.2054 
3 *6849:RESET_B *6841:RESET_B 16.0982 
4 *6841:RESET_B *422:64 11.8482 
5 *422:64 *6842:RESET_B 4.5 
6 *422:64 *6875:RESET_B 12.5982 
7 *6842:RESET_B *422:85 3.75893 
8 *422:85 *6882:RESET_B 13.6786 
9 *422:85 *6844:RESET_B 21.9732 
10 *6844:RESET_B *6812:RESET_B 19.1786 
*END

*D_NET *423 0.0075606
*CONN
*I *6851:RESET_B I *D sky130_fd_sc_hd__dfrtp_2
*I *6847:RESET_B I *D sky130_fd_sc_hd__dfrtp_2
*I *6855:RESET_B I *D sky130_fd_sc_hd__dfrtp_2
*I *6850:RESET_B I *D sky130_fd_sc_hd__dfrtp_2
*I *6852:RESET_B I *D sky130_fd_sc_hd__dfrtp_2
*I *6889:RESET_B I *D sky130_fd_sc_hd__dfrtp_2
*I *6936:X O *D sky130_fd_sc_hd__clkdlybuf4s25_1
*CAP
1 *6851:RESET_B 0.000219754
2 *6847:RESET_B 0
3 *6855:RESET_B 0.000415261
4 *6850:RESET_B 0.000233792
5 *6852:RESET_B 0.000738591
6 *6889:RESET_B 0
7 *6936:X 0.000283637
8 *423:71 0.000365446
9 *423:17 0.00087933
10 *423:10 0.000460153
11 *6850:RESET_B *6563:B 2.04825e-05
12 *6850:RESET_B *7024:A 8.2958e-06
13 *6850:RESET_B *440:55 0.000241672
14 *6850:RESET_B *1108:10 0.000162565
15 *6852:RESET_B *6563:B 0.000265453
16 *423:10 *6889:D 7.29646e-05
17 *423:10 *6936:A 2.89016e-05
18 *423:10 *7024:A 2.15258e-05
19 *423:10 *440:55 0.000119347
20 *423:10 *440:76 2.14757e-05
21 *423:17 *6727:B2 0.000111348
22 *423:17 *7024:A 9.2769e-05
23 *423:17 *440:55 0.000319228
24 *423:71 *513:59 0.000175578
25 *6636:A1 *6850:RESET_B 3.22745e-05
26 *6637:A0 *6855:RESET_B 0.000357054
27 *6641:A0 *6851:RESET_B 7.53238e-05
28 *6641:A1 *6855:RESET_B 5.4131e-05
29 *6641:A1 *423:71 7.02013e-05
30 *6727:B1 *423:10 0.000227532
31 *6850:D *6850:RESET_B 0
32 *6851:D *6851:RESET_B 4.33438e-05
33 *6852:D *6852:RESET_B 0.000215528
34 *6852:D *6855:RESET_B 0.000214967
35 *6882:RESET_B *6850:RESET_B 0
36 *6957:A *423:71 3.18676e-05
37 *6966:A *6851:RESET_B 3.28534e-05
38 *6966:A *423:71 3.33092e-05
39 *7027:A *6850:RESET_B 0.000152333
40 *45:16 *6855:RESET_B 0
41 *303:10 *6852:RESET_B 0.000183324
42 *303:10 *6855:RESET_B 0.000344519
43 *303:23 *6851:RESET_B 0
44 *303:23 *423:71 0
45 *332:10 *6851:RESET_B 0.000123295
46 *337:22 *423:71 8.6229e-06
47 *348:35 *6851:RESET_B 0.000102545
*RES
1 *6936:X *423:10 18.4429 
2 *423:10 *6889:RESET_B 4.5 
3 *423:10 *423:17 4.375 
4 *423:17 *6852:RESET_B 21.2232 
5 *423:17 *6850:RESET_B 10.4464 
6 *6852:RESET_B *6855:RESET_B 16.8661 
7 *6855:RESET_B *423:71 7.84821 
8 *423:71 *6847:RESET_B 4.5 
9 *423:71 *6851:RESET_B 9.48214 
*END

*D_NET *424 0.00332213
*CONN
*I *7039:A I *D sky130_fd_sc_hd__buf_4
*I *6781:RESET_B I *D sky130_fd_sc_hd__dfrtp_2
*I *6777:RESET_B I *D sky130_fd_sc_hd__dfrtp_2
*I *6802:RESET_B I *D sky130_fd_sc_hd__dfrtp_2
*I *6937:X O *D sky130_fd_sc_hd__clkdlybuf4s25_1
*CAP
1 *7039:A 7.98459e-05
2 *6781:RESET_B 0.000310035
3 *6777:RESET_B 0.000347227
4 *6802:RESET_B 0.000114621
5 *6937:X 0.000114621
6 *424:21 0.000577416
7 *6777:RESET_B *426:110 5.01213e-05
8 *6781:RESET_B *426:110 0.000198822
9 *6802:RESET_B *7011:A 0.000145277
10 *6802:RESET_B *426:110 0
11 *6802:RESET_B *501:85 0.000179995
12 *7039:A *6570:B 3.90159e-05
13 *7039:A *6781:D 0.000573291
14 *7039:A *512:57 0.000493359
15 *6584:A *6777:RESET_B 0
16 *6584:A *6781:RESET_B 0
17 *6788:CLK *6777:RESET_B 0
18 *6806:CLK *6781:RESET_B 0
19 *311:63 *6802:RESET_B 9.84792e-05
*RES
1 *6937:X *6802:RESET_B 21.9518 
2 *6802:RESET_B *424:21 4.5 
3 *424:21 *6777:RESET_B 9.48214 
4 *424:21 *6781:RESET_B 9.48214 
5 *6781:RESET_B *7039:A 14.7018 
*END

*D_NET *425 0.00861338
*CONN
*I *6771:RESET_B I *D sky130_fd_sc_hd__dfrtp_2
*I *6797:RESET_B I *D sky130_fd_sc_hd__dfrtp_2
*I *6772:RESET_B I *D sky130_fd_sc_hd__dfrtp_2
*I *6803:RESET_B I *D sky130_fd_sc_hd__dfrtp_2
*I *6776:RESET_B I *D sky130_fd_sc_hd__dfrtp_2
*I *6778:RESET_B I *D sky130_fd_sc_hd__dfrtp_2
*I *6806:RESET_B I *D sky130_fd_sc_hd__dfrtp_2
*I *7039:X O *D sky130_fd_sc_hd__buf_4
*CAP
1 *6771:RESET_B 0.00038418
2 *6797:RESET_B 0
3 *6772:RESET_B 0.000604558
4 *6803:RESET_B 4.13403e-05
5 *6776:RESET_B 0.00133015
6 *6778:RESET_B 0.000574058
7 *6806:RESET_B 0.000139114
8 *7039:X 8.84647e-05
9 *425:66 0.000961544
10 *425:41 0.00083939
11 *425:10 0.000592567
12 *6771:RESET_B *6763:A 8.73652e-05
13 *6771:RESET_B *6772:D 0
14 *6771:RESET_B *532:21 2.8266e-06
15 *6772:RESET_B *6797:D 2.19778e-05
16 *6776:RESET_B *6582:A 8.01067e-05
17 *6776:RESET_B *6582:B 0
18 *6776:RESET_B *6803:D 4.1331e-06
19 *6776:RESET_B *526:10 7.09176e-05
20 *6778:RESET_B *6756:A 5.52238e-05
21 *6778:RESET_B *6806:D 9.77274e-05
22 *6806:RESET_B *6570:B 0.000138106
23 *6806:RESET_B *6806:D 0.000223604
24 *425:10 *6513:A 0
25 *425:10 *7000:A 3.34672e-05
26 *425:41 *501:85 0.000311434
27 *425:66 *6582:B 5.7254e-05
28 *425:66 *6797:D 4.79842e-05
29 *425:66 *509:12 3.25078e-05
30 *425:66 *509:14 4.85567e-05
31 *425:66 *543:16 0.000247771
32 *6771:CLK *6771:RESET_B 9.24395e-05
33 *6775:CLK *6776:RESET_B 0
34 *6787:CLK *6778:RESET_B 0.000144773
35 *6787:CLK *425:10 3.47737e-05
36 *6788:RESET_B *6778:RESET_B 0.000275094
37 *6794:CLK *6771:RESET_B 0
38 *6794:D *6771:RESET_B 0
39 *6795:RESET_B *6771:RESET_B 0
40 *6797:CLK *6772:RESET_B 0
41 *186:54 *425:66 1.20135e-05
42 *311:76 *425:41 0.00019497
43 *311:87 *6803:RESET_B 4.96254e-05
44 *311:87 *425:41 0.000122412
45 *318:18 *6771:RESET_B 0.000120402
46 *318:38 *6771:RESET_B 0.000181134
47 *318:38 *6772:RESET_B 0
48 *402:99 *6776:RESET_B 0
49 *403:23 *6772:RESET_B 0
50 *403:47 *6772:RESET_B 0
51 *403:47 *425:66 8.31156e-05
52 *403:61 *425:66 0.000186303
*RES
1 *7039:X *425:10 19.9429 
2 *425:10 *6806:RESET_B 3.75893 
3 *425:10 *6778:RESET_B 17.1071 
4 *6778:RESET_B *425:41 6.09821 
5 *425:41 *6776:RESET_B 18.8393 
6 *425:41 *6803:RESET_B 0.883929 
7 *6776:RESET_B *425:66 21.1875 
8 *425:66 *6772:RESET_B 8.4375 
9 *425:66 *6797:RESET_B 4.5 
10 *6772:RESET_B *6771:RESET_B 18.8393 
*END

*D_NET *426 0.0137128
*CONN
*I *6861:RESET_B I *D sky130_fd_sc_hd__dfrtp_2
*I *6937:A I *D sky130_fd_sc_hd__clkdlybuf4s25_1
*I *6856:RESET_B I *D sky130_fd_sc_hd__dfrtp_2
*I *6866:RESET_B I *D sky130_fd_sc_hd__dfrtp_2
*I *6862:RESET_B I *D sky130_fd_sc_hd__dfrtp_2
*I *6843:RESET_B I *D sky130_fd_sc_hd__dfrtp_2
*I *6779:RESET_B I *D sky130_fd_sc_hd__dfrtp_2
*I *6804:RESET_B I *D sky130_fd_sc_hd__dfrtp_2
*I *6864:RESET_B I *D sky130_fd_sc_hd__dfrtp_2
*I *6938:X O *D sky130_fd_sc_hd__clkdlybuf4s25_1
*CAP
1 *6861:RESET_B 0.00115106
2 *6937:A 2.63486e-05
3 *6856:RESET_B 0.000643837
4 *6866:RESET_B 0.00196793
5 *6862:RESET_B 0.00047801
6 *6843:RESET_B 0.000280225
7 *6779:RESET_B 0.000227187
8 *6804:RESET_B 0.000117493
9 *6864:RESET_B 0.000280225
10 *6938:X 0.000391518
11 *426:110 0.00214098
12 *426:17 0.000552623
13 *426:10 0.000716954
14 *6779:RESET_B *7009:A 0.000358971
15 *6779:RESET_B *440:91 0
16 *6856:RESET_B *6583:B 0
17 *6856:RESET_B *6988:A 0
18 *6856:RESET_B *516:10 0
19 *6861:RESET_B *6512:A 0.000358002
20 *6861:RESET_B *503:55 0.000233582
21 *6861:RESET_B *545:6 0.00019233
22 *6862:RESET_B *7009:A 0.000180002
23 *6866:RESET_B *527:10 0.000437808
24 *426:10 *6642:A1 6.2198e-05
25 *426:10 *6741:A1 0
26 *426:10 *440:91 0
27 *426:10 *508:78 0
28 *426:17 *440:91 0
29 *426:17 *513:12 0
30 *426:110 *7011:A 0
31 *426:110 *440:93 0.000885751
32 *426:110 *512:57 0.000100831
33 *426:110 *516:10 5.52302e-05
34 *6584:B *6856:RESET_B 0
35 *6637:A0 *6843:RESET_B 9.23695e-05
36 *6720:A1 *6843:RESET_B 4.96155e-05
37 *6743:B1 *6856:RESET_B 0
38 *6743:B2 *6856:RESET_B 4.61329e-05
39 *6777:RESET_B *426:110 5.01213e-05
40 *6781:CLK *6866:RESET_B 0.0001571
41 *6781:CLK *426:110 4.96155e-05
42 *6781:RESET_B *426:110 0.000198822
43 *6788:CLK *6861:RESET_B 9.93135e-05
44 *6802:RESET_B *426:110 0
45 *6862:D *6779:RESET_B 0
46 *6862:D *6862:RESET_B 0.000149904
47 *6862:D *426:17 0
48 *6864:D *6843:RESET_B 0.000102197
49 *6866:D *6856:RESET_B 0
50 *6866:D *6866:RESET_B 1.66679e-05
51 *155:18 *6856:RESET_B 0
52 *265:12 *426:10 0
53 *312:66 *6779:RESET_B 0.000264964
54 *312:73 *6862:RESET_B 9.84891e-05
55 *312:73 *6866:RESET_B 0.00027986
56 *337:14 *6843:RESET_B 0
57 *348:18 *6843:RESET_B 1.36251e-05
58 *402:80 *6861:RESET_B 0.000145336
59 *402:80 *6937:A 5.96031e-05
*RES
1 *6938:X *426:10 19.7286 
2 *426:10 *6864:RESET_B 4.5 
3 *426:10 *426:17 4.98214 
4 *426:17 *6804:RESET_B 4.5 
5 *426:17 *6779:RESET_B 10.7232 
6 *6864:RESET_B *6843:RESET_B 14.0536 
7 *6804:RESET_B *6862:RESET_B 12.6518 
8 *6862:RESET_B *6866:RESET_B 9.32143 
9 *6866:RESET_B *6856:RESET_B 18.5357 
10 *6866:RESET_B *426:110 39.0089 
11 *426:110 *6937:A 10.0321 
12 *426:110 *6861:RESET_B 17.4554 
*END

*D_NET *427 0.00152951
*CONN
*I *7040:A I *D sky130_fd_sc_hd__clkbuf_4
*I *6796:RESET_B I *D sky130_fd_sc_hd__dfrtp_2
*I *6939:X O *D sky130_fd_sc_hd__clkdlybuf4s25_1
*CAP
1 *7040:A 0.000411194
2 *6796:RESET_B 0.00058927
3 *6939:X 0.000178076
4 *6796:RESET_B *539:10 3.92854e-05
5 *7040:A *499:12 0.000105163
6 *6795:RESET_B *6796:RESET_B 4.57445e-05
7 *302:299 *7040:A 3.83258e-05
8 *302:303 *7040:A 8.76983e-05
9 *302:314 *6796:RESET_B 0
10 *403:23 *6796:RESET_B 3.47561e-05
*RES
1 *6939:X *6796:RESET_B 22.0679 
2 *6796:RESET_B *7040:A 17.6125 
*END

*D_NET *428 0.0130295
*CONN
*I *6829:RESET_B I *D sky130_fd_sc_hd__dfrtp_2
*I *6825:RESET_B I *D sky130_fd_sc_hd__dfrtp_2
*I *6826:RESET_B I *D sky130_fd_sc_hd__dfrtp_2
*I *6827:RESET_B I *D sky130_fd_sc_hd__dfrtp_2
*I *6566:A I *D sky130_fd_sc_hd__and2_2
*I *6773:RESET_B I *D sky130_fd_sc_hd__dfrtp_2
*I *6873:RESET_B I *D sky130_fd_sc_hd__dfrtp_2
*I *6813:RESET_B I *D sky130_fd_sc_hd__dfrtp_2
*I *6828:RESET_B I *D sky130_fd_sc_hd__dfrtp_2
*I *7040:X O *D sky130_fd_sc_hd__clkbuf_4
*CAP
1 *6829:RESET_B 0.000328798
2 *6825:RESET_B 0.000245564
3 *6826:RESET_B 0.000269794
4 *6827:RESET_B 0.000240982
5 *6566:A 7.05055e-05
6 *6773:RESET_B 9.70697e-05
7 *6873:RESET_B 6.85592e-05
8 *6813:RESET_B 0.000119308
9 *6828:RESET_B 0.000558109
10 *7040:X 7.56883e-05
11 *428:85 0.000905009
12 *428:77 0.00085376
13 *428:75 0.000923029
14 *428:41 0.000333121
15 *428:27 0.000318287
16 *428:10 0.000370674
17 *428:8 0.000233395
18 *6566:A *6939:A 0.000158971
19 *6773:RESET_B *6646:A3 5.41794e-05
20 *6813:RESET_B *531:18 3.80667e-05
21 *6825:RESET_B *6687:A1 5.52238e-05
22 *6826:RESET_B *1088:10 0
23 *6826:RESET_B *1088:21 0
24 *6827:RESET_B *1089:16 1.72894e-05
25 *6828:RESET_B *514:24 0.000414755
26 *6829:RESET_B *6606:C 4.43142e-05
27 *6873:RESET_B *6873:D 6.70791e-05
28 *6873:RESET_B *1083:6 6.05161e-06
29 *428:10 *514:24 0.000144038
30 *428:27 *6873:D 5.54655e-05
31 *428:27 *514:24 0.000246064
32 *428:41 *6873:D 0.000184969
33 *428:41 *6939:A 0.000235174
34 *428:41 *475:8 6.42778e-05
35 *428:41 *514:24 0.000196276
36 *428:75 *1090:6 1.39726e-05
37 *428:77 *6606:C 2.84398e-05
38 *428:77 *1088:21 1.76135e-05
39 *428:77 *1088:34 6.39901e-05
40 *428:77 *1089:35 0.000117903
41 *428:85 *1088:21 0.000134748
42 *428:85 *1089:35 3.51442e-05
43 *6610:B1 *6773:RESET_B 8.91726e-05
44 *6613:A *6813:RESET_B 5.33005e-05
45 *6613:A *6828:RESET_B 0.000146071
46 *6614:A2 *6826:RESET_B 0
47 *6620:A1 *6826:RESET_B 0
48 *6620:B2 *6826:RESET_B 0
49 *6645:A0 *6813:RESET_B 0.000185118
50 *6685:A1 *428:77 0
51 *6686:A2 *6826:RESET_B 0.00010326
52 *6686:A2 *428:85 0
53 *6686:B1 *6826:RESET_B 0
54 *6686:B1 *428:85 1.24368e-05
55 *6687:A2 *6825:RESET_B 5.33005e-05
56 *6689:B1 *428:77 0
57 *6690:A1 *6829:RESET_B 0
58 *6690:A2 *428:75 0.00010326
59 *6692:A1 *6829:RESET_B 0
60 *6692:B2 *6829:RESET_B 0
61 *6694:A2 *6829:RESET_B 0.000206319
62 *6825:CLK *6825:RESET_B 9.3111e-05
63 *6825:D *6825:RESET_B 4.60179e-05
64 *6826:D *6826:RESET_B 0
65 *6828:D *428:75 0.000145771
66 *6829:CLK *6828:RESET_B 1.0033e-05
67 *6829:CLK *428:10 1.0033e-05
68 *6829:D *6829:RESET_B 0.000148189
69 *6872:CLK *6813:RESET_B 8.42609e-05
70 *6915:A *428:75 9.60875e-05
71 *6916:A *428:75 0.000488493
72 *6923:A *428:41 9.60939e-05
73 *155:68 *6773:RESET_B 0
74 *155:81 *428:41 5.52302e-05
75 *155:88 *6566:A 0.000269428
76 *155:88 *428:41 0.000170379
77 *155:101 *6566:A 4.08637e-05
78 *195:10 *6829:RESET_B 0
79 *200:12 *428:8 4.96113e-05
80 *205:32 *428:77 2.41481e-05
81 *246:12 *6825:RESET_B 0.000208435
82 *246:16 *6825:RESET_B 0.000479658
83 *253:14 *428:77 3.87848e-05
84 *302:299 *6873:RESET_B 8.63533e-05
85 *317:10 *428:10 5.72546e-05
86 *317:10 *428:27 8.81025e-05
87 *317:27 *6813:RESET_B 0.0003483
88 *381:8 *428:75 9.90431e-05
89 *381:36 *428:75 0.000260954
90 *398:34 *6825:RESET_B 0.000123588
91 *398:68 *428:75 5.33882e-05
*RES
1 *7040:X *428:8 14.7464 
2 *428:8 *428:10 1.94643 
3 *428:10 *6828:RESET_B 9.78571 
4 *428:10 *6813:RESET_B 8.66964 
5 *428:8 *428:27 3.16071 
6 *428:27 *6873:RESET_B 6.20536 
7 *428:27 *428:41 11.2857 
8 *428:41 *6773:RESET_B 11.25 
9 *428:41 *6566:A 12.3 
10 *6828:RESET_B *428:75 23.6696 
11 *428:75 *428:77 4.98214 
12 *428:77 *428:85 11.5 
13 *428:85 *6827:RESET_B 3.75893 
14 *428:85 *6826:RESET_B 13.9821 
15 *428:77 *6825:RESET_B 12.3661 
16 *428:75 *6829:RESET_B 11.1875 
*END

*D_NET *429 0.00152917
*CONN
*I *7041:A I *D sky130_fd_sc_hd__clkbuf_4
*I *6780:RESET_B I *D sky130_fd_sc_hd__dfrtp_2
*I *6940:X O *D sky130_fd_sc_hd__clkdlybuf4s25_1
*CAP
1 *7041:A 0.000278285
2 *6780:RESET_B 0.000240959
3 *6940:X 0
4 *429:4 0.000519244
5 *6780:RESET_B *6863:RESET_B 9.91224e-05
6 *6780:RESET_B *433:17 7.00829e-05
7 *7041:A *433:17 0.000321481
*RES
1 *6940:X *429:4 9.3 
2 *429:4 *6780:RESET_B 12.5179 
3 *429:4 *7041:A 15.1929 
*END

*D_NET *430 0.0113147
*CONN
*I *6799:RESET_B I *D sky130_fd_sc_hd__dfrtp_2
*I *6798:RESET_B I *D sky130_fd_sc_hd__dfrtp_2
*I *6774:RESET_B I *D sky130_fd_sc_hd__dfrtp_2
*I *6800:RESET_B I *D sky130_fd_sc_hd__dfrtp_2
*I *6775:RESET_B I *D sky130_fd_sc_hd__dfrtp_2
*I *6857:RESET_B I *D sky130_fd_sc_hd__dfrtp_2
*I *6801:RESET_B I *D sky130_fd_sc_hd__dfrtp_2
*I *6870:RESET_B I *D sky130_fd_sc_hd__dfrtp_2
*I *6863:RESET_B I *D sky130_fd_sc_hd__dfrtp_2
*I *7041:X O *D sky130_fd_sc_hd__clkbuf_4
*CAP
1 *6799:RESET_B 0.000133394
2 *6798:RESET_B 6.52287e-05
3 *6774:RESET_B 0.000682389
4 *6800:RESET_B 9.61691e-05
5 *6775:RESET_B 0.000137337
6 *6857:RESET_B 0.000715715
7 *6801:RESET_B 2.80259e-05
8 *6870:RESET_B 0.00110245
9 *6863:RESET_B 0.00168109
10 *7041:X 0.000969077
11 *430:117 0.000407192
12 *430:64 0.000450221
13 *430:62 0.000329348
14 *430:52 0.000580659
15 *6774:RESET_B *6774:D 0.000138838
16 *6774:RESET_B *475:23 8.91743e-05
17 *6774:RESET_B *522:10 7.45939e-05
18 *6774:RESET_B *541:32 1.30665e-05
19 *6775:RESET_B *6800:D 5.33005e-05
20 *6775:RESET_B *7022:A 2.14757e-05
21 *6775:RESET_B *1084:22 2.85262e-05
22 *6798:RESET_B *6701:A_N 4.09747e-05
23 *6798:RESET_B *433:21 6.25348e-05
24 *6799:RESET_B *6701:A_N 8.09146e-06
25 *6799:RESET_B *433:21 0.000144001
26 *6800:RESET_B *509:12 4.52558e-05
27 *6801:RESET_B *6582:B 2.51837e-05
28 *6857:RESET_B *6800:D 3.17148e-05
29 *6863:RESET_B *6942:A 0.000529346
30 *6863:RESET_B *433:17 0.000146591
31 *6863:RESET_B *528:18 0
32 *6863:RESET_B *533:28 0
33 *6870:RESET_B *6586:A 6.21688e-05
34 *6870:RESET_B *528:18 3.89864e-05
35 *430:52 *6582:B 4.60235e-05
36 *430:52 *475:54 8.86256e-05
37 *430:64 *6800:D 0.000117706
38 *430:117 *6798:D 0.000222666
39 *6590:A1 *6870:RESET_B 0
40 *6734:B1 *6857:RESET_B 0.000127665
41 *6734:B1 *430:62 0.000135039
42 *6734:B2 *6857:RESET_B 0.000100823
43 *6742:B1 *6870:RESET_B 2.40461e-05
44 *6747:B2 *430:52 0.000483795
45 *6768:RESET_B *6870:RESET_B 1.68833e-05
46 *6769:D *6863:RESET_B 7.10955e-05
47 *6774:CLK *6774:RESET_B 0
48 *6780:RESET_B *6863:RESET_B 9.91224e-05
49 *6799:CLK *6774:RESET_B 0.000221906
50 *6865:CLK *6870:RESET_B 9.15186e-06
51 *6918:A *430:52 0.000141734
52 *6918:A *430:62 0
53 *6918:A *430:64 0
54 *186:42 *430:52 2.12087e-05
55 *302:191 *6870:RESET_B 0
56 *306:21 *430:52 0.000118373
57 *395:18 *6870:RESET_B 0
58 *395:18 *430:52 8.39471e-05
59 *395:73 *6870:RESET_B 2.8454e-05
60 *396:20 *430:52 0.000175726
61 *396:130 *6870:RESET_B 4.85935e-05
62 *401:56 *6799:RESET_B 0
63 *401:58 *6799:RESET_B 0
*RES
1 *7041:X *6863:RESET_B 33.5321 
2 *6863:RESET_B *6870:RESET_B 21.1696 
3 *6870:RESET_B *430:52 19.4554 
4 *430:52 *6801:RESET_B 0.473214 
5 *430:52 *430:62 7.96429 
6 *430:62 *430:64 1.64286 
7 *430:64 *6857:RESET_B 9.48214 
8 *430:64 *6775:RESET_B 6.61607 
9 *430:62 *6800:RESET_B 6.20536 
10 *6857:RESET_B *6774:RESET_B 17.9643 
11 *6774:RESET_B *430:117 8.25893 
12 *430:117 *6798:RESET_B 6.14286 
13 *430:117 *6799:RESET_B 7.96429 
*END

*D_NET *431 0.00625179
*CONN
*I *6874:RESET_B I *D sky130_fd_sc_hd__dfrtp_2
*I *6858:RESET_B I *D sky130_fd_sc_hd__dfrtp_2
*I *6859:RESET_B I *D sky130_fd_sc_hd__dfrtp_2
*I *6805:RESET_B I *D sky130_fd_sc_hd__dfrtp_2
*I *6865:RESET_B I *D sky130_fd_sc_hd__dfrtp_2
*I *6860:RESET_B I *D sky130_fd_sc_hd__dfrtp_2
*I *6941:X O *D sky130_fd_sc_hd__clkdlybuf4s25_1
*CAP
1 *6874:RESET_B 0.000323774
2 *6858:RESET_B 0.000202849
3 *6859:RESET_B 0.000606657
4 *6805:RESET_B 0.000216102
5 *6865:RESET_B 9.66206e-05
6 *6860:RESET_B 0.000603338
7 *6941:X 0.000178425
8 *431:62 0.00075098
9 *431:16 0.000548632
10 *431:10 0.0006255
11 *6805:RESET_B *514:10 4.17828e-05
12 *6858:RESET_B *6571:A 0
13 *6858:RESET_B *6980:A 0
14 *6859:RESET_B *6569:A 0
15 *6860:RESET_B *6984:A 5.26224e-05
16 *6865:RESET_B *6580:A 2.59355e-05
17 *6865:RESET_B *6580:B 3.77486e-05
18 *6874:RESET_B *6571:B 0.000616982
19 *6874:RESET_B *1084:8 0.000136638
20 *431:10 *6516:A 9.90367e-05
21 *431:10 *534:10 0
22 *431:16 *6984:A 0.0001453
23 *431:16 *534:10 0
24 *431:62 *6576:B 0.000223176
25 *431:62 *6577:A 0
26 *6737:B2 *6860:RESET_B 0
27 *6742:B2 *6859:RESET_B 5.54204e-05
28 *6742:B2 *6860:RESET_B 0
29 *6742:B2 *431:16 0
30 *6746:B2 *6859:RESET_B 0
31 *6768:D *431:10 9.40167e-05
32 *6768:D *431:16 0.000220185
33 *6836:CLK *6858:RESET_B 0
34 *6858:D *6858:RESET_B 0
35 *6869:D *6859:RESET_B 0
36 *6874:CLK *6874:RESET_B 6.25978e-05
37 *7587:A *6859:RESET_B 0.000274548
38 *7587:A *431:62 0
39 *179:22 *6859:RESET_B 1.29251e-05
40 *308:35 *6858:RESET_B 0
41 *395:100 *6858:RESET_B 0
42 *395:100 *431:62 0
*RES
1 *6941:X *431:10 17.2107 
2 *431:10 *431:16 5.64286 
3 *431:16 *6860:RESET_B 7.96429 
4 *431:16 *6865:RESET_B 6.20536 
5 *431:10 *6805:RESET_B 7.84821 
6 *6860:RESET_B *6859:RESET_B 16.4643 
7 *6859:RESET_B *431:62 9.17857 
8 *431:62 *6858:RESET_B 7.96429 
9 *431:62 *6874:RESET_B 11.9554 
*END

*D_NET *432 0.00865727
*CONN
*I *6877:D I *D sky130_fd_sc_hd__dfrtp_2
*I *7031:X O *D sky130_fd_sc_hd__clkdlybuf4s25_1
*CAP
1 *6877:D 0.0006042
2 *7031:X 0.0013326
3 *432:18 0.0019368
4 *6877:D *440:36 0.00197559
5 *432:18 *6935:A 0
6 uo_out[5] *432:18 1.44903e-05
7 uo_out[6] *6877:D 0.000436935
8 uo_out[6] *432:18 1.26686e-05
9 *6634:S *432:18 0
10 *6639:A1 *432:18 0
11 *6723:A1 *432:18 0.000100823
12 *6723:A2 *432:18 2.60251e-05
13 *6723:B1 *432:18 0.00014789
14 *6845:CLK *432:18 8.32242e-05
15 *6853:D *432:18 5.04589e-05
16 *6853:RESET_B *432:18 4.85567e-05
17 *7034:A *432:18 0.000100823
18 *7037:A *6877:D 0.000139144
19 *7038:A *432:18 8.94268e-05
20 *302:23 *6877:D 0.00109334
21 *302:25 *6877:D 4.02296e-05
22 *316:14 *432:18 0.000117896
23 *323:10 *432:18 4.48684e-05
24 *420:10 *432:18 0
25 *421:6 *6877:D 0.000261277
*RES
1 *7031:X *432:18 47.3536 
2 *432:18 *6877:D 44.1036 
*END

*D_NET *433 0.0138347
*CONN
*I *6941:A I *D sky130_fd_sc_hd__clkdlybuf4s25_1
*I *6835:RESET_B I *D sky130_fd_sc_hd__dfrtp_2
*I *6939:A I *D sky130_fd_sc_hd__clkdlybuf4s25_1
*I *6872:RESET_B I *D sky130_fd_sc_hd__dfrtp_2
*I *6940:A I *D sky130_fd_sc_hd__clkdlybuf4s25_1
*I *6942:X O *D sky130_fd_sc_hd__clkdlybuf4s25_1
*CAP
1 *6941:A 3.3415e-05
2 *6835:RESET_B 0.000263068
3 *6939:A 0.00157346
4 *6872:RESET_B 0.000282414
5 *6940:A 0
6 *6942:X 2.14616e-05
7 *433:23 0.00190065
8 *433:21 0.00198186
9 *433:17 0.00213601
10 *433:6 0.000450036
11 *6835:RESET_B *498:14 0.000183726
12 *6939:A *539:14 8.37104e-05
13 *433:6 *6942:A 2.36643e-05
14 *433:17 *6942:A 0.000660562
15 *433:21 *6701:A_N 0
16 *433:21 *6805:D 1.30604e-05
17 *433:21 *6984:A 0
18 *433:21 *7002:A 0.000165079
19 *433:21 *7007:A 0
20 *433:21 *508:78 1.76266e-05
21 *433:21 *509:33 0
22 *433:21 *514:10 0.000192308
23 *433:21 *514:12 8.2791e-05
24 *433:21 *514:20 0.000279564
25 *6566:A *6939:A 0.000158971
26 *6600:B *6835:RESET_B 0.000181796
27 *6601:B *6872:RESET_B 0.000150618
28 *6601:B *433:23 6.98302e-05
29 *6609:A *6872:RESET_B 2.91794e-05
30 *6610:B1 *433:21 0
31 *6610:B1 *433:23 0
32 *6736:B2 *433:21 0.000129868
33 *6737:B2 *433:21 0.000443232
34 *6768:RESET_B *433:21 0
35 *6780:RESET_B *433:17 7.00829e-05
36 *6798:RESET_B *433:21 6.25348e-05
37 *6799:RESET_B *433:21 0.000144001
38 *6835:CLK *6835:RESET_B 3.97657e-05
39 *6835:D *6835:RESET_B 0.000125877
40 *6863:RESET_B *433:17 0.000146591
41 *6874:D *433:21 0
42 *6909:A *6939:A 0.000137608
43 *6923:A *6939:A 0.000175484
44 *7041:A *433:17 0.000321481
45 *155:51 *433:21 0
46 *155:101 *6835:RESET_B 9.71197e-05
47 *198:10 *6872:RESET_B 5.048e-05
48 *221:24 *6872:RESET_B 0.000255828
49 *221:24 *433:21 8.91726e-05
50 *221:24 *433:23 5.10822e-05
51 *222:12 *6872:RESET_B 0.000143466
52 *302:314 *6939:A 0.000131409
53 *317:8 *6939:A 4.90149e-05
54 *395:81 *433:21 6.07037e-07
55 *401:56 *433:21 0
56 *428:41 *6939:A 0.000235174
*RES
1 *6942:X *433:6 9.83571 
2 *433:6 *6940:A 9.3 
3 *433:6 *433:17 12.8929 
4 *433:17 *433:21 40.4464 
5 *433:21 *433:23 1.33929 
6 *433:23 *6872:RESET_B 12.6161 
7 *433:23 *6939:A 36.1571 
8 *433:21 *6835:RESET_B 10.7232 
9 *433:17 *6941:A 9.83571 
*END

*D_NET *434 0.00562024
*CONN
*I *6819:RESET_B I *D sky130_fd_sc_hd__dfrtp_2
*I *6824:RESET_B I *D sky130_fd_sc_hd__dfrtp_2
*I *7042:A I *D sky130_fd_sc_hd__buf_2
*I *6816:RESET_B I *D sky130_fd_sc_hd__dfrtp_2
*I *6817:RESET_B I *D sky130_fd_sc_hd__dfrtp_2
*I *6943:X O *D sky130_fd_sc_hd__clkdlybuf4s25_1
*CAP
1 *6819:RESET_B 0
2 *6824:RESET_B 0.000501469
3 *7042:A 0.000116557
4 *6816:RESET_B 2.45592e-05
5 *6817:RESET_B 0.000677565
6 *6943:X 0
7 *434:44 0.000703561
8 *434:10 0.000711227
9 *434:4 0.000327752
10 *6817:RESET_B *1094:12 6.60933e-05
11 *6824:RESET_B *6605:A 0
12 *6824:RESET_B *6605:B 0.000272837
13 *6824:RESET_B *6995:A 3.82605e-05
14 *6824:RESET_B *1086:23 4.98055e-06
15 *6824:RESET_B *1086:32 2.37761e-05
16 *6824:RESET_B *1087:10 0
17 *7042:A *439:60 0.000195455
18 *434:44 *6605:A 0
19 *434:44 *6605:B 0.000150618
20 *434:44 *6976:A 0.000177948
21 *6662:B1 *6817:RESET_B 0.000485292
22 *6662:B1 *434:44 0
23 *6662:B2 *434:44 0
24 *6683:B1 *6824:RESET_B 6.75007e-05
25 *6684:A2 *6824:RESET_B 0.000144633
26 *6824:D *6824:RESET_B 9.84792e-05
27 *6919:A *7042:A 0.00010096
28 *6919:A *434:10 0.000142856
29 *197:10 *6816:RESET_B 4.70821e-05
30 *381:92 *6816:RESET_B 3.02581e-06
31 *381:92 *6817:RESET_B 0.000292708
32 *381:92 *434:10 4.80729e-05
33 *397:10 *6817:RESET_B 0
34 *397:10 *7042:A 0.000196968
35 *397:10 *434:10 0
36 *397:12 *6817:RESET_B 0
*RES
1 *6943:X *434:4 9.3 
2 *434:4 *434:10 8.71429 
3 *434:10 *6817:RESET_B 15.6339 
4 *434:10 *6816:RESET_B 4.97321 
5 *434:4 *7042:A 13.9607 
6 *6817:RESET_B *434:44 9.17857 
7 *434:44 *6824:RESET_B 16.3482 
8 *434:44 *6819:RESET_B 4.5 
*END

*D_NET *435 0.00662774
*CONN
*I *6821:RESET_B I *D sky130_fd_sc_hd__dfrtp_2
*I *6820:RESET_B I *D sky130_fd_sc_hd__dfrtp_2
*I *6814:RESET_B I *D sky130_fd_sc_hd__dfrtp_2
*I *6815:RESET_B I *D sky130_fd_sc_hd__dfrtp_2
*I *6837:RESET_B I *D sky130_fd_sc_hd__dfrtp_2
*I *6818:RESET_B I *D sky130_fd_sc_hd__dfrtp_2
*I *7042:X O *D sky130_fd_sc_hd__buf_2
*CAP
1 *6821:RESET_B 0.000571118
2 *6820:RESET_B 7.16721e-05
3 *6814:RESET_B 0.000919521
4 *6815:RESET_B 0.000911857
5 *6837:RESET_B 0.000110869
6 *6818:RESET_B 0.000461688
7 *7042:X 0
8 *435:73 0.00101951
9 *435:20 0.000551224
10 *435:6 0.000532988
11 *6814:RESET_B *1085:8 0.000180861
12 *6814:RESET_B *1092:10 0.000138106
13 *6818:RESET_B *6655:D 0.000241198
14 *6818:RESET_B *439:60 0
15 *6818:RESET_B *1095:10 5.52302e-05
16 *6821:RESET_B *1097:20 0
17 *6821:RESET_B *1098:29 0
18 *435:73 *6647:S 7.33405e-05
19 *6647:A0 *435:73 0
20 *6647:A1 *435:73 6.05161e-06
21 *6649:B2 *6814:RESET_B 0
22 *6665:A3 *6821:RESET_B 0.000101227
23 *6814:D *6814:RESET_B 1.02504e-05
24 *6814:D *435:73 0
25 *6815:D *6818:RESET_B 0
26 *6815:D *435:20 0
27 *6818:D *6818:RESET_B 2.0714e-05
28 *6820:CLK *6814:RESET_B 0
29 *6820:CLK *435:73 0
30 *193:18 *6818:RESET_B 9.23695e-05
31 *305:68 *6815:RESET_B 8.90314e-05
32 *305:68 *6837:RESET_B 5.95575e-05
33 *305:83 *6815:RESET_B 0.000160582
34 *397:82 *6818:RESET_B 7.36174e-05
35 *397:92 *6818:RESET_B 0.000175157
*RES
1 *7042:X *435:6 13.8 
2 *435:6 *6818:RESET_B 14.8304 
3 *435:6 *435:20 5.53571 
4 *435:20 *6837:RESET_B 1.84821 
5 *435:20 *6815:RESET_B 5.95536 
6 *6815:RESET_B *6814:RESET_B 19.4464 
7 *6814:RESET_B *435:73 20.0089 
8 *435:73 *6820:RESET_B 5.61607 
9 *435:73 *6821:RESET_B 14.5446 
*END

*D_NET *436 0.00156769
*CONN
*I *6783:RESET_B I *D sky130_fd_sc_hd__dfrtp_2
*I *7043:A I *D sky130_fd_sc_hd__clkbuf_4
*I *6944:X O *D sky130_fd_sc_hd__clkdlybuf4s25_1
*CAP
1 *6783:RESET_B 0.00010324
2 *7043:A 0.000352718
3 *6944:X 0.000127062
4 *436:10 0.00058302
5 *6783:RESET_B *503:16 7.58664e-05
6 *7043:A *437:8 0.000142952
7 *436:10 *6810:RESET_B 5.52302e-05
8 *436:10 *503:16 7.04538e-05
9 *6809:CLK *6783:RESET_B 0
10 *6809:CLK *436:10 0
11 *6810:CLK *436:10 5.71472e-05
12 *404:95 *436:10 0
*RES
1 *6944:X *436:10 16.8893 
2 *436:10 *7043:A 20.1036 
3 *436:10 *6783:RESET_B 7.05357 
*END

*D_NET *437 0.00874228
*CONN
*I *6838:RESET_B I *D sky130_fd_sc_hd__dfrtp_2
*I *6808:RESET_B I *D sky130_fd_sc_hd__dfrtp_2
*I *6811:RESET_B I *D sky130_fd_sc_hd__dfrtp_2
*I *6786:RESET_B I *D sky130_fd_sc_hd__dfrtp_2
*I *6871:RESET_B I *D sky130_fd_sc_hd__dfrtp_2
*I *6839:RESET_B I *D sky130_fd_sc_hd__dfrtp_2
*I *6785:RESET_B I *D sky130_fd_sc_hd__dfrtp_2
*I *6809:RESET_B I *D sky130_fd_sc_hd__dfrtp_2
*I *6784:RESET_B I *D sky130_fd_sc_hd__dfrtp_2
*I *7043:X O *D sky130_fd_sc_hd__clkbuf_4
*CAP
1 *6838:RESET_B 0.000429589
2 *6808:RESET_B 0.000589103
3 *6811:RESET_B 8.27303e-05
4 *6786:RESET_B 0
5 *6871:RESET_B 0.000383064
6 *6839:RESET_B 0.000620103
7 *6785:RESET_B 2.57878e-05
8 *6809:RESET_B 0.000808304
9 *6784:RESET_B 0.000568974
10 *7043:X 0.000229305
11 *437:63 0.000673635
12 *437:61 0.000397908
13 *437:53 0.000654527
14 *437:39 0.000598293
15 *437:8 0.00071892
16 *6784:RESET_B *6784:D 0.000105574
17 *6784:RESET_B *7005:A 6.05161e-06
18 *6784:RESET_B *7014:A 0.000387439
19 *6784:RESET_B *503:16 0
20 *6808:RESET_B *6809:D 4.5003e-05
21 *6808:RESET_B *464:24 0.000525284
22 *6809:RESET_B *7014:A 0.000128154
23 *6809:RESET_B *503:16 4.85567e-05
24 *6811:RESET_B *505:24 9.65702e-05
25 *6838:RESET_B *6982:A 2.84026e-05
26 *6838:RESET_B *6994:A 4.83461e-05
27 *6839:RESET_B *6520:A 0
28 *6871:RESET_B *521:6 0.000138106
29 *437:39 *7005:A 0
30 *437:53 *505:24 5.43706e-05
31 *437:61 *6811:D 0.000100831
32 *437:61 *7013:A 0
33 *437:61 *538:10 0
34 *437:63 *6520:A 0
35 *6764:RESET_B *437:39 0
36 *6809:CLK *6808:RESET_B 0
37 *6811:CLK *6785:RESET_B 2.51837e-05
38 *6811:CLK *437:53 8.12171e-05
39 *7043:A *437:8 0.000142952
40 *404:95 *437:39 0
*RES
1 *7043:X *437:8 16.8 
2 *437:8 *6784:RESET_B 11.4018 
3 *437:8 *6809:RESET_B 8.74107 
4 *6784:RESET_B *437:39 13.9821 
5 *437:39 *6785:RESET_B 0.473214 
6 *437:39 *437:53 4.39286 
7 *437:53 *437:61 10.1429 
8 *437:61 *437:63 1.64286 
9 *437:63 *6839:RESET_B 7.96429 
10 *437:63 *6871:RESET_B 10.7232 
11 *437:61 *6786:RESET_B 4.5 
12 *437:53 *6811:RESET_B 1.70536 
13 *6809:RESET_B *6808:RESET_B 20.1875 
14 *6839:RESET_B *6838:RESET_B 16.1607 
*END

*D_NET *438 0.0118123
*CONN
*I *6836:RESET_B I *D sky130_fd_sc_hd__dfrtp_2
*I *6782:RESET_B I *D sky130_fd_sc_hd__dfrtp_2
*I *6807:RESET_B I *D sky130_fd_sc_hd__dfrtp_2
*I *6810:RESET_B I *D sky130_fd_sc_hd__dfrtp_2
*I *6944:A I *D sky130_fd_sc_hd__clkdlybuf4s25_1
*I *6868:RESET_B I *D sky130_fd_sc_hd__dfrtp_2
*I *6867:RESET_B I *D sky130_fd_sc_hd__dfrtp_2
*I *6869:RESET_B I *D sky130_fd_sc_hd__dfrtp_2
*I *6945:X O *D sky130_fd_sc_hd__clkdlybuf4s25_1
*CAP
1 *6836:RESET_B 0.00136518
2 *6782:RESET_B 8.81403e-05
3 *6807:RESET_B 0.000388569
4 *6810:RESET_B 0.000403991
5 *6944:A 2.23854e-05
6 *6868:RESET_B 0
7 *6867:RESET_B 0.00174206
8 *6869:RESET_B 0.000554583
9 *6945:X 0
10 *438:65 0.000689408
11 *438:45 0.000626749
12 *438:26 0.000593675
13 *438:20 0.00107786
14 *438:4 0.00100258
15 *6782:RESET_B *7006:A 2.1527e-05
16 *6807:RESET_B *6807:D 0.000186662
17 *6810:RESET_B *6810:D 0.000114872
18 *6810:RESET_B *504:12 3.07455e-05
19 *6836:RESET_B *6577:A 0
20 *6836:RESET_B *6749:A 0
21 *6836:RESET_B *6980:A 0
22 *6836:RESET_B *439:43 0
23 *6836:RESET_B *502:45 8.13155e-05
24 *6836:RESET_B *1078:24 3.71473e-05
25 *6867:RESET_B *6518:A 0
26 *6867:RESET_B *6749:A 0.000125724
27 *6867:RESET_B *504:12 0
28 *6867:RESET_B *517:10 2.81497e-05
29 *6867:RESET_B *537:12 0
30 *6869:RESET_B *501:65 2.44934e-05
31 *6869:RESET_B *519:10 0.000138106
32 *438:20 *501:65 1.18881e-05
33 *438:20 *502:12 9.30022e-05
34 *438:26 *6518:A 0
35 *438:26 *502:12 5.83304e-05
36 *438:26 *504:12 0
37 *438:45 *6518:A 0.000139907
38 *438:45 *504:12 2.32625e-05
39 *438:65 *7006:A 2.42082e-05
40 *6591:B2 *6836:RESET_B 0
41 *6594:B1 *6836:RESET_B 0
42 *6594:C1 *6836:RESET_B 0
43 *6594:D1 *6836:RESET_B 3.15608e-05
44 *6745:A2 *6867:RESET_B 0
45 *6745:A2 *438:26 0
46 *6748:A2 *6836:RESET_B 6.81247e-05
47 *6748:A2 *6867:RESET_B 0
48 *6765:CLK *6867:RESET_B 5.16852e-05
49 *6766:D *438:45 0.000142856
50 *6766:RESET_B *438:20 8.94203e-05
51 *6767:CLK *6869:RESET_B 0.000202621
52 *6767:CLK *438:20 2.27416e-05
53 *6767:CLK *438:65 0
54 *6767:D *438:20 0.000122055
55 *6782:CLK *6782:RESET_B 0
56 *6782:CLK *438:65 0
57 *6810:CLK *6810:RESET_B 0.000203375
58 *6810:CLK *438:20 3.70882e-05
59 *6810:CLK *438:26 2.19684e-05
60 *6810:CLK *438:45 0.000140481
61 *183:12 *6836:RESET_B 0
62 *302:253 *6836:RESET_B 4.69134e-05
63 *307:28 *438:65 0
64 *307:58 *438:65 0
65 *307:71 *6807:RESET_B 4.48754e-05
66 *309:16 *6867:RESET_B 4.85567e-05
67 *395:124 *6836:RESET_B 0.000396076
68 *400:14 *6836:RESET_B 0.000368104
69 *401:107 *6836:RESET_B 0
70 *402:118 *438:65 0
71 *402:126 *6836:RESET_B 2.40453e-05
72 *436:10 *6810:RESET_B 5.52302e-05
*RES
1 *6945:X *438:4 9.3 
2 *438:4 *6869:RESET_B 5.95536 
3 *438:4 *438:20 13.7679 
4 *438:20 *438:26 3.82143 
5 *438:26 *6867:RESET_B 11.7768 
6 *438:26 *6868:RESET_B 4.5 
7 *438:20 *438:45 9.14286 
8 *438:45 *6944:A 9.72857 
9 *438:45 *6810:RESET_B 7.45536 
10 *6869:RESET_B *438:65 8.26786 
11 *438:65 *6807:RESET_B 10.0446 
12 *438:65 *6782:RESET_B 6.14286 
13 *6867:RESET_B *6836:RESET_B 31.9372 
*END

*D_NET *439 0.0226287
*CONN
*I *6945:A I *D sky130_fd_sc_hd__clkdlybuf4s25_1
*I *6822:RESET_B I *D sky130_fd_sc_hd__dfrtp_2
*I *6823:RESET_B I *D sky130_fd_sc_hd__dfrtp_2
*I *6943:A I *D sky130_fd_sc_hd__clkdlybuf4s25_1
*I *6942:A I *D sky130_fd_sc_hd__clkdlybuf4s25_1
*I *6946:X O *D sky130_fd_sc_hd__clkdlybuf4s25_1
*CAP
1 *6945:A 0
2 *6822:RESET_B 0.000715679
3 *6823:RESET_B 0.000284747
4 *6943:A 0
5 *6942:A 0.000377387
6 *6946:X 0
7 *439:60 0.00334088
8 *439:43 0.00391021
9 *439:25 0.00360489
10 *439:4 0.00241252
11 *6823:RESET_B *1100:10 0.000148903
12 *6942:A *6780:D 2.72859e-05
13 *439:25 *6946:A 0
14 *439:43 *6573:B 3.41021e-05
15 *439:43 *502:45 0.000627025
16 *439:43 *505:26 7.59859e-05
17 *439:43 *505:45 1.00375e-05
18 *439:43 *505:81 0.000421896
19 *439:43 *1078:24 0
20 *439:60 *6602:A 0
21 *439:60 *6602:B 0
22 *439:60 *6667:A 5.41794e-05
23 *439:60 *1095:10 0.00020112
24 *439:60 *1095:12 0.000268514
25 *439:60 *1100:22 0
26 *6591:B1 *439:43 9.87648e-05
27 *6594:A2 *439:43 8.18673e-05
28 *6594:C1 *439:43 2.30116e-06
29 *6596:C1 *439:43 0
30 *6604:D *439:60 0
31 *6649:B1 *439:60 0
32 *6658:B2 *439:60 3.79467e-05
33 *6661:A *439:60 0
34 *6671:B *439:60 0
35 *6673:A2_N *6822:RESET_B 9.60939e-05
36 *6675:A2 *6823:RESET_B 0.000146545
37 *6676:B2 *6823:RESET_B 0
38 *6676:B2 *439:60 0
39 *6704:C_N *439:43 0
40 *6707:A2 *439:43 0.000174797
41 *6767:CLK *439:25 0
42 *6815:D *439:60 0
43 *6818:RESET_B *439:60 0
44 *6836:RESET_B *439:43 0
45 *6863:RESET_B *6942:A 0.000529346
46 *6919:A *439:43 8.07313e-05
47 *6919:A *439:60 0.000386389
48 *7042:A *439:60 0.000195455
49 *183:12 *439:43 0.000270236
50 *187:37 *439:25 0.00282707
51 *187:37 *439:43 6.47608e-05
52 *227:10 *439:60 0
53 *227:12 *439:60 0
54 *227:14 *439:60 0
55 *241:12 *439:60 3.92854e-05
56 *259:16 *439:43 0.000220441
57 *302:253 *439:43 0
58 *304:41 *6822:RESET_B 0
59 *304:41 *6823:RESET_B 0.000177046
60 *307:28 *439:25 0
61 *307:28 *439:43 0
62 *433:6 *6942:A 2.36643e-05
63 *433:17 *6942:A 0.000660562
*RES
1 *6946:X *439:4 9.3 
2 *439:4 *6942:A 19.6036 
3 *439:4 *439:25 46.4107 
4 *439:25 *439:43 39.2321 
5 *439:43 *6943:A 9.3 
6 *439:43 *439:60 48.5714 
7 *439:60 *6823:RESET_B 15.9911 
8 *439:60 *6822:RESET_B 17.4464 
9 *439:25 *6945:A 13.8 
*END

*D_NET *440 0.0420897
*CONN
*I *6946:A I *D sky130_fd_sc_hd__clkdlybuf4s25_1
*I *6938:A I *D sky130_fd_sc_hd__clkdlybuf4s25_1
*I *6936:A I *D sky130_fd_sc_hd__clkdlybuf4s25_1
*I *6935:A I *D sky130_fd_sc_hd__clkdlybuf4s25_1
*I *6934:A I *D sky130_fd_sc_hd__clkdlybuf4s25_1
*I *6933:A I *D sky130_fd_sc_hd__clkdlybuf4s25_1
*I *6947:X O *D sky130_fd_sc_hd__clkdlybuf4s25_1
*CAP
1 *6946:A 0.000156198
2 *6938:A 0
3 *6936:A 1.80162e-05
4 *6935:A 0.00055325
5 *6934:A 0.00022868
6 *6933:A 0.000377408
7 *6947:X 0
8 *440:93 0.00231026
9 *440:91 0.00305522
10 *440:80 0.00102466
11 *440:76 0.00199798
12 *440:55 0.0024416
13 *440:51 0.00187643
14 *440:36 0.00376374
15 *440:19 0.00337125
16 *440:4 0.00163681
17 *6933:A *6947:A 0.00020239
18 *6934:A *6883:D 5.52238e-05
19 *440:19 *6887:D 2.09915e-05
20 *440:19 *7003:A 3.32631e-05
21 *440:19 *7017:A 0.000197829
22 *440:36 *6883:D 0
23 *440:55 *6563:A_N 5.90443e-06
24 *440:55 *6718:B2 9.22222e-06
25 *440:55 *7024:A 1.21384e-05
26 *440:76 *6718:B2 0.000109792
27 *440:76 *475:110 0.000797099
28 *440:76 *507:38 0.000157377
29 *440:76 *509:14 0.000168638
30 *440:93 *511:53 0.000758901
31 uio_out[0] *6934:A 5.7836e-06
32 uio_out[1] *440:36 2.06112e-05
33 uo_out[2] *440:36 0.000161646
34 uo_out[5] *6935:A 0
35 uo_out[6] *6935:A 0
36 uo_out[6] *440:36 0.000593943
37 uo_out[6] *440:51 0.000872469
38 *6561:B *440:91 0
39 *6636:S *440:55 0.000363252
40 *6639:A0 *6935:A 0
41 *6639:A1 *6935:A 0
42 *6642:B1 *440:80 4.6025e-06
43 *6642:B1 *440:91 5.78972e-05
44 *6721:A1 *440:76 3.82411e-05
45 *6721:A2 *440:76 0.000289375
46 *6723:A2 *6935:A 0
47 *6727:A1 *440:55 8.42334e-05
48 *6727:B1 *440:55 0.000341033
49 *6727:B1 *440:76 0.000625535
50 *6730:A1 *6935:A 0.000290271
51 *6779:RESET_B *440:91 0
52 *6844:D *440:76 0.000615331
53 *6846:CLK *6935:A 3.67452e-05
54 *6850:RESET_B *440:55 0.000241672
55 *6853:D *6935:A 9.44259e-05
56 *6864:D *440:91 5.64715e-05
57 *6876:RESET_B *440:36 0
58 *6877:D *440:36 0.00197559
59 *6878:CLK *440:19 1.57937e-05
60 *6879:RESET_B *6933:A 5.71472e-05
61 *7027:A *440:55 0.000302504
62 *3:16 *440:51 0.000206317
63 *155:12 *440:55 0
64 *155:14 *440:93 4.70078e-05
65 *186:70 *440:80 0
66 *187:29 *440:93 0.00542613
67 *273:12 *440:80 3.66633e-05
68 *302:19 *440:51 0.000646005
69 *302:23 *440:36 9.21719e-05
70 *302:23 *440:51 0.000502796
71 *323:10 *6935:A 0
72 *335:16 *6934:A 0
73 *337:24 *6936:A 1.92789e-05
74 *337:24 *440:76 0.000819735
75 *348:18 *440:91 0
76 *348:47 *440:76 0.000198619
77 *348:51 *440:76 1.16111e-05
78 *417:79 *440:19 0.000223808
79 *417:81 *6934:A 0
80 *423:10 *6936:A 2.89016e-05
81 *423:10 *440:55 0.000119347
82 *423:10 *440:76 2.14757e-05
83 *423:17 *440:55 0.000319228
84 *426:10 *440:91 0
85 *426:17 *440:91 0
86 *426:110 *440:93 0.000885751
87 *432:18 *6935:A 0
88 *439:25 *6946:A 0
*RES
1 *6947:X *440:4 9.3 
2 *440:4 *6933:A 16.4429 
3 *440:4 *440:19 20.2321 
4 *440:19 *6934:A 17.8 
5 *440:19 *440:36 47.5 
6 *440:36 *6935:A 28.4429 
7 *440:36 *440:51 40.7679 
8 *440:51 *440:55 19.5 
9 *440:55 *6936:A 9.83571 
10 *440:55 *440:76 49.6429 
11 *440:76 *440:80 6.44643 
12 *440:80 *6938:A 13.8 
13 *440:80 *440:91 18.5893 
14 *440:91 *440:93 64.6071 
15 *440:93 *6946:A 20.55 
*END

*D_NET *441 0.0129683
*CONN
*I *6878:D I *D sky130_fd_sc_hd__dfrtp_2
*I *7032:X O *D sky130_fd_sc_hd__clkdlybuf4s25_1
*CAP
1 *6878:D 0.00051226
2 *7032:X 0.00214079
3 *441:14 0.00265305
4 *6878:D *6698:A1 0
5 *6878:D *7017:A 0.000367396
6 *6878:D *480:12 0
7 *441:14 *475:110 5.34795e-05
8 *441:14 *477:22 0
9 *441:14 *478:45 0
10 *6618:A0 *441:14 0.000235495
11 *6841:RESET_B *441:14 0
12 *152:8 *6878:D 0.00116043
13 *300:18 *441:14 0.00193642
14 *335:16 *441:14 0.00361473
15 *337:46 *441:14 0
16 *359:47 *441:14 0.000294278
*RES
1 *7032:X *441:14 40.8609 
2 *441:14 *6878:D 28.6482 
*END

*D_NET *442 0.0157443
*CONN
*I *6879:D I *D sky130_fd_sc_hd__dfrtp_2
*I *7033:X O *D sky130_fd_sc_hd__clkdlybuf4s25_1
*CAP
1 *6879:D 0
2 *7033:X 0.00501462
3 *442:24 0.00501462
4 *442:24 *6886:D 0.000103253
5 *442:24 *7021:A 0.000168266
6 *442:24 *503:55 0.00178041
7 uio_oe[0] *442:24 0.000108696
8 uio_out[0] *442:24 0
9 uio_out[4] *442:24 0
10 uio_out[5] *442:24 4.7224e-05
11 uio_out[6] *442:24 0
12 uio_out[7] *442:24 0.000147839
13 uo_out[0] *442:24 0
14 *6559:C *442:24 0
15 *6640:A1 *442:24 5.7903e-06
16 *6849:RESET_B *442:24 5.7903e-06
17 *6879:CLK *442:24 7.69993e-05
18 *6879:RESET_B *442:24 0
19 *6886:CLK *442:24 0
20 *6892:RESET_B *442:24 0.000131405
21 *40:16 *442:24 0.00274765
22 *42:28 *442:24 0.00012564
23 *300:18 *442:24 9.59527e-05
24 *313:63 *442:24 0.000170098
*RES
1 *7033:X *442:24 47.2324 
2 *442:24 *6879:D 9.3 
*END

*D_NET *443 0.000260714
*CONN
*I *6890:D I *D sky130_fd_sc_hd__dfrtp_2
*I *6891:HI O *D sky130_fd_sc_hd__conb_1
*CAP
1 *6890:D 0.000130357
2 *6891:HI 0.000130357
*RES
1 *6891:HI *6890:D 29.475 
*END

*D_NET *444 0.00154126
*CONN
*I *6806:D I *D sky130_fd_sc_hd__dfrtp_2
*I *7000:X O *D sky130_fd_sc_hd__dlygate4sd3_1
*CAP
1 *6806:D 0.000350169
2 *7000:X 0.000350169
3 *6806:D *6570:B 7.23941e-05
4 *6806:D *511:22 0.000313007
5 *6806:D *512:73 0.000134192
6 *6778:RESET_B *6806:D 9.77274e-05
7 *6806:RESET_B *6806:D 0.000223604
*RES
1 *7000:X *6806:D 29.4036 
*END

*D_NET *445 0.00313444
*CONN
*I *6888:D I *D sky130_fd_sc_hd__dfrtp_2
*I *7001:X O *D sky130_fd_sc_hd__dlygate4sd3_1
*CAP
1 *6888:D 0.000690063
2 *7001:X 0.000690063
3 *6888:D *7015:A 0.000657368
4 *6877:RESET_B *6888:D 0.000190917
5 *6888:RESET_B *6888:D 5.52302e-05
6 *7037:A *6888:D 0.000402514
7 *314:27 *6888:D 0.00019284
8 *314:44 *6888:D 7.17235e-05
9 *419:19 *6888:D 0.00018372
*RES
1 *7001:X *6888:D 43.0643 
*END

*D_NET *446 0.00100765
*CONN
*I *6798:D I *D sky130_fd_sc_hd__dfrtp_2
*I *7002:X O *D sky130_fd_sc_hd__dlygate4sd3_1
*CAP
1 *6798:D 0.000309991
2 *7002:X 0.000309991
3 *6798:D *6701:A_N 6.05161e-06
4 *6798:D *7002:A 0.000103253
5 *6610:B1 *6798:D 5.56943e-05
6 *430:117 *6798:D 0.000222666
*RES
1 *7002:X *6798:D 32.35 
*END

*D_NET *447 0.000591761
*CONN
*I *6887:D I *D sky130_fd_sc_hd__dfrtp_2
*I *7003:X O *D sky130_fd_sc_hd__dlygate4sd3_1
*CAP
1 *6887:D 0.000254052
2 *7003:X 0.000254052
3 *151:8 *6887:D 6.26653e-05
4 *152:8 *6887:D 0
5 *440:19 *6887:D 2.09915e-05
*RES
1 *7003:X *6887:D 31.6179 
*END

*D_NET *448 0.000755563
*CONN
*I *6892:D I *D sky130_fd_sc_hd__dfrtp_2
*I *7004:X O *D sky130_fd_sc_hd__dlygate4sd3_1
*CAP
1 *6892:D 0.000326155
2 *7004:X 0.000326155
3 *6892:D *7004:A 0.000103253
*RES
1 *7004:X *6892:D 31.9393 
*END

*D_NET *449 0.00102688
*CONN
*I *6810:D I *D sky130_fd_sc_hd__dfrtp_2
*I *7005:X O *D sky130_fd_sc_hd__dlygate4sd3_1
*CAP
1 *6810:D 0.000305703
2 *7005:X 0.000305703
3 *6810:D *504:12 0.000300606
4 *6810:RESET_B *6810:D 0.000114872
*RES
1 *7005:X *6810:D 34.7071 
*END

*D_NET *450 0.000325406
*CONN
*I *6807:D I *D sky130_fd_sc_hd__dfrtp_2
*I *7006:X O *D sky130_fd_sc_hd__dlygate4sd3_1
*CAP
1 *6807:D 5.07254e-05
2 *7006:X 5.07254e-05
3 *6807:RESET_B *6807:D 0.000186662
4 *307:71 *6807:D 3.72932e-05
*RES
1 *7006:X *6807:D 20.3679 
*END

*D_NET *451 0.0190618
*CONN
*I *6880:D I *D sky130_fd_sc_hd__dfrtp_2
*I *7034:X O *D sky130_fd_sc_hd__clkdlybuf4s25_1
*CAP
1 *6880:D 0.000489564
2 *7034:X 0.00196761
3 *451:20 0.00245717
4 *6880:D *6541:A 0.000125241
5 *6880:D *480:35 0
6 *451:20 *514:34 0.000260413
7 *6559:C *451:20 0.000660496
8 *6618:A0 *451:20 0.0075684
9 *6832:RESET_B *6880:D 0.000127945
10 *6854:D *451:20 0.000273025
11 *6886:RESET_B *6880:D 0
12 *7031:A *451:20 2.59355e-05
13 *41:14 *451:20 0.00427071
14 *153:10 *6880:D 4.15914e-05
15 *153:12 *451:20 0.000676005
16 *300:18 *6880:D 0
17 *316:59 *451:20 0.000117693
*RES
1 *7034:X *451:20 40.5657 
2 *451:20 *6880:D 23.4875 
*END

*D_NET *452 0.0011682
*CONN
*I *6799:D I *D sky130_fd_sc_hd__dfrtp_2
*I *7007:X O *D sky130_fd_sc_hd__dlygate4sd3_1
*CAP
1 *6799:D 0.000398019
2 *7007:X 0.000398019
3 *6610:A1 *6799:D 0.000265859
4 *6610:B1 *6799:D 0.000106306
5 *155:68 *6799:D 0
*RES
1 *7007:X *6799:D 33.2964 
*END

*D_NET *453 0.0018487
*CONN
*I *6797:D I *D sky130_fd_sc_hd__dfrtp_2
*I *7008:X O *D sky130_fd_sc_hd__dlygate4sd3_1
*CAP
1 *6797:D 0.000493352
2 *7008:X 0.000493352
3 *6797:D *6734:A1 0.000230482
4 *6797:D *6760:A 9.60939e-05
5 *6797:D *541:32 0.000260325
6 *6772:RESET_B *6797:D 2.19778e-05
7 *6797:CLK *6797:D 2.89016e-05
8 *403:47 *6797:D 0.000176234
9 *425:66 *6797:D 4.79842e-05
*RES
1 *7008:X *6797:D 38.725 
*END

*D_NET *454 0.00225517
*CONN
*I *6804:D I *D sky130_fd_sc_hd__dfrtp_2
*I *7009:X O *D sky130_fd_sc_hd__dlygate4sd3_1
*CAP
1 *6804:D 0.000763439
2 *7009:X 0.000763439
3 *6804:D *512:73 0.000724293
4 *6804:CLK *6804:D 3.99614e-06
*RES
1 *7009:X *6804:D 29.4214 
*END

*D_NET *455 0.00172924
*CONN
*I *6796:D I *D sky130_fd_sc_hd__dfrtp_2
*I *7010:X O *D sky130_fd_sc_hd__dlygate4sd3_1
*CAP
1 *6796:D 0.000581546
2 *7010:X 0.000581546
3 *6796:D *7010:A 0.000125717
4 *6796:D *7243:A 9.41642e-05
5 *6796:D *7245:A 1.3142e-05
6 *6796:D *7246:A 6.4443e-05
7 *6796:D *499:12 0.000268682
8 *6796:D *531:18 0
9 *6795:RESET_B *6796:D 0
10 *317:42 *6796:D 0
*RES
1 *7010:X *6796:D 39.8143 
*END

*D_NET *456 0.00213264
*CONN
*I *6802:D I *D sky130_fd_sc_hd__dfrtp_2
*I *7011:X O *D sky130_fd_sc_hd__dlygate4sd3_1
*CAP
1 *6802:D 0.000658937
2 *7011:X 0.000658937
3 *311:50 *6802:D 8.86129e-06
4 *311:63 *6802:D 0.000805908
*RES
1 *7011:X *6802:D 29.6045 
*END

*D_NET *457 0.000722006
*CONN
*I *6803:D I *D sky130_fd_sc_hd__dfrtp_2
*I *7012:X O *D sky130_fd_sc_hd__dlygate4sd3_1
*CAP
1 *6803:D 0.000221284
2 *7012:X 0.000221284
3 *6776:RESET_B *6803:D 4.1331e-06
4 *402:99 *6803:D 0.000275304
*RES
1 *7012:X *6803:D 31.6179 
*END

*D_NET *458 0.00148525
*CONN
*I *6811:D I *D sky130_fd_sc_hd__dfrtp_2
*I *7013:X O *D sky130_fd_sc_hd__dlygate4sd3_1
*CAP
1 *6811:D 0.00069221
2 *7013:X 0.00069221
3 *437:61 *6811:D 0.000100831
*RES
1 *7013:X *6811:D 36.0464 
*END

*D_NET *459 0.0024914
*CONN
*I *6809:D I *D sky130_fd_sc_hd__dfrtp_2
*I *7014:X O *D sky130_fd_sc_hd__dlygate4sd3_1
*CAP
1 *6809:D 0.000900845
2 *7014:X 0.000900845
3 *6809:D *7014:A 1.59373e-05
4 *6809:D *464:24 0.000628772
5 *6808:RESET_B *6809:D 4.5003e-05
6 *6809:CLK *6809:D 0
*RES
1 *7014:X *6809:D 40.2786 
*END

*D_NET *460 0.00218755
*CONN
*I *6884:D I *D sky130_fd_sc_hd__dfrtp_2
*I *7015:X O *D sky130_fd_sc_hd__dlygate4sd3_1
*CAP
1 *6884:D 0.000719141
2 *7015:X 0.000719141
3 *6884:D *7015:A 0.000361216
4 *6949:A *6884:D 3.81416e-06
5 *314:12 *6884:D 0.00031339
6 *314:19 *6884:D 7.08522e-05
*RES
1 *7015:X *6884:D 37.8366 
*END

*D_NET *461 0.00062824
*CONN
*I *6805:D I *D sky130_fd_sc_hd__dfrtp_2
*I *7016:X O *D sky130_fd_sc_hd__dlygate4sd3_1
*CAP
1 *6805:D 0.000256317
2 *7016:X 0.000256317
3 *6805:D *514:10 0.000102545
4 *6805:D *533:12 0
5 *433:21 *6805:D 1.30604e-05
*RES
1 *7016:X *6805:D 32.1357 
*END

*D_NET *462 0.00172082
*CONN
*I *6881:D I *D sky130_fd_sc_hd__dfrtp_2
*I *7035:X O *D sky130_fd_sc_hd__clkdlybuf4s25_1
*CAP
1 *6881:D 0.000318552
2 *7035:X 0.000318552
3 *6881:D *7001:A 0.000265384
4 *7035:A *6881:D 0.000122055
5 *316:10 *6881:D 0.000696273
*RES
1 *7035:X *6881:D 30.6357 
*END

*D_NET *463 0.000805594
*CONN
*I *6885:D I *D sky130_fd_sc_hd__dfrtp_2
*I *7017:X O *D sky130_fd_sc_hd__dlygate4sd3_1
*CAP
1 *6885:D 0.000227739
2 *7017:X 0.000227739
3 *6885:D *6698:A1 0.000186669
4 *6885:D *7017:A 7.43578e-06
5 *313:24 *6885:D 4.59352e-05
6 *313:30 *6885:D 0.000110076
*RES
1 *7017:X *6885:D 24.2071 
*END

*D_NET *464 0.00405995
*CONN
*I *6808:D I *D sky130_fd_sc_hd__dfrtp_2
*I *7018:X O *D sky130_fd_sc_hd__dlygate4sd3_1
*CAP
1 *6808:D 0
2 *7018:X 0.0013159
3 *464:24 0.0013159
4 *464:24 *7014:A 9.94037e-05
5 *464:24 *7018:A 5.62995e-05
6 *464:24 *503:16 9.91086e-05
7 *6808:CLK *464:24 1.92789e-05
8 *6808:RESET_B *464:24 0.000525284
9 *6809:D *464:24 0.000628772
*RES
1 *7018:X *464:24 40.7286 
2 *464:24 *6808:D 9.3 
*END

*D_NET *465 0.00148167
*CONN
*I *6883:D I *D sky130_fd_sc_hd__dfrtp_2
*I *7019:X O *D sky130_fd_sc_hd__dlygate4sd3_1
*CAP
1 *6883:D 0.000672252
2 *7019:X 0.000672252
3 uio_out[0] *6883:D 0
4 *6878:RESET_B *6883:D 0
5 *6883:CLK *6883:D 5.33334e-05
6 *6883:RESET_B *6883:D 2.86072e-05
7 *6934:A *6883:D 5.52238e-05
8 *440:36 *6883:D 0
*RES
1 *7019:X *6883:D 39.1893 
*END

*D_NET *466 0.00136857
*CONN
*I *6882:D I *D sky130_fd_sc_hd__dfrtp_2
*I *7020:X O *D sky130_fd_sc_hd__dlygate4sd3_1
*CAP
1 *6882:D 0.000362239
2 *7020:X 0.000362239
3 *6635:A0 *6882:D 5.10822e-05
4 *6882:CLK *6882:D 7.8195e-05
5 *7029:A *6882:D 0
6 *40:16 *6882:D 0.000185643
7 *300:12 *6882:D 0.00012401
8 *311:10 *6882:D 0.000205164
*RES
1 *7020:X *6882:D 34.8321 
*END

*D_NET *467 0.000717901
*CONN
*I *6886:D I *D sky130_fd_sc_hd__dfrtp_2
*I *7021:X O *D sky130_fd_sc_hd__dlygate4sd3_1
*CAP
1 *6886:D 0.000221815
2 *7021:X 0.000221815
3 *6890:RESET_B *6886:D 0.000137983
4 *313:63 *6886:D 3.30352e-05
5 *442:24 *6886:D 0.000103253
*RES
1 *7021:X *6886:D 31.1179 
*END

*D_NET *468 0.000906539
*CONN
*I *6800:D I *D sky130_fd_sc_hd__dfrtp_2
*I *7022:X O *D sky130_fd_sc_hd__dlygate4sd3_1
*CAP
1 *6800:D 0.000193346
2 *7022:X 0.000193346
3 *6800:D *7022:A 5.52238e-05
4 *6800:D *1084:22 0.000103564
5 *6734:B1 *6800:D 0.000151136
6 *6775:RESET_B *6800:D 5.33005e-05
7 *6857:RESET_B *6800:D 3.17148e-05
8 *6918:A *6800:D 7.20217e-06
9 *430:64 *6800:D 0.000117706
*RES
1 *7022:X *6800:D 32.9571 
*END

*D_NET *469 0.00160035
*CONN
*I *6801:D I *D sky130_fd_sc_hd__dfrtp_2
*I *7023:X O *D sky130_fd_sc_hd__dlygate4sd3_1
*CAP
1 *6801:D 0.000482863
2 *7023:X 0.000482863
3 *6801:D *7023:A 4.88546e-05
4 *6801:D *506:27 0
5 *6740:B1 *6801:D 0.000396892
6 *395:20 *6801:D 8.63305e-05
7 *403:61 *6801:D 0.000102545
*RES
1 *7023:X *6801:D 34.8143 
*END

*D_NET *470 0.00119453
*CONN
*I *6889:D I *D sky130_fd_sc_hd__dfrtp_2
*I *7024:X O *D sky130_fd_sc_hd__dlygate4sd3_1
*CAP
1 *6889:D 0.000442117
2 *7024:X 0.000442117
3 *6889:D *7024:A 7.29646e-05
4 *310:21 *6889:D 0.000164365
5 *423:10 *6889:D 7.29646e-05
*RES
1 *7024:X *6889:D 33.7071 
*END

*D_NET *471 0.000837958
*CONN
*I *6698:A1 I *D sky130_fd_sc_hd__mux2_1
*I *7025:X O *D sky130_fd_sc_hd__dlygate4sd3_1
*CAP
1 *6698:A1 0.000325645
2 *7025:X 0.000325645
3 *6698:A1 *480:12 0
4 *6878:D *6698:A1 0
5 *6885:D *6698:A1 0.000186669
6 *335:16 *6698:A1 0
*RES
1 *7025:X *6698:A1 32.8321 
*END

*D_NET *472 0.000527484
*CONN
*I *6696:A1 I *D sky130_fd_sc_hd__mux2_1
*I *7026:X O *D sky130_fd_sc_hd__dlygate4sd3_1
*CAP
1 *6696:A1 3.62589e-05
2 *7026:X 3.62589e-05
3 *6696:A1 *6696:A0 5.68713e-05
4 *6696:A1 *7026:A 0.000122159
5 *6696:A1 *475:146 0.000275936
*RES
1 *7026:X *6696:A1 21.1893 
*END

*D_NET *473 0.000644575
*CONN
*I *6947:A I *D sky130_fd_sc_hd__clkdlybuf4s25_1
*I *6892:Q O *D sky130_fd_sc_hd__dfrtp_2
*CAP
1 *6947:A 0.000206642
2 *6892:Q 0.000206642
3 *6892:RESET_B *6947:A 2.89016e-05
4 *6933:A *6947:A 0.00020239
*RES
1 *6892:Q *6947:A 23.2607 
*END

*D_NET *474 0.00053229
*CONN
*I *7004:A I *D sky130_fd_sc_hd__dlygate4sd3_1
*I *6890:Q O *D sky130_fd_sc_hd__dfrtp_2
*CAP
1 *7004:A 0.000214519
2 *6890:Q 0.000214519
3 uio_oe[2] *7004:A 0
4 *6892:D *7004:A 0.000103253
*RES
1 *6890:Q *7004:A 31.6714 
*END

*D_NET *475 0.0504962
*CONN
*I *6646:A3 I *D sky130_fd_sc_hd__o31ai_2
*I *6715:B1 I *D sky130_fd_sc_hd__a21oi_2
*I *6643:A I *D sky130_fd_sc_hd__nor2_2
*I *6695:S I *D sky130_fd_sc_hd__mux2_1
*I *6699:S I *D sky130_fd_sc_hd__mux2_1
*I *6696:S I *D sky130_fd_sc_hd__mux2_1
*I *6698:S I *D sky130_fd_sc_hd__mux2_1
*I *6697:S I *D sky130_fd_sc_hd__mux2_1
*I *6700:B I *D sky130_fd_sc_hd__nor2_2
*I *6873:D I *D sky130_fd_sc_hd__dfrtp_2
*I *6564:Y O *D sky130_fd_sc_hd__inv_2
*CAP
1 *6646:A3 0.000177269
2 *6715:B1 3.99336e-05
3 *6643:A 0
4 *6695:S 0
5 *6699:S 0
6 *6696:S 1.41579e-05
7 *6698:S 0
8 *6697:S 0.000488208
9 *6700:B 9.77212e-05
10 *6873:D 0.000637811
11 *6564:Y 0
12 *475:146 0.000985133
13 *475:142 0.00123362
14 *475:126 0.000843634
15 *475:124 0.00103932
16 *475:110 0.00362602
17 *475:78 0.00403976
18 *475:62 0.00409005
19 *475:54 0.00464481
20 *475:23 0.00255987
21 *475:8 0.00129726
22 *475:4 0.000301219
23 *6646:A3 *498:14 9.90367e-05
24 *6696:S *6696:A0 3.57366e-05
25 *6697:S *479:35 0.000111385
26 *6697:S *480:12 4.88637e-05
27 *6697:S *480:20 0.00054534
28 *6700:B *1084:12 0.00010478
29 *6700:B *1084:22 1.789e-05
30 *6873:D *514:24 2.09177e-05
31 *475:8 *498:14 0.000185643
32 *475:23 *6774:D 9.82947e-05
33 *475:23 *514:24 0.000491963
34 *475:54 *6582:B 0.000526039
35 *475:54 *514:24 0.000129463
36 *475:54 *543:16 0.000118891
37 *475:62 *508:78 0.000625787
38 *475:78 *6642:A1 1.56e-05
39 *475:78 *1084:32 1.51455e-05
40 *475:110 *6618:S1 0.000354105
41 *475:110 *6718:B2 2.54051e-05
42 *475:110 *504:76 0.00214558
43 *475:110 *510:55 0.00304382
44 *475:124 *6695:A0 0.000136019
45 *475:124 *478:39 0.000868565
46 *475:126 *6695:A0 3.48705e-05
47 *475:126 *478:39 0.000356696
48 *475:142 *6696:A0 0.000166807
49 *475:142 *478:39 0.000676155
50 *475:146 *6696:A0 2.36643e-05
51 *475:146 *7026:A 0.000104611
52 *475:146 *480:12 5.23057e-05
53 *6559:C *475:126 0.000135203
54 *6599:B *475:54 0.000123352
55 *6610:B1 *6646:A3 6.66939e-05
56 *6612:B *6646:A3 0
57 *6618:A2 *475:110 0.000722749
58 *6642:A2 *475:78 0.000674787
59 *6643:B *475:78 0.000708541
60 *6695:A1 *475:126 0.000316875
61 *6695:A1 *475:142 2.84109e-05
62 *6696:A1 *475:146 0.000275936
63 *6717:A1 *475:124 0.000400206
64 *6717:A2 *475:124 3.23834e-05
65 *6773:RESET_B *6646:A3 5.41794e-05
66 *6774:RESET_B *475:23 8.91743e-05
67 *6775:CLK *475:54 0.000242771
68 *6798:CLK *6873:D 9.11048e-06
69 *6798:CLK *475:23 0.000351503
70 *6840:D *475:124 0.00036192
71 *6841:CLK *475:110 0.000185918
72 *6841:D *475:110 9.23883e-05
73 *6845:D *475:124 5.45686e-05
74 *6845:RESET_B *475:124 0.000131765
75 *6849:RESET_B *475:110 0.000209144
76 *6854:CLK *475:110 2.95711e-05
77 *6854:RESET_B *475:110 0.00064613
78 *6854:RESET_B *475:124 0.00015846
79 *6873:RESET_B *6873:D 6.70791e-05
80 *6918:A *475:54 5.01883e-05
81 *6923:A *475:8 0.000137983
82 *6961:A *475:124 0.000144773
83 *7038:A *475:124 0.000222666
84 *7588:A *6697:S 4.91348e-05
85 *151:8 *6697:S 0.000192745
86 *155:81 *475:8 5.52302e-05
87 *155:88 *6646:A3 8.57023e-05
88 *155:88 *475:8 5.71472e-05
89 *186:42 *475:54 6.05161e-06
90 *186:54 *475:62 0.00182082
91 *186:56 *475:62 0.00109802
92 *186:70 *475:62 0.000194553
93 *186:70 *475:78 4.08637e-05
94 *302:6 *475:78 7.84235e-05
95 *302:17 *475:78 4.97288e-05
96 *302:299 *6873:D 1.56604e-06
97 *315:25 *6697:S 0.00018077
98 *317:10 *6873:D 0.000285273
99 *318:12 *6873:D 0.000110133
100 *337:46 *475:110 0.000755616
101 *337:105 *475:124 5.45686e-05
102 *348:47 *475:110 6.1041e-05
103 *413:8 *6697:S 5.52302e-05
104 *428:27 *6873:D 5.54655e-05
105 *428:41 *6873:D 0.000184969
106 *428:41 *475:8 6.42778e-05
107 *430:52 *475:54 8.86256e-05
108 *440:76 *475:110 0.000797099
109 *441:14 *475:110 5.34795e-05
*RES
1 *6564:Y *475:4 9.3 
2 *475:4 *475:8 7.91071 
3 *475:8 *6873:D 24.2821 
4 *475:8 *475:23 14.0893 
5 *475:23 *6700:B 15.9964 
6 *475:23 *475:54 43.5179 
7 *475:54 *475:62 49.1786 
8 *475:62 *475:78 22.8393 
9 *475:78 *475:110 49.3909 
10 *475:110 *475:124 32.3929 
11 *475:124 *475:126 6.28571 
12 *475:126 *475:142 19.6964 
13 *475:142 *475:146 9.58929 
14 *475:146 *6697:S 30.6929 
15 *475:146 *6698:S 9.3 
16 *475:142 *6696:S 9.72857 
17 *475:126 *6699:S 9.3 
18 *475:124 *6695:S 9.3 
19 *475:78 *6643:A 9.3 
20 *475:62 *6715:B1 10.0321 
21 *475:4 *6646:A3 22.4071 
*END

*D_NET *476 0.000868509
*CONN
*I *6563:A_N I *D sky130_fd_sc_hd__nand2b_2
*I *6889:Q O *D sky130_fd_sc_hd__dfrtp_2
*CAP
1 *6563:A_N 0.000236867
2 *6889:Q 0.000236867
3 *6563:A_N *6563:B 5.33005e-05
4 *6727:A1 *6563:A_N 0.000142725
5 *6727:B1 *6563:A_N 7.59996e-05
6 *6844:RESET_B *6563:A_N 6.35448e-05
7 *6852:CLK *6563:A_N 0
8 *303:10 *6563:A_N 5.33005e-05
9 *440:55 *6563:A_N 5.90443e-06
*RES
1 *6889:Q *6563:A_N 32.5107 
*END

*D_NET *477 0.0338599
*CONN
*I *6525:B I *D sky130_fd_sc_hd__and2b_2
*I *6522:A I *D sky130_fd_sc_hd__nor2_2
*I *6695:A0 I *D sky130_fd_sc_hd__mux2_1
*I *6618:S0 I *D sky130_fd_sc_hd__mux4_2
*I *6529:A I *D sky130_fd_sc_hd__and2_2
*I *6527:A_N I *D sky130_fd_sc_hd__and2b_2
*I *6619:S0 I *D sky130_fd_sc_hd__mux4_2
*I *6830:Q O *D sky130_fd_sc_hd__dfrtp_2
*CAP
1 *6525:B 0
2 *6522:A 0.000168819
3 *6695:A0 0.000417048
4 *6618:S0 0.000185636
5 *6529:A 0
6 *6527:A_N 0
7 *6619:S0 0.00106948
8 *6830:Q 0.000139945
9 *477:71 0.000472528
10 *477:28 0.000971597
11 *477:26 0.000205822
12 *477:24 0.00497922
13 *477:22 0.00628405
14 *477:18 0.00293236
15 *477:10 0.00199889
16 *6522:A *6522:B 0.000920822
17 *6522:A *478:79 0.000143375
18 *477:18 *6717:B2 5.913e-05
19 *477:18 *478:43 0.000704176
20 *477:18 *510:55 0.000301758
21 *477:28 *6529:B 0.000668604
22 *477:71 *478:79 0.00150872
23 *1114:DIODE *6618:S0 0.00022272
24 *6556:B *6522:A 0.0010765
25 *6556:B *477:71 0.000667309
26 *6559:C *6695:A0 0.000128553
27 *6559:C *477:18 0.000121813
28 *6695:A1 *6695:A0 5.71472e-05
29 *6718:A1 *6618:S0 4.39404e-05
30 *6725:A1 *477:10 8.45453e-05
31 *6830:RESET_B *477:10 1.07719e-05
32 *6840:D *477:10 0.00010326
33 *6840:D *477:18 0.000102282
34 *6961:A *6695:A0 7.77652e-05
35 *6961:A *477:10 0.000258407
36 *6961:A *477:18 5.37709e-05
37 *41:14 *477:18 0.00152803
38 *148:32 *477:71 0.000103646
39 *149:20 *477:28 0.0002494
40 *154:35 *477:18 0.00118342
41 *205:10 *477:22 0
42 *205:10 *477:24 0.00049312
43 *283:8 *477:71 0.000664641
44 *337:46 *477:18 0.000570092
45 *337:71 *477:18 0.00011309
46 *337:85 *477:18 0.00110804
47 *412:26 *6522:A 6.9276e-05
48 *415:14 *6619:S0 0.000316578
49 *415:14 *477:28 0.000148878
50 *441:14 *477:22 0
51 *475:124 *6695:A0 0.000136019
52 *475:126 *6695:A0 3.48705e-05
*RES
1 *6830:Q *477:10 17.8 
2 *477:10 *477:18 14.5711 
3 *477:18 *477:22 25.3571 
4 *477:22 *477:24 103.08 
5 *477:24 *477:26 4.5 
6 *477:26 *477:28 7.92857 
7 *477:28 *6619:S0 12.7946 
8 *477:28 *6527:A_N 9.3 
9 *477:26 *6529:A 9.3 
10 *477:18 *6618:S0 8.32143 
11 *477:10 *6695:A0 19.675 
12 *6619:S0 *477:71 15.2768 
13 *477:71 *6522:A 20.55 
14 *477:71 *6525:B 9.3 
*END

*D_NET *478 0.03826
*CONN
*I *6618:S1 I *D sky130_fd_sc_hd__mux4_2
*I *6619:S1 I *D sky130_fd_sc_hd__mux4_2
*I *6525:A_N I *D sky130_fd_sc_hd__and2b_2
*I *6522:B I *D sky130_fd_sc_hd__nor2_2
*I *6529:B I *D sky130_fd_sc_hd__and2_2
*I *6527:B I *D sky130_fd_sc_hd__and2b_2
*I *6696:A0 I *D sky130_fd_sc_hd__mux2_1
*I *6831:Q O *D sky130_fd_sc_hd__dfrtp_2
*CAP
1 *6618:S1 0.00111689
2 *6619:S1 0
3 *6525:A_N 0
4 *6522:B 0.000122322
5 *6529:B 0.000365325
6 *6527:B 0
7 *6696:A0 9.40596e-05
8 *6831:Q 0.000119347
9 *478:79 0.000558069
10 *478:73 0.00080982
11 *478:49 0.000404353
12 *478:45 0.0068799
13 *478:43 0.0077899
14 *478:39 0.00204997
15 *478:10 0.00205716
16 *6618:S1 *6717:B2 0.000106944
17 *6618:S1 *6718:B2 0.000121353
18 *6696:A0 *7026:A 0.000143928
19 *478:10 *7026:A 3.41261e-05
20 *478:39 *6731:B2 5.71472e-05
21 *478:43 *510:55 0.000395868
22 *478:45 *514:34 0
23 *1114:DIODE *6618:S1 0.000140933
24 *6522:A *6522:B 0.000920822
25 *6522:A *478:79 0.000143375
26 *6556:C *478:79 0.000283474
27 *6559:C *478:39 0.000103231
28 *6618:A1 *6618:S1 9.54798e-06
29 *6695:A1 *478:39 7.15905e-06
30 *6696:A1 *6696:A0 5.68713e-05
31 *6696:S *6696:A0 3.57366e-05
32 *6699:A1 *478:39 0.000439403
33 *6722:A1 *478:39 0.000100625
34 *6731:B1 *478:39 1.24368e-05
35 *6834:D *478:39 1.32552e-05
36 *6840:D *478:39 0.000363837
37 *6845:D *478:39 0.000706537
38 *6854:D *478:39 5.7836e-06
39 *6949:A *6696:A0 6.05161e-06
40 *6949:A *478:10 4.09856e-05
41 *6949:A *478:39 7.77751e-05
42 *6958:A *478:39 0.000253714
43 *7038:A *478:39 1.69961e-05
44 *7589:A *6522:B 0.000841273
45 *7589:A *478:79 0.000873148
46 *42:28 *478:10 0
47 *148:18 *478:79 0.000184745
48 *148:32 *478:73 0.000871926
49 *148:32 *478:79 0.000103646
50 *149:20 *6529:B 2.65105e-05
51 *300:12 *6618:S1 2.49067e-05
52 *312:14 *6618:S1 5.98948e-06
53 *337:46 *6618:S1 2.06827e-05
54 *337:46 *478:45 4.00658e-06
55 *337:67 *6618:S1 0
56 *337:71 *478:39 0.000327719
57 *359:47 *6618:S1 0
58 *359:79 *478:39 0.000492445
59 *359:89 *478:39 3.52408e-05
60 *407:94 *478:73 0.00114383
61 *407:124 *478:39 9.0145e-05
62 *412:10 *478:73 0
63 *412:10 *478:79 0.000107329
64 *412:26 *6522:B 2.44318e-05
65 *415:14 *478:73 0.000653347
66 *422:64 *6618:S1 0.000136182
67 *441:14 *478:45 0
68 *475:110 *6618:S1 0.000354105
69 *475:124 *478:39 0.000868565
70 *475:126 *478:39 0.000356696
71 *475:142 *6696:A0 0.000166807
72 *475:142 *478:39 0.000676155
73 *475:146 *6696:A0 2.36643e-05
74 *477:18 *478:43 0.000704176
75 *477:28 *6529:B 0.000668604
76 *477:71 *478:79 0.00150872
*RES
1 *6831:Q *478:10 20.55 
2 *478:10 *6696:A0 12.7464 
3 *478:10 *478:39 49.9904 
4 *478:39 *478:43 4.538 
5 *478:43 *478:45 127.625 
6 *478:45 *478:49 5.08036 
7 *478:49 *6527:B 9.3 
8 *478:49 *6529:B 17.1393 
9 *478:45 *478:73 15.5813 
10 *478:73 *478:79 19.1607 
11 *478:79 *6522:B 18.0679 
12 *478:79 *6525:A_N 9.3 
13 *478:73 *6619:S1 9.3 
14 *478:43 *6618:S1 38.2911 
*END

*D_NET *479 0.00378218
*CONN
*I *6531:B I *D sky130_fd_sc_hd__and2b_2
*I *6536:A_N I *D sky130_fd_sc_hd__and2b_2
*I *6523:A I *D sky130_fd_sc_hd__nor2_4
*I *6697:A0 I *D sky130_fd_sc_hd__mux2_1
*I *6541:A I *D sky130_fd_sc_hd__and2_2
*I *6832:Q O *D sky130_fd_sc_hd__dfrtp_2
*CAP
1 *6531:B 4.14645e-05
2 *6536:A_N 0.000106824
3 *6523:A 0
4 *6697:A0 0.000377553
5 *6541:A 0.000242016
6 *6832:Q 0
7 *479:48 0.00043679
8 *479:35 0.000479432
9 *479:4 0.000428637
10 *6531:B *6536:B 0
11 *479:48 *6536:B 0
12 *479:48 *7003:A 0.000129868
13 *479:48 *480:39 0.000209195
14 uio_out[4] *479:48 1.28585e-05
15 *6697:S *479:35 0.000111385
16 *6832:RESET_B *6541:A 5.048e-05
17 *6879:CLK *6536:A_N 0.000273449
18 *6880:D *6541:A 0.000125241
19 *7588:A *479:35 0.000217163
20 *7588:A *479:48 4.97876e-05
21 *151:8 *479:35 6.12696e-05
22 *151:8 *479:48 0.000174172
23 *300:18 *6541:A 0
24 *315:25 *6541:A 6.01709e-05
25 *315:25 *6697:A0 9.58508e-05
26 *315:25 *479:35 9.85751e-05
*RES
1 *6832:Q *479:4 9.3 
2 *479:4 *6541:A 22.1214 
3 *479:4 *6697:A0 11.8893 
4 *6697:A0 *479:35 18.8357 
5 *479:35 *6523:A 13.8 
6 *479:35 *479:48 8.17857 
7 *479:48 *6536:A_N 16.3893 
8 *479:48 *6531:B 14.5321 
*END

*D_NET *480 0.0068347
*CONN
*I *6698:A0 I *D sky130_fd_sc_hd__mux2_1
*I *6523:B I *D sky130_fd_sc_hd__nor2_4
*I *6536:B I *D sky130_fd_sc_hd__and2b_2
*I *6531:A_N I *D sky130_fd_sc_hd__and2b_2
*I *6541:B I *D sky130_fd_sc_hd__and2_2
*I *6833:Q O *D sky130_fd_sc_hd__dfrtp_2
*CAP
1 *6698:A0 0
2 *6523:B 0.000173648
3 *6536:B 0.000435395
4 *6531:A_N 0
5 *6541:B 9.34843e-05
6 *6833:Q 0.000195937
7 *480:39 0.000752572
8 *480:35 0.000867338
9 *480:20 0.00108492
10 *480:12 0.000810859
11 *480:35 *6948:A 0.000341246
12 uio_out[6] *480:39 0.000101989
13 uio_out[7] *480:39 1.01912e-05
14 *6531:B *6536:B 0
15 *6559:B *6541:B 5.33433e-05
16 *6697:S *480:12 4.88637e-05
17 *6697:S *480:20 0.00054534
18 *6698:A1 *480:12 0
19 *6832:RESET_B *480:35 0.000112398
20 *6833:D *480:20 0.000312209
21 *6878:D *480:12 0
22 *6879:CLK *6536:B 0.00041724
23 *6880:D *480:35 0
24 *6886:RESET_B *480:35 0.000102207
25 *6886:RESET_B *480:39 0
26 *7588:A *480:20 3.18676e-05
27 *7588:A *480:35 0
28 *7588:A *480:39 8.21535e-05
29 *335:16 *480:12 0
30 *417:8 *480:39 0
31 *475:146 *480:12 5.23057e-05
32 *479:48 *6536:B 0
33 *479:48 *480:39 0.000209195
*RES
1 *6833:Q *480:12 21.8179 
2 *480:12 *480:20 13.3214 
3 *480:20 *6541:B 11.0679 
4 *480:20 *480:35 17.5 
5 *480:35 *480:39 11.6071 
6 *480:39 *6531:A_N 13.8 
7 *480:39 *6536:B 21.1571 
8 *480:35 *6523:B 11.9071 
9 *480:12 *6698:A0 9.3 
*END

*D_NET *481 0.0325084
*CONN
*I *6699:A0 I *D sky130_fd_sc_hd__mux2_1
*I *6546:A I *D sky130_fd_sc_hd__and2_2
*I *6499:A I *D sky130_fd_sc_hd__inv_2
*I *6632:C1 I *D sky130_fd_sc_hd__a221o_2
*I *6834:Q O *D sky130_fd_sc_hd__dfrtp_2
*CAP
1 *6699:A0 2.90281e-05
2 *6546:A 0
3 *6499:A 3.27275e-05
4 *6632:C1 0.000308892
5 *6834:Q 0.000411042
6 *481:46 0.000953158
7 *481:36 0.00119728
8 *481:20 0.00629865
9 *481:18 0.0071257
10 *481:14 0.00185286
11 *6632:C1 *7236:A 0
12 *481:20 *514:28 0.000192976
13 *481:20 *514:30 0.00111693
14 *481:36 *514:28 0.000274294
15 *481:46 *6521:B 0
16 *481:46 *6546:B 0.000467392
17 *481:46 *6795:CLK 0
18 *481:46 *7229:A 5.33882e-05
19 *481:46 *7236:A 0
20 *481:46 *7250:A 4.57445e-05
21 *481:46 *514:28 2.77173e-05
22 uo_out[3] *481:14 0.000107282
23 uo_out[3] *481:18 0.00017913
24 *6521:A *481:46 0.000127446
25 *6622:C1 *6499:A 2.59355e-05
26 *6622:C1 *6632:C1 0.000123594
27 *6695:A1 *6699:A0 0.000186393
28 *6699:A1 *6699:A0 0.000184745
29 *7576:en *481:20 0.00103174
30 *7577:en *481:20 0.00176116
31 *7578:en *481:20 0.000329827
32 *42:22 *481:20 0.000838693
33 *42:28 *481:18 0.00170457
34 *150:49 *6632:C1 6.38668e-05
35 *150:59 *6632:C1 0
36 *153:57 *6632:C1 0
37 *153:57 *481:46 0
38 *153:80 *6632:C1 0.00036192
39 *154:8 *481:36 6.09804e-05
40 *154:8 *481:46 0.000185643
41 *154:25 *481:20 0.00209509
42 *154:25 *481:36 0.00143473
43 *205:12 *481:20 0.000859429
44 *218:20 *6632:C1 0.000208789
45 *315:8 *481:14 0.000148808
46 *406:12 *481:46 0.000100831
*RES
1 *6834:Q *481:14 19.925 
2 *481:14 *481:18 44.3929 
3 *481:18 *481:20 136.071 
4 *481:20 *481:36 22.0826 
5 *481:36 *481:46 17.9286 
6 *481:46 *6632:C1 22.1929 
7 *481:46 *6499:A 14.3357 
8 *481:36 *6546:A 9.3 
9 *481:14 *6699:A0 15.5679 
*END

*D_NET *482 0.000665153
*CONN
*I *7010:A I *D sky130_fd_sc_hd__dlygate4sd3_1
*I *6771:Q O *D sky130_fd_sc_hd__dfrtp_2
*CAP
1 *7010:A 0.000263248
2 *6771:Q 0.000263248
3 *7010:A *7245:A 9.25014e-06
4 *6795:RESET_B *7010:A 0
5 *6796:D *7010:A 0.000125717
6 *6813:CLK *7010:A 3.69047e-06
*RES
1 *6771:Q *7010:A 31.4214 
*END

*D_NET *483 0.00112805
*CONN
*I *7000:A I *D sky130_fd_sc_hd__dlygate4sd3_1
*I *6781:Q O *D sky130_fd_sc_hd__dfrtp_2
*CAP
1 *7000:A 0.000344429
2 *6781:Q 0.000344429
3 *7000:A *6756:A 0
4 *7000:A *512:57 0.000405727
5 *425:10 *7000:A 3.34672e-05
*RES
1 *6781:Q *7000:A 33.0643 
*END

*D_NET *484 0.000734966
*CONN
*I *7006:A I *D sky130_fd_sc_hd__dlygate4sd3_1
*I *6782:Q O *D sky130_fd_sc_hd__dfrtp_2
*CAP
1 *7006:A 0.000327385
2 *6782:Q 0.000327385
3 *7006:A *6752:A 3.44618e-05
4 *6782:CLK *7006:A 0
5 *6782:RESET_B *7006:A 2.1527e-05
6 *438:65 *7006:A 2.42082e-05
*RES
1 *6782:Q *7006:A 32.2429 
*END

*D_NET *485 0.000131943
*CONN
*I *7018:A I *D sky130_fd_sc_hd__dlygate4sd3_1
*I *6783:Q O *D sky130_fd_sc_hd__dfrtp_2
*CAP
1 *7018:A 3.78215e-05
2 *6783:Q 3.78215e-05
3 *464:24 *7018:A 5.62995e-05
*RES
1 *6783:Q *7018:A 19.5464 
*END

*D_NET *486 0.0014777
*CONN
*I *7014:A I *D sky130_fd_sc_hd__dlygate4sd3_1
*I *6784:Q O *D sky130_fd_sc_hd__dfrtp_2
*CAP
1 *7014:A 0.000412503
2 *6784:Q 0.000412503
3 *7014:A *7005:A 2.17647e-05
4 *6784:RESET_B *7014:A 0.000387439
5 *6809:D *7014:A 1.59373e-05
6 *6809:RESET_B *7014:A 0.000128154
7 *464:24 *7014:A 9.94037e-05
*RES
1 *6784:Q *7014:A 36.8143 
*END

*D_NET *487 0.00131115
*CONN
*I *7005:A I *D sky130_fd_sc_hd__dlygate4sd3_1
*I *6785:Q O *D sky130_fd_sc_hd__dfrtp_2
*CAP
1 *7005:A 0.000532633
2 *6785:Q 0.000532633
3 *7005:A *505:24 0.000218068
4 *6784:RESET_B *7005:A 6.05161e-06
5 *7014:A *7005:A 2.17647e-05
6 *437:39 *7005:A 0
*RES
1 *6785:Q *7005:A 36.4393 
*END

*D_NET *488 0.000572754
*CONN
*I *7013:A I *D sky130_fd_sc_hd__dlygate4sd3_1
*I *6786:Q O *D sky130_fd_sc_hd__dfrtp_2
*CAP
1 *7013:A 0.000286377
2 *6786:Q 0.000286377
3 *437:61 *7013:A 0
*RES
1 *6786:Q *7013:A 31.4214 
*END

*D_NET *489 0.00110132
*CONN
*I *7008:A I *D sky130_fd_sc_hd__dlygate4sd3_1
*I *6772:Q O *D sky130_fd_sc_hd__dfrtp_2
*CAP
1 *7008:A 0.000426174
2 *6772:Q 0.000426174
3 *7008:A *6761:A 0
4 *7008:A *506:8 4.15914e-05
5 *7008:A *506:27 2.49484e-05
6 *6792:D *7008:A 5.57914e-05
7 *403:21 *7008:A 0.000126639
8 *403:47 *7008:A 0
*RES
1 *6772:Q *7008:A 34.6714 
*END

*D_NET *490 0.000593371
*CONN
*I *7002:A I *D sky130_fd_sc_hd__dlygate4sd3_1
*I *6773:Q O *D sky130_fd_sc_hd__dfrtp_2
*CAP
1 *7002:A 0.000124358
2 *6773:Q 0.000124358
3 *6610:B1 *7002:A 7.63235e-05
4 *6798:D *7002:A 0.000103253
5 *433:21 *7002:A 0.000165079
*RES
1 *6773:Q *7002:A 31.6714 
*END

*D_NET *491 0.000654473
*CONN
*I *7007:A I *D sky130_fd_sc_hd__dlygate4sd3_1
*I *6774:Q O *D sky130_fd_sc_hd__dfrtp_2
*CAP
1 *7007:A 0.000179675
2 *6774:Q 0.000179675
3 *6610:B1 *7007:A 0.000295123
4 *155:68 *7007:A 0
5 *433:21 *7007:A 0
*RES
1 *6774:Q *7007:A 31.6714 
*END

*D_NET *492 0.000183898
*CONN
*I *7022:A I *D sky130_fd_sc_hd__dlygate4sd3_1
*I *6775:Q O *D sky130_fd_sc_hd__dfrtp_2
*CAP
1 *7022:A 2.84106e-05
2 *6775:Q 2.84106e-05
3 *7022:A *1084:22 5.03772e-05
4 *6775:RESET_B *7022:A 2.14757e-05
5 *6800:D *7022:A 5.52238e-05
*RES
1 *6775:Q *7022:A 19.5464 
*END

*D_NET *493 0.00075726
*CONN
*I *7023:A I *D sky130_fd_sc_hd__dlygate4sd3_1
*I *6776:Q O *D sky130_fd_sc_hd__dfrtp_2
*CAP
1 *7023:A 0.000102816
2 *6776:Q 0.000102816
3 *7023:A *509:14 3.69047e-06
4 *6740:B1 *7023:A 9.92409e-05
5 *6801:D *7023:A 4.88546e-05
6 *186:54 *7023:A 0.000399841
*RES
1 *6776:Q *7023:A 22.4214 
*END

*D_NET *494 0.00116052
*CONN
*I *7011:A I *D sky130_fd_sc_hd__dlygate4sd3_1
*I *6777:Q O *D sky130_fd_sc_hd__dfrtp_2
*CAP
1 *7011:A 0.000425198
2 *6777:Q 0.000425198
3 *6788:CLK *7011:A 0
4 *6802:RESET_B *7011:A 0.000145277
5 *303:64 *7011:A 6.87574e-05
6 *396:57 *7011:A 9.60875e-05
7 *426:110 *7011:A 0
*RES
1 *6777:Q *7011:A 33.85 
*END

*D_NET *495 0.0003943
*CONN
*I *7012:A I *D sky130_fd_sc_hd__dlygate4sd3_1
*I *6778:Q O *D sky130_fd_sc_hd__dfrtp_2
*CAP
1 *7012:A 0.000158262
2 *6778:Q 0.000158262
3 *7012:A *501:85 0
4 *7012:A *533:28 7.77751e-05
5 *402:99 *7012:A 0
*RES
1 *6778:Q *7012:A 30.6 
*END

*D_NET *496 0.00199464
*CONN
*I *7009:A I *D sky130_fd_sc_hd__dlygate4sd3_1
*I *6779:Q O *D sky130_fd_sc_hd__dfrtp_2
*CAP
1 *7009:A 0.000675112
2 *6779:Q 0.000675112
3 *6779:RESET_B *7009:A 0.000358971
4 *6862:RESET_B *7009:A 0.000180002
5 *312:66 *7009:A 1.56e-05
6 *312:73 *7009:A 8.98447e-05
*RES
1 *6779:Q *7009:A 37.1714 
*END

*D_NET *497 0.000865114
*CONN
*I *7016:A I *D sky130_fd_sc_hd__dlygate4sd3_1
*I *6780:Q O *D sky130_fd_sc_hd__dfrtp_2
*CAP
1 *7016:A 0.000273095
2 *6780:Q 0.000273095
3 *7016:A *6753:A 0.000144773
4 *7016:A *501:65 0.000119203
5 *6769:D *7016:A 5.49489e-05
*RES
1 *6780:Q *7016:A 33.1893 
*END

*D_NET *498 0.00456157
*CONN
*I *6924:A I *D sky130_fd_sc_hd__clkdlybuf4s25_1
*I *6566:X O *D sky130_fd_sc_hd__and2_2
*CAP
1 *6924:A 0
2 *6566:X 0.00114782
3 *498:14 0.00114782
4 *6646:A3 *498:14 9.90367e-05
5 *6768:RESET_B *498:14 1.21258e-05
6 *6790:RESET_B *498:14 0.000116412
7 *6835:RESET_B *498:14 0.000183726
8 *6923:A *498:14 0.000894784
9 *155:68 *498:14 0.000478013
10 *155:88 *498:14 0.000157399
11 *155:101 *498:14 1.98839e-05
12 *404:20 *498:14 0.000118903
13 *475:8 *498:14 0.000185643
*RES
1 *6566:X *498:14 43.8714 
2 *498:14 *6924:A 9.3 
*END

*D_NET *499 0.0364426
*CONN
*I *6583:B I *D sky130_fd_sc_hd__xor2_2
*I *6733:A1 I *D sky130_fd_sc_hd__a22o_2
*I *6717:B2 I *D sky130_fd_sc_hd__a22o_2
*I *6796:Q O *D sky130_fd_sc_hd__dfrtp_2
*CAP
1 *6583:B 0.000123965
2 *6733:A1 0.0002283
3 *6717:B2 0.00388216
4 *6796:Q 0.00217174
5 *499:28 0.00463079
6 *499:26 0.00287513
7 *499:12 0.00440258
8 *6583:B *6583:A 0.000156985
9 *6717:B2 *6718:B2 0.00183616
10 *6717:B2 *503:55 0.00137543
11 *6717:B2 *504:76 0.000773713
12 *6717:B2 *505:81 0.00134833
13 *6717:B2 *510:55 0.00424007
14 *6733:A1 *1084:32 1.98839e-05
15 *499:12 *6763:A 5.41494e-05
16 *499:26 *505:81 9.68675e-05
17 *499:26 *507:38 0
18 *499:28 *505:81 0.000397433
19 *499:28 *510:55 0.000511201
20 *6559:C *6717:B2 0.000501752
21 *6584:B *6583:B 6.87975e-06
22 *6618:S1 *6717:B2 0.000106944
23 *6716:A *6733:A1 1.03447e-05
24 *6719:A1 *6717:B2 8.02819e-05
25 *6725:A1 *6717:B2 6.76337e-05
26 *6725:B1 *6717:B2 5.01411e-05
27 *6733:A2 *6733:A1 0.000118978
28 *6733:B1 *6733:A1 0.00017679
29 *6733:B2 *6733:A1 2.61406e-05
30 *6794:CLK *499:12 5.19842e-06
31 *6796:D *499:12 0.000268682
32 *6840:D *6717:B2 2.3224e-05
33 *6856:RESET_B *6583:B 0
34 *7040:A *499:12 0.000105163
35 *40:16 *6717:B2 0.000740479
36 *155:51 *499:26 0.000249645
37 *155:51 *499:28 0.000590522
38 *310:14 *6717:B2 6.45942e-05
39 *337:85 *6717:B2 0.000118991
40 *359:16 *6717:B2 0.00388376
41 *396:65 *6733:A1 6.24939e-05
42 *477:18 *6717:B2 5.913e-05
*RES
1 *6796:Q *499:12 47.9429 
2 *499:12 *499:26 31.6773 
3 *499:26 *499:28 1.9928 
4 *499:28 *6717:B2 45.0701 
5 *499:28 *6733:A1 21.8261 
6 *499:26 *6583:B 10.3118 
*END

*D_NET *500 0.0168607
*CONN
*I *6727:B2 I *D sky130_fd_sc_hd__a22o_2
*I *6743:A1 I *D sky130_fd_sc_hd__a22o_2
*I *6570:B I *D sky130_fd_sc_hd__xor2_2
*I *6806:Q O *D sky130_fd_sc_hd__dfrtp_2
*CAP
1 *6727:B2 0.00431528
2 *6743:A1 9.0983e-05
3 *6570:B 0.00116505
4 *6806:Q 0.000926329
5 *500:35 0.00464498
6 *6570:B *6781:D 0.000206578
7 *6570:B *512:57 0.000129944
8 *6570:B *516:10 0
9 *6570:B *546:22 1.3277e-05
10 *6727:B2 *7024:A 0.000112563
11 *6727:B2 *503:55 0.00217076
12 *6727:B2 *513:49 0.00140653
13 *6727:B2 *513:59 2.59355e-05
14 *500:35 *6572:A 0.000120679
15 *500:35 *511:22 0.000237307
16 *500:35 *512:73 0.000167305
17 *500:35 *527:10 4.46186e-06
18 *6739:B2 *500:35 0.000268403
19 *6743:B1 *6743:A1 9.54798e-06
20 *6781:CLK *6570:B 3.69047e-06
21 *6806:D *6570:B 7.23941e-05
22 *6806:RESET_B *6570:B 0.000138106
23 *6844:RESET_B *6727:B2 5.52238e-05
24 *6866:D *6743:A1 6.85461e-05
25 *6866:D *500:35 0.000235324
26 *7039:A *6570:B 3.90159e-05
27 *42:18 *6727:B2 4.73953e-05
28 *155:18 *6743:A1 6.71787e-05
29 *155:18 *500:35 6.62299e-06
30 *370:29 *6727:B2 0
31 *423:17 *6727:B2 0.000111348
*RES
1 *6806:Q *6570:B 40.4964 
2 *6570:B *500:35 13.4464 
3 *500:35 *6743:A1 15.8982 
4 *500:35 *6727:B2 32.3351 
*END

*D_NET *501 0.0278062
*CONN
*I *6728:B2 I *D sky130_fd_sc_hd__a22o_2
*I *6574:B I *D sky130_fd_sc_hd__or2_2
*I *6744:A1 I *D sky130_fd_sc_hd__a22o_2
*I *6573:B I *D sky130_fd_sc_hd__nand2_2
*I *6807:Q O *D sky130_fd_sc_hd__dfrtp_2
*CAP
1 *6728:B2 0
2 *6574:B 0.000271619
3 *6744:A1 0
4 *6573:B 0.000484691
5 *6807:Q 5.08197e-05
6 *501:103 0.00179343
7 *501:85 0.00431796
8 *501:65 0.0063227
9 *501:63 0.00379817
10 *501:26 0.000701105
11 *501:14 0.000792289
12 *501:8 0.000355076
13 *6573:B *6573:A 5.52238e-05
14 *6573:B *6578:B 0
15 *6573:B *505:26 0.000142819
16 *6574:B *6981:A 9.41642e-05
17 *6574:B *504:24 0.000198748
18 *501:26 *504:24 4.58194e-05
19 *501:65 *6753:A 0.000305253
20 *501:65 *512:8 9.41642e-05
21 *501:65 *519:10 3.67124e-06
22 *501:85 *6572:B 0.000114134
23 *501:85 *6988:A 0.000144773
24 *501:103 *6987:A 0.000147339
25 *501:103 *513:12 0
26 *6584:B *501:85 0.000186662
27 *6591:A1 *6573:B 4.13595e-05
28 *6591:B1 *6573:B 7.55769e-05
29 *6637:A0 *501:103 2.90753e-05
30 *6720:A1 *501:103 0.000187951
31 *6728:A1 *501:103 0.000144556
32 *6741:B2 *501:103 0.000314548
33 *6743:B2 *501:85 0.000142063
34 *6744:A2 *6573:B 8.68158e-05
35 *6744:B1 *6573:B 3.90079e-06
36 *6745:B1 *501:14 7.80714e-06
37 *6745:B1 *501:26 3.1877e-05
38 *6745:B2 *501:14 0.000337637
39 *6748:B1 *6573:B 3.97794e-05
40 *6767:CLK *501:65 0.000288586
41 *6767:D *501:8 0
42 *6767:D *501:14 0
43 *6767:D *501:65 2.89016e-05
44 *6767:RESET_B *501:65 1.20135e-05
45 *6768:CLK *501:65 3.4879e-05
46 *6768:D *501:65 0.000170945
47 *6768:RESET_B *501:65 4.32253e-05
48 *6769:D *501:65 0.000119291
49 *6769:RESET_B *501:65 0.000641888
50 *6802:RESET_B *501:85 0.000179995
51 *6808:CLK *501:8 3.48235e-05
52 *6808:CLK *501:14 0.000345808
53 *6843:D *501:103 0.000170955
54 *6867:D *6573:B 2.06468e-05
55 *6869:CLK *501:65 7.77652e-05
56 *6869:RESET_B *501:65 2.44934e-05
57 *6911:A *501:103 0.000615963
58 *6922:A *501:85 0.000158368
59 *7012:A *501:85 0
60 *7016:A *501:65 0.000119203
61 *3:16 *501:103 5.01223e-05
62 *266:14 *501:103 4.6869e-05
63 *302:239 *501:26 7.92446e-05
64 *307:34 *501:65 0.000285619
65 *309:29 *501:14 0.000164554
66 *309:29 *501:26 0.000266406
67 *311:43 *501:85 0.000369409
68 *311:50 *501:85 5.23142e-05
69 *311:63 *501:85 0.000398052
70 *311:76 *501:85 0.000265715
71 *311:87 *501:65 0.000392699
72 *402:99 *501:85 0.000126446
73 *425:41 *501:85 0.000311434
74 *438:20 *501:65 1.18881e-05
75 *439:43 *6573:B 3.41021e-05
*RES
1 *6807:Q *501:8 14.8357 
2 *501:8 *501:14 8.375 
3 *501:14 *501:26 18.0357 
4 *501:26 *6573:B 26.4071 
5 *501:26 *6744:A1 9.3 
6 *501:14 *6574:B 18.4429 
7 *501:8 *501:63 4.5 
8 *501:63 *501:65 50.6429 
9 *501:65 *501:85 49.5893 
10 *501:85 *501:103 43.625 
11 *501:103 *6728:B2 9.3 
*END

*D_NET *502 0.0228384
*CONN
*I *6729:B2 I *D sky130_fd_sc_hd__a22o_2
*I *6745:A1 I *D sky130_fd_sc_hd__a22o_2
*I *6592:B I *D sky130_fd_sc_hd__xor2_2
*I *6808:Q O *D sky130_fd_sc_hd__dfrtp_2
*CAP
1 *6729:B2 0.000680636
2 *6745:A1 1.11927e-05
3 *6592:B 0.00763502
4 *6808:Q 0.000504825
5 *502:45 0.00809805
6 *502:12 0.000733622
7 *6592:B *6592:A 9.23695e-05
8 *6729:B2 *6721:B2 0
9 *502:12 *504:12 0.000148105
10 *502:12 *535:10 8.91726e-05
11 *502:45 *6576:B 1.03483e-05
12 *502:45 *507:38 0.0023776
13 *502:45 *508:78 0
14 *6591:A2 *502:45 0
15 *6593:B *502:45 0
16 *6593:D *6592:B 3.03071e-05
17 *6593:D *502:45 9.16671e-05
18 *6594:C1 *502:45 0.000343924
19 *6638:A0 *6729:B2 7.54511e-05
20 *6721:A1 *6729:B2 9.67203e-05
21 *6729:B1 *6729:B2 0.000102665
22 *6745:A2 *502:12 1.46576e-05
23 *6767:D *502:12 0
24 *6809:CLK *502:12 0
25 *6810:CLK *502:12 4.19577e-05
26 *6836:RESET_B *502:45 8.13155e-05
27 *6855:CLK *6729:B2 5.52238e-05
28 *6868:D *6592:B 4.87953e-05
29 *6868:D *502:12 6.87574e-05
30 *41:14 *6729:B2 7.9062e-05
31 *45:16 *6729:B2 0
32 *45:16 *502:45 0.000405793
33 *290:15 *502:45 0
34 *307:28 *502:45 0
35 *312:20 *6729:B2 0.000142819
36 *335:16 *502:45 0
37 *395:96 *502:45 0
38 *395:124 *502:45 0
39 *401:33 *502:45 0
40 *438:20 *502:12 9.30022e-05
41 *438:26 *502:12 5.83304e-05
42 *439:43 *502:45 0.000627025
*RES
1 *6808:Q *502:12 29.3357 
2 *502:12 *6592:B 3.90179 
3 *502:12 *6745:A1 9.72857 
4 *6592:B *502:45 46.6949 
5 *502:45 *6729:B2 27.0589 
*END

*D_NET *503 0.0468004
*CONN
*I *6575:B I *D sky130_fd_sc_hd__xor2_2
*I *6730:B2 I *D sky130_fd_sc_hd__a22o_2
*I *6746:A1 I *D sky130_fd_sc_hd__a22o_2
*I *6809:Q O *D sky130_fd_sc_hd__dfrtp_2
*CAP
1 *6575:B 5.3147e-05
2 *6730:B2 0
3 *6746:A1 0.000216516
4 *6809:Q 0.000669231
5 *503:55 0.00824881
6 *503:35 0.00836729
7 *503:20 0.00217822
8 *503:16 0.00256561
9 *6746:A1 *6576:A 5.52302e-05
10 *6746:A1 *6974:A 5.52238e-05
11 *6746:A1 *6983:A 8.96049e-05
12 *503:16 *6784:D 0.000134489
13 *503:20 *6784:D 0.000198352
14 *503:20 *518:8 3.06878e-06
15 *503:20 *536:28 3.57315e-05
16 *503:35 *6983:A 4.03577e-05
17 *503:35 *519:10 6.87834e-06
18 *503:55 *504:76 0.000192097
19 *503:55 *505:81 0.0111232
20 *503:55 *513:49 0.00141255
21 *503:55 *513:59 0.000115077
22 *6593:A *6746:A1 0.000191205
23 *6593:C *6746:A1 4.45698e-05
24 *6593:D *6746:A1 0
25 *6717:B2 *503:55 0.00137543
26 *6723:A2 *503:55 3.39451e-05
27 *6727:B2 *503:55 0.00217076
28 *6746:A2 *6746:A1 1.57155e-05
29 *6767:RESET_B *503:55 0.000182358
30 *6783:RESET_B *503:16 7.58664e-05
31 *6784:RESET_B *503:16 0
32 *6809:RESET_B *503:16 4.85567e-05
33 *6845:CLK *503:55 4.70981e-05
34 *6861:RESET_B *503:55 0.000233582
35 *6869:D *503:55 2.11419e-05
36 *7032:A *503:55 0.00023816
37 *7033:A *503:55 5.40377e-05
38 *40:16 *503:55 0.000629681
39 *42:18 *503:55 4.98422e-05
40 *302:239 *503:20 0.00016236
41 *307:6 *503:20 0.000183344
42 *309:38 *503:20 0.000551534
43 *337:105 *503:55 5.00087e-06
44 *359:41 *503:55 0.00205597
45 *402:80 *503:55 0.000101601
46 *402:118 *6746:A1 0.000452047
47 *402:118 *503:35 0.000138676
48 *402:118 *503:55 8.23597e-06
49 *402:126 *6746:A1 1.90936e-05
50 *404:95 *503:16 0
51 *436:10 *503:16 7.04538e-05
52 *442:24 *503:55 0.00178041
53 *464:24 *503:16 9.91086e-05
*RES
1 *6809:Q *503:16 30.2821 
2 *503:16 *503:20 29.2679 
3 *503:20 *6746:A1 20.9429 
4 *503:20 *503:35 6.44643 
5 *503:35 *503:55 46.7482 
6 *503:55 *6730:B2 9.3 
7 *503:35 *6575:B 0.883929 
*END

*D_NET *504 0.0467622
*CONN
*I *6585:B I *D sky130_fd_sc_hd__nand2_2
*I *6731:B2 I *D sky130_fd_sc_hd__a22o_2
*I *6747:A1 I *D sky130_fd_sc_hd__a22o_2
*I *6586:B I *D sky130_fd_sc_hd__or2_2
*I *6810:Q O *D sky130_fd_sc_hd__dfrtp_2
*CAP
1 *6585:B 0
2 *6731:B2 0.000212057
3 *6747:A1 0.000186949
4 *6586:B 7.38599e-05
5 *6810:Q 0.00167533
6 *504:76 0.00452736
7 *504:47 0.00483862
8 *504:28 0.00049632
9 *504:24 0.00135077
10 *504:12 0.00294002
11 *6586:B *6586:A 6.11983e-05
12 *504:12 *6518:A 1.74352e-05
13 *504:24 *6569:A 5.71472e-05
14 *504:24 *6569:B 0.000534229
15 *504:24 *6586:A 2.42554e-05
16 *504:24 *6981:A 0.000267377
17 *504:24 *6983:A 0.000139907
18 *504:24 *520:31 9.70158e-05
19 *504:28 *6586:A 0.000227532
20 *504:76 *6718:B2 0.012643
21 *504:76 *7024:A 2.30116e-06
22 *504:76 *506:31 0.00025525
23 *504:76 *507:38 3.25196e-05
24 *504:76 *510:55 0.00464283
25 *504:76 *1084:28 0.000514764
26 *6574:B *504:24 0.000198748
27 *6590:A1 *6586:B 0.000123806
28 *6590:A1 *6747:A1 0
29 *6590:A1 *504:24 1.33343e-05
30 *6590:A1 *504:28 4.48569e-05
31 *6590:A1 *504:47 1.21258e-05
32 *6590:D1 *504:47 9.11048e-06
33 *6590:D1 *504:76 4.41739e-05
34 *6591:A2 *504:24 0.000607115
35 *6618:A2 *504:76 0.00030911
36 *6717:B2 *504:76 0.000773713
37 *6719:A1 *504:76 0
38 *6719:A2 *504:76 7.54239e-05
39 *6745:A2 *504:12 0.000114824
40 *6745:B2 *504:24 6.09804e-05
41 *6746:B2 *504:24 0.000363098
42 *6747:A2 *6747:A1 1.8038e-05
43 *6747:B2 *6747:A1 2.83284e-06
44 *6810:CLK *504:12 0.000429057
45 *6810:D *504:12 0.000300606
46 *6810:RESET_B *504:12 3.07455e-05
47 *6854:D *6731:B2 0
48 *6867:RESET_B *504:12 0
49 *6898:A *504:24 4.77613e-05
50 *40:16 *504:76 0.00177511
51 *155:51 *504:76 0.00078137
52 *179:22 *504:24 0.00104695
53 *179:22 *504:28 1.8461e-05
54 *179:22 *504:47 0.00032397
55 *179:22 *504:76 0.000141547
56 *302:199 *504:24 3.06513e-05
57 *359:79 *6731:B2 7.17997e-05
58 *395:18 *6747:A1 0
59 *395:18 *504:28 5.71472e-05
60 *395:73 *504:28 0.000185643
61 *396:20 *6747:A1 0
62 *396:28 *504:76 7.77476e-05
63 *396:57 *504:76 0.000152412
64 *401:16 *504:76 8.98149e-05
65 *438:26 *504:12 0
66 *438:45 *504:12 2.32625e-05
67 *475:110 *504:76 0.00214558
68 *478:39 *6731:B2 5.71472e-05
69 *501:26 *504:24 4.58194e-05
70 *502:12 *504:12 0.000148105
71 *503:55 *504:76 0.000192097
*RES
1 *6810:Q *504:12 42.1036 
2 *504:12 *504:24 32.0536 
3 *504:24 *504:28 3.42857 
4 *504:28 *6586:B 19.9429 
5 *504:28 *504:47 9.48214 
6 *504:47 *6747:A1 16.6571 
7 *504:47 *504:76 46.8177 
8 *504:76 *6731:B2 20.4511 
9 *504:24 *6585:B 9.3 
*END

*D_NET *505 0.0350473
*CONN
*I *6732:B2 I *D sky130_fd_sc_hd__a22o_2
*I *6579:B I *D sky130_fd_sc_hd__nand2_2
*I *6748:A1 I *D sky130_fd_sc_hd__a22o_2
*I *6578:B I *D sky130_fd_sc_hd__or2_2
*I *6811:Q O *D sky130_fd_sc_hd__dfrtp_2
*CAP
1 *6732:B2 0
2 *6579:B 0
3 *6748:A1 0.000115133
4 *6578:B 6.95459e-05
5 *6811:Q 0.00173698
6 *505:81 0.00512382
7 *505:45 0.000323548
8 *505:26 0.000439002
9 *505:24 0.00702184
10 *6578:B *6573:A 6.37237e-05
11 *6578:B *517:16 1.56e-05
12 *6748:A1 *6579:A 9.90431e-05
13 *6748:A1 *521:6 8.71761e-05
14 *505:26 *6574:A 0.000248631
15 *505:26 *6578:A 6.21521e-06
16 *505:45 *6578:A 2.12521e-05
17 *505:45 *521:12 6.39901e-05
18 *505:81 *6574:A 8.99513e-05
19 *6573:B *6578:B 0
20 *6573:B *505:26 0.000142819
21 *6590:C1 *505:81 0.00119655
22 *6591:B1 *505:26 1.11775e-05
23 *6594:A1 *6578:B 6.05161e-06
24 *6594:A1 *505:45 0.000154762
25 *6594:A2 *6748:A1 6.42778e-05
26 *6594:A2 *505:45 0.000252098
27 *6717:B2 *505:81 0.00134833
28 *6728:A1 *505:81 1.24368e-05
29 *6732:A1 *505:81 0.000390559
30 *6744:B2 *505:24 0.000125057
31 *6745:A2 *505:24 6.39829e-05
32 *6745:B1 *505:24 6.56976e-05
33 *6767:RESET_B *505:81 0.000220881
34 *6785:CLK *505:24 0.000170955
35 *6811:CLK *505:24 0.00047092
36 *6811:RESET_B *505:24 9.65702e-05
37 *6812:RESET_B *505:81 0.000122117
38 *6855:D *505:81 0.000219692
39 *6867:CLK *6578:B 0
40 *7005:A *505:24 0.000218068
41 *155:51 *505:81 0.000311318
42 *187:37 *505:81 0.000175374
43 *302:191 *505:81 0.000167321
44 *302:219 *505:81 0.000354912
45 *302:239 *505:26 0
46 *302:253 *505:45 0
47 *303:23 *505:81 0.000152034
48 *308:18 *6748:A1 0.00044852
49 *308:18 *505:45 4.88637e-05
50 *337:22 *505:81 0
51 *402:80 *505:81 0.000101623
52 *402:126 *505:24 0.00022916
53 *437:53 *505:24 5.43706e-05
54 *439:43 *505:26 7.59859e-05
55 *439:43 *505:45 1.00375e-05
56 *439:43 *505:81 0.000421896
57 *499:26 *505:81 9.68675e-05
58 *499:28 *505:81 0.000397433
59 *503:55 *505:81 0.0111232
*RES
1 *6811:Q *505:24 44.7384 
2 *505:24 *505:26 4.22321 
3 *505:26 *6578:B 15.175 
4 *505:26 *505:45 10.6607 
5 *505:45 *6748:A1 14.3893 
6 *505:45 *6579:B 9.3 
7 *505:24 *505:81 45.9181 
8 *505:81 *6732:B2 9.3 
*END

*D_NET *506 0.0349194
*CONN
*I *6587:B I *D sky130_fd_sc_hd__nand2_2
*I *6588:B I *D sky130_fd_sc_hd__or2_2
*I *6718:B2 I *D sky130_fd_sc_hd__a22o_2
*I *6734:A1 I *D sky130_fd_sc_hd__a22o_2
*I *6797:Q O *D sky130_fd_sc_hd__dfrtp_2
*CAP
1 *6587:B 8.98191e-05
2 *6588:B 1.7581e-05
3 *6718:B2 0.00450195
4 *6734:A1 0.000280069
5 *6797:Q 5.06686e-05
6 *506:31 0.00460745
7 *506:27 0.000999592
8 *506:8 0.00115259
9 *6587:B *6587:A 1.33343e-05
10 *6587:B *6588:A 5.52302e-05
11 *6718:B2 *507:38 0.00377115
12 *6718:B2 *508:78 0.00147639
13 *6718:B2 *510:55 0.00046631
14 *6734:A1 *6761:A 9.58181e-05
15 *6734:A1 *541:32 2.48095e-05
16 *506:8 *6761:A 0
17 *506:27 *6761:A 0
18 *506:27 *6775:D 0
19 *506:27 *522:10 0.000117144
20 *506:27 *522:23 0.000295085
21 *506:27 *542:8 0
22 *506:31 *508:78 2.81194e-05
23 *6589:B1 *6587:B 5.52302e-05
24 *6618:A2 *6718:B2 4.6025e-06
25 *6618:S1 *6718:B2 0.000121353
26 *6717:B2 *6718:B2 0.00183616
27 *6727:B1 *6718:B2 0.000128694
28 *6734:B2 *506:27 0
29 *6740:B1 *6588:B 4.43299e-05
30 *6740:B1 *506:27 0
31 *6790:RESET_B *506:27 0.000290648
32 *6792:CLK *6734:A1 6.05161e-06
33 *6797:D *6734:A1 0.000230482
34 *6801:D *506:27 0
35 *6844:RESET_B *6718:B2 1.31525e-05
36 *6857:D *506:27 0.000129868
37 *6863:CLK *6587:B 1.21892e-05
38 *6963:A *6718:B2 0
39 *7008:A *506:8 4.15914e-05
40 *7008:A *506:27 2.49484e-05
41 *290:15 *6718:B2 0.000184634
42 *302:181 *6718:B2 0.000276559
43 *359:16 *6718:B2 0.000292286
44 *401:16 *6587:B 8.49755e-06
45 *401:16 *506:27 6.97007e-05
46 *401:16 *506:31 4.12053e-05
47 *403:47 *506:27 0
48 *403:61 *6588:B 2.13687e-05
49 *403:61 *506:27 0
50 *440:55 *6718:B2 9.22222e-06
51 *440:76 *6718:B2 0.000109792
52 *475:110 *6718:B2 2.54051e-05
53 *504:76 *6718:B2 0.012643
54 *504:76 *506:31 0.00025525
*RES
1 *6797:Q *506:8 14.8357 
2 *506:8 *6734:A1 18.7286 
3 *506:8 *506:27 17.5804 
4 *506:27 *506:31 3.81733 
5 *506:31 *6718:B2 49.0986 
6 *506:31 *6588:B 17.7904 
7 *506:27 *6587:B 15.4518 
*END

*D_NET *507 0.0274832
*CONN
*I *6735:A1 I *D sky130_fd_sc_hd__a22o_2
*I *6571:B I *D sky130_fd_sc_hd__xor2_2
*I *6719:B2 I *D sky130_fd_sc_hd__a22o_2
*I *6798:Q O *D sky130_fd_sc_hd__dfrtp_2
*CAP
1 *6735:A1 4.72819e-05
2 *6571:B 0.000179963
3 *6719:B2 0
4 *6798:Q 0.000209846
5 *507:38 0.00697463
6 *507:16 0.0074054
7 *507:10 0.000507927
8 *6571:B *508:10 4.33002e-05
9 *507:16 *508:10 0.000322502
10 *507:38 *1084:22 0.00038926
11 *6618:A2 *507:38 0.000686595
12 *6644:A *507:10 0
13 *6701:B *507:10 0.000150618
14 *6701:B *507:16 0
15 *6708:B2 *507:10 0
16 *6718:B2 *507:38 0.00377115
17 *6719:A1 *507:38 2.83284e-06
18 *6719:B1 *507:38 0
19 *6735:A2 *6735:A1 1.7017e-05
20 *6735:B2 *6735:A1 4.98155e-05
21 *6735:B2 *507:16 2.89016e-05
22 *6836:CLK *507:10 1.41029e-05
23 *6874:CLK *6571:B 0.000114577
24 *6874:RESET_B *6571:B 0.000616982
25 *41:14 *507:38 0.00109339
26 *290:15 *507:38 0.000774591
27 *302:173 *507:38 0.000115536
28 *308:18 *6571:B 0.000264974
29 *337:24 *507:38 0.000169615
30 *395:100 *507:16 0
31 *401:56 *6571:B 0
32 *401:56 *507:10 0
33 *401:56 *507:16 0
34 *401:58 *507:10 0
35 *401:92 *6735:A1 8.87344e-05
36 *401:92 *507:16 0.00014285
37 *411:147 *507:38 0.000733327
38 *440:76 *507:38 0.000157377
39 *499:26 *507:38 0
40 *502:45 *507:38 0.0023776
41 *504:76 *507:38 3.25196e-05
*RES
1 *6798:Q *507:10 22.3714 
2 *507:10 *507:16 10.6875 
3 *507:16 *507:38 47.0925 
4 *507:38 *6719:B2 13.8 
5 *507:16 *6571:B 11.7143 
6 *507:10 *6735:A1 10.675 
*END

*D_NET *508 0.025488
*CONN
*I *6736:A1 I *D sky130_fd_sc_hd__a22o_2
*I *6720:B2 I *D sky130_fd_sc_hd__a22o_2
*I *6577:B I *D sky130_fd_sc_hd__nand2_2
*I *6576:B I *D sky130_fd_sc_hd__or2_2
*I *6799:Q O *D sky130_fd_sc_hd__dfrtp_2
*CAP
1 *6736:A1 0
2 *6720:B2 0.000449003
3 *6577:B 8.80482e-05
4 *6576:B 0.000639425
5 *6799:Q 0.00026999
6 *508:78 0.00551646
7 *508:48 0.00538804
8 *508:14 0.00107148
9 *508:10 0.000934585
10 *6576:B *524:8 3.67142e-05
11 *508:78 *6741:A1 0.00014285
12 *508:78 *6758:A 0.000141343
13 *508:78 *509:14 0.00133469
14 *6561:B *6720:B2 0
15 *6571:B *508:10 4.33002e-05
16 *6591:A1 *6576:B 0.000114959
17 *6591:A2 *6576:B 1.46576e-05
18 *6591:B1 *6576:B 1.74352e-05
19 *6591:B2 *6576:B 0
20 *6594:B1 *6576:B 5.33334e-05
21 *6594:C1 *6576:B 0.000142812
22 *6642:B1 *508:78 0.000399848
23 *6716:A *508:78 0
24 *6718:B2 *508:78 0.00147639
25 *6720:A1 *6720:B2 4.1325e-05
26 *6720:A2 *6720:B2 0.00015003
27 *6736:A2 *508:48 3.046e-05
28 *6736:B1 *508:78 9.03127e-05
29 *6736:B2 *508:78 0.000103253
30 *6843:D *6720:B2 5.52302e-05
31 *6859:CLK *508:48 1.76039e-05
32 *6859:D *508:48 0.000102197
33 *6864:CLK *6720:B2 0.000165491
34 *6992:A *508:78 0.000361012
35 *7587:A *6576:B 0
36 *186:54 *508:78 0.00013886
37 *186:56 *508:78 0.000445573
38 *186:70 *508:78 1.27473e-05
39 *265:12 *508:78 9.96242e-05
40 *290:15 *508:78 0.00111603
41 *302:17 *6720:B2 0
42 *302:173 *508:78 0.000303709
43 *303:51 *508:78 0.000201473
44 *306:25 *508:78 0.000101601
45 *337:14 *6720:B2 9.22103e-06
46 *337:22 *6720:B2 3.4879e-05
47 *359:16 *6720:B2 8.79856e-06
48 *395:81 *508:78 1.1594e-05
49 *395:83 *508:78 3.42147e-05
50 *395:100 *508:10 0.000167125
51 *395:100 *508:48 9.58074e-05
52 *400:14 *6577:B 9.90431e-05
53 *401:16 *508:78 0.00086448
54 *401:33 *508:78 0.00111365
55 *401:56 *508:10 0
56 *401:56 *508:48 0
57 *411:147 *6720:B2 9.71123e-06
58 *426:10 *508:78 0
59 *431:62 *6576:B 0.000223176
60 *433:21 *508:78 1.76266e-05
61 *475:62 *508:78 0.000625787
62 *502:45 *6576:B 1.03483e-05
63 *502:45 *508:78 0
64 *506:31 *508:78 2.81194e-05
65 *507:16 *508:10 0.000322502
*RES
1 *6799:Q *508:10 20.5321 
2 *508:10 *508:14 9.55357 
3 *508:14 *6576:B 39.925 
4 *508:14 *6577:B 11.0857 
5 *508:10 *508:48 10.9643 
6 *508:48 *508:78 46.0986 
7 *508:78 *6720:B2 26.9786 
8 *508:48 *6736:A1 9.3 
*END

*D_NET *509 0.0212474
*CONN
*I *6569:B I *D sky130_fd_sc_hd__xor2_2
*I *6737:A1 I *D sky130_fd_sc_hd__a22o_2
*I *6721:B2 I *D sky130_fd_sc_hd__a22o_2
*I *6800:Q O *D sky130_fd_sc_hd__dfrtp_2
*CAP
1 *6569:B 0.000405366
2 *6737:A1 0
3 *6721:B2 0.000233609
4 *6800:Q 0
5 *509:33 0.00136339
6 *509:14 0.00377082
7 *509:12 0.00473933
8 *509:4 0.00216014
9 *509:12 *543:16 0.000224456
10 *509:14 *6758:A 0.00153795
11 *509:14 *543:31 4.18895e-05
12 *6599:B *509:12 4.00276e-06
13 *6599:B *509:33 2.48109e-05
14 *6729:B2 *6721:B2 0
15 *6736:B1 *509:33 0.000112662
16 *6736:B2 *6569:B 0.000268409
17 *6737:A2 *6569:B 3.046e-05
18 *6790:RESET_B *509:12 0.000109314
19 *6800:RESET_B *509:12 4.52558e-05
20 *6859:CLK *6569:B 5.66157e-05
21 *7023:A *509:14 3.69047e-06
22 *7587:A *6569:B 0
23 *155:51 *509:33 2.26714e-05
24 *186:54 *509:14 0.00021187
25 *186:56 *509:14 0.00077021
26 *186:70 *509:14 0.000237937
27 *290:15 *509:14 0.00040522
28 *302:173 *509:14 0.00160345
29 *306:8 *6569:B 0.000170661
30 *306:21 *6569:B 0.000104042
31 *395:81 *509:33 9.54798e-06
32 *395:83 *509:33 4.15592e-05
33 *396:130 *6569:B 1.21258e-05
34 *401:54 *509:33 6.44928e-05
35 *401:56 *509:33 8.15939e-05
36 *403:61 *509:12 0.000261234
37 *425:66 *509:12 3.25078e-05
38 *425:66 *509:14 4.85567e-05
39 *433:21 *509:33 0
40 *440:76 *509:14 0.000168638
41 *504:24 *6569:B 0.000534229
42 *508:78 *509:14 0.00133469
*RES
1 *6800:Q *509:4 9.3 
2 *509:4 *509:12 25.3214 
3 *509:12 *509:14 84.3214 
4 *509:14 *6721:B2 21.7643 
5 *509:4 *509:33 21.9286 
6 *509:33 *6737:A1 9.3 
7 *509:33 *6569:B 19.8661 
*END

*D_NET *510 0.0322865
*CONN
*I *6738:A1 I *D sky130_fd_sc_hd__a22o_2
*I *6722:B2 I *D sky130_fd_sc_hd__a22o_2
*I *6582:B I *D sky130_fd_sc_hd__xor2_2
*I *6801:Q O *D sky130_fd_sc_hd__dfrtp_2
*CAP
1 *6738:A1 0
2 *6722:B2 4.93935e-05
3 *6582:B 0.00093027
4 *6801:Q 0.000614686
5 *510:55 0.00467565
6 *510:23 0.00494184
7 *6582:B *6510:A 0
8 *6582:B *543:16 5.91336e-05
9 *6582:B *543:31 0
10 *510:23 *6582:A 5.52302e-05
11 *6717:B2 *510:55 0.00424007
12 *6718:B2 *510:55 0.00046631
13 *6719:A1 *510:55 1.90936e-05
14 *6719:A2 *510:55 0.000248841
15 *6719:B1 *510:55 3.84085e-05
16 *6722:B1 *6722:B2 5.80706e-06
17 *6738:A2 *510:23 0.000509459
18 *6738:B2 *510:55 1.03859e-05
19 *6776:RESET_B *6582:B 0
20 *6801:CLK *6582:B 0.00023139
21 *6801:RESET_B *6582:B 2.51837e-05
22 *6861:D *510:23 0.000177547
23 *7038:A *6722:B2 1.63058e-05
24 *155:51 *510:55 0.00178301
25 *337:46 *510:55 0.000158606
26 *359:16 *510:55 0.00343426
27 *359:89 *6722:B2 0
28 *396:28 *510:23 7.08266e-05
29 *403:61 *6582:B 0
30 *425:66 *6582:B 5.7254e-05
31 *430:52 *6582:B 4.60235e-05
32 *475:54 *6582:B 0.000526039
33 *475:110 *510:55 0.00304382
34 *477:18 *510:55 0.000301758
35 *478:43 *510:55 0.000395868
36 *499:28 *510:55 0.000511201
37 *504:76 *510:55 0.00464283
*RES
1 *6801:Q *6582:B 33.1571 
2 *6582:B *510:23 7.47321 
3 *510:23 *510:55 49.2297 
4 *510:55 *6722:B2 18.0939 
5 *510:23 *6738:A1 9.3 
*END

*D_NET *511 0.0249097
*CONN
*I *6723:B2 I *D sky130_fd_sc_hd__a22o_2
*I *6739:A1 I *D sky130_fd_sc_hd__a22o_2
*I *6572:B I *D sky130_fd_sc_hd__xor2_2
*I *6802:Q O *D sky130_fd_sc_hd__dfrtp_2
*CAP
1 *6723:B2 0.00087648
2 *6739:A1 0
3 *6572:B 0.000113026
4 *6802:Q 0.00158375
5 *511:55 0.0043062
6 *511:53 0.00429631
7 *511:34 0.000886537
8 *511:22 0.00171673
9 *511:22 *6985:A 1.92905e-05
10 *511:22 *512:73 7.82232e-05
11 *6635:A1 *6723:B2 0.00016384
12 *6640:A1 *6723:B2 0
13 *6641:S *511:55 0.000151061
14 *6723:A2 *6723:B2 3.21334e-05
15 *6726:A1 *6723:B2 3.40886e-05
16 *6726:A2 *6723:B2 0.000160803
17 *6739:A2 *6572:B 0.000145411
18 *6739:A2 *511:34 8.08022e-05
19 *6739:A2 *511:53 1.02504e-05
20 *6739:B1 *6572:B 0.000148712
21 *6739:B1 *511:34 7.22594e-05
22 *6739:B2 *511:22 1.3228e-05
23 *6806:D *511:22 0.000313007
24 *6846:D *6723:B2 0.000483915
25 *6846:RESET_B *6723:B2 4.96254e-05
26 *6849:D *6723:B2 2.84109e-05
27 *6862:D *511:22 6.57032e-05
28 *6922:A *6572:B 9.41642e-05
29 *7027:A *511:55 0.00013262
30 *7028:A *6723:B2 0
31 *7028:A *511:55 0.000104937
32 *7035:A *6723:B2 0.000180907
33 *3:16 *511:53 8.43729e-05
34 *155:14 *511:53 0.00263826
35 *155:18 *511:53 2.47093e-05
36 *187:27 *511:53 0.000150697
37 *300:12 *511:55 0.000533935
38 *301:45 *511:55 0.000723027
39 *301:62 *511:55 0.000561874
40 *301:69 *511:55 0.000227322
41 *302:17 *511:53 0
42 *302:19 *511:53 0.000245832
43 *311:43 *6572:B 3.90258e-05
44 *312:20 *511:55 6.25993e-05
45 *312:29 *511:55 0.00050689
46 *314:44 *511:55 0.000615715
47 *316:10 *6723:B2 0.000111491
48 *316:38 *6723:B2 0.000311208
49 *316:55 *6723:B2 0.000494916
50 *334:10 *6723:B2 9.25014e-06
51 *348:35 *511:55 0.000115825
52 *440:93 *511:53 0.000758901
53 *500:35 *511:22 0.000237307
54 *501:85 *6572:B 0.000114134
*RES
1 *6802:Q *511:22 44.3714 
2 *511:22 *6572:B 8.15179 
3 *511:22 *511:34 1.03571 
4 *511:34 *6739:A1 13.8 
5 *511:34 *511:53 45.1964 
6 *511:53 *511:55 49.4107 
7 *511:55 *6723:B2 42.3179 
*END

*D_NET *512 0.018318
*CONN
*I *6724:B2 I *D sky130_fd_sc_hd__a22o_2
*I *6568:B I *D sky130_fd_sc_hd__or2_2
*I *6740:A1 I *D sky130_fd_sc_hd__a22o_2
*I *6567:B I *D sky130_fd_sc_hd__nand2_2
*I *6803:Q O *D sky130_fd_sc_hd__dfrtp_2
*CAP
1 *6724:B2 0.000248874
2 *6568:B 0.000188158
3 *6740:A1 0.000174263
4 *6567:B 2.8673e-05
5 *6803:Q 2.99504e-05
6 *512:73 0.00233284
7 *512:57 0.00371038
8 *512:14 0.000237908
9 *512:10 0.00036537
10 *512:8 0.0017986
11 *6740:A1 *6567:A 3.36039e-05
12 *6740:A1 *528:26 5.52302e-05
13 *512:10 *6754:A 5.58941e-05
14 *512:57 *6754:A 0.000171368
15 *512:57 *6781:D 0.000314253
16 *512:57 *547:10 0.000114759
17 *6570:B *512:57 0.000129944
18 *6589:A1 *6568:B 0.000244065
19 *6641:A0 *6724:B2 4.35567e-05
20 *6724:A1 *6724:B2 0.000448959
21 *6724:A2 *6724:B2 3.046e-05
22 *6728:A1 *512:73 9.71197e-05
23 *6728:A2 *512:73 3.046e-05
24 *6739:B2 *512:73 0.000652583
25 *6740:B1 *6740:A1 5.52302e-05
26 *6740:B2 *6740:A1 5.33005e-05
27 *6770:D *512:57 5.97211e-05
28 *6787:D *512:57 0.0001399
29 *6787:RESET_B *512:57 0.000785688
30 *6804:CLK *512:73 6.87476e-05
31 *6804:D *512:73 0.000724293
32 *6806:D *512:73 0.000134192
33 *6862:D *512:73 0.000355537
34 *6911:A *512:73 0.000621848
35 *7000:A *512:57 0.000405727
36 *7039:A *512:57 0.000493359
37 *302:191 *6568:B 4.58194e-05
38 *311:18 *6724:B2 0.000633142
39 *311:18 *512:73 0.00122932
40 *311:24 *512:73 0.000117956
41 *311:87 *512:8 9.41642e-05
42 *348:18 *512:73 3.77018e-05
43 *348:35 *6724:B2 0.000166485
44 *348:35 *512:73 2.24079e-05
45 *403:61 *6568:B 1.11775e-05
46 *403:61 *512:10 8.44545e-05
47 *426:110 *512:57 0.000100831
48 *500:35 *512:73 0.000167305
49 *501:65 *512:8 9.41642e-05
50 *511:22 *512:73 7.82232e-05
*RES
1 *6803:Q *512:8 14.7464 
2 *512:8 *512:10 2.85714 
3 *512:10 *512:14 5.03571 
4 *512:14 *6567:B 9.83571 
5 *512:14 *6740:A1 12.3179 
6 *512:10 *6568:B 17.6036 
7 *512:8 *512:57 42.2857 
8 *512:57 *512:73 44.1071 
9 *512:73 *6724:B2 19.4429 
*END

*D_NET *513 0.0231063
*CONN
*I *6725:B2 I *D sky130_fd_sc_hd__a22o_2
*I *6581:B I *D sky130_fd_sc_hd__xor2_2
*I *6741:A1 I *D sky130_fd_sc_hd__a22o_2
*I *6804:Q O *D sky130_fd_sc_hd__dfrtp_2
*CAP
1 *6725:B2 0
2 *6581:B 0.000180603
3 *6741:A1 0.000280706
4 *6804:Q 0.00035776
5 *513:83 0.00233555
6 *513:59 0.00601447
7 *513:49 0.00401366
8 *513:14 0.0004882
9 *513:12 0.000719378
10 *6581:B *6581:A 0.000235725
11 *513:12 *6987:A 0.000132479
12 *513:14 *6987:A 2.06112e-05
13 *6560:A *513:83 6.10501e-05
14 *6560:C *513:83 7.86636e-05
15 *6634:A0 *513:83 0
16 *6641:A1 *513:59 9.58493e-05
17 *6723:B1 *513:83 0.000286934
18 *6725:A1 *513:83 0.000104263
19 *6727:A2 *513:59 0.00015676
20 *6727:B2 *513:49 0.00140653
21 *6727:B2 *513:59 2.59355e-05
22 *6729:A2 *513:59 1.46968e-05
23 *6729:B1 *513:59 0.000160816
24 *6730:A1 *513:83 0.000265447
25 *6741:B1 *6741:A1 5.52302e-05
26 *6741:B2 *6741:A1 0.00011089
27 *6741:B2 *513:14 9.22222e-06
28 *6842:CLK *513:59 4.42441e-05
29 *6842:D *513:59 7.84126e-05
30 *6844:RESET_B *513:59 0.000246128
31 *6845:CLK *513:83 4.02462e-05
32 *6855:CLK *513:59 0.000255989
33 *6862:D *513:12 3.86136e-05
34 *6904:A *513:59 9.55794e-05
35 *6952:A *513:83 0.000105142
36 *6957:A *513:59 1.02821e-05
37 *7031:A *513:83 0.000480251
38 *7033:A *513:83 0.000139028
39 *302:17 *513:49 7.69776e-06
40 *302:105 *513:59 2.94775e-05
41 *303:51 *6741:A1 0.000168357
42 *311:24 *513:12 0.000188586
43 *337:22 *513:59 0.000875903
44 *359:89 *513:83 4.8843e-05
45 *359:91 *513:83 1.02936e-05
46 *359:99 *513:83 0.000326116
47 *370:10 *513:49 9.87983e-06
48 *370:46 *513:59 4.61474e-05
49 *420:10 *513:83 1.15172e-05
50 *422:85 *513:59 0.000392112
51 *423:71 *513:59 0.000175578
52 *426:10 *6741:A1 0
53 *426:17 *513:12 0
54 *501:103 *513:12 0
55 *503:55 *513:49 0.00141255
56 *503:55 *513:59 0.000115077
57 *508:78 *6741:A1 0.00014285
*RES
1 *6804:Q *513:12 19.4161 
2 *513:12 *513:14 0.580357 
3 *513:14 *6741:A1 19.9964 
4 *513:14 *6581:B 7.86607 
5 *513:12 *513:49 13.8058 
6 *513:49 *513:59 49.8929 
7 *513:59 *513:83 44.0893 
8 *513:83 *6725:B2 9.3 
*END

*D_NET *514 0.0343173
*CONN
*I *6580:B I *D sky130_fd_sc_hd__xor2_2
*I *6742:A1 I *D sky130_fd_sc_hd__a22o_2
*I *6726:B2 I *D sky130_fd_sc_hd__a22o_2
*I *6805:Q O *D sky130_fd_sc_hd__dfrtp_2
*CAP
1 *6580:B 0.000747723
2 *6742:A1 4.07332e-05
3 *6726:B2 0
4 *6805:Q 0.00053077
5 *514:34 0.0023035
6 *514:32 0.0023035
7 *514:30 0.0043873
8 *514:28 0.00639811
9 *514:24 0.00325491
10 *514:20 0.00194718
11 *514:12 0.00085506
12 *514:10 0.00138974
13 *6580:B *6580:A 0.000292407
14 *514:20 *520:31 0
15 *514:24 *6612:A 6.74815e-05
16 *514:24 *6646:A1 1.91512e-05
17 *514:24 *6774:D 9.97552e-05
18 *514:28 *6546:B 0.000288644
19 *514:28 *7219:A 1.52168e-05
20 *514:28 *7229:A 0.000159524
21 *514:28 *7240:A 9.57215e-05
22 *514:28 *7242:A 3.52408e-05
23 *514:28 *7246:A 7.18844e-05
24 *514:28 *7247:A 9.47974e-05
25 *514:28 *7248:A 9.47974e-05
26 *514:28 *531:24 0.000105384
27 *6612:B *514:24 0
28 *6726:B1 *514:34 0.00035077
29 *6742:A2 *6742:A1 0.000158956
30 *6742:B2 *6742:A1 0.000227532
31 *6747:B2 *514:20 5.62934e-05
32 *6768:RESET_B *514:10 0
33 *6768:RESET_B *514:12 0
34 *6768:RESET_B *514:20 0
35 *6805:D *514:10 0.000102545
36 *6805:RESET_B *514:10 4.17828e-05
37 *6828:RESET_B *514:24 0.000414755
38 *6865:CLK *6742:A1 3.82411e-05
39 *6865:D *514:10 0
40 *6865:D *514:12 0
41 *6865:RESET_B *6580:B 3.77486e-05
42 *6873:D *514:24 2.09177e-05
43 *6923:A *514:24 0.00101027
44 *7034:A *514:34 0
45 *154:25 *514:30 0.00166721
46 *155:51 *514:20 0
47 *186:42 *514:20 0.000140933
48 *186:42 *514:24 0.000154146
49 *205:12 *514:28 0
50 *302:199 *514:12 4.22135e-06
51 *302:199 *514:20 5.49035e-05
52 *316:55 *514:34 0.000148903
53 *316:59 *514:34 0.000350697
54 *337:67 *514:34 3.52194e-05
55 *396:130 *514:20 6.79057e-05
56 *398:68 *514:24 0
57 *428:10 *514:24 0.000144038
58 *428:27 *514:24 0.000246064
59 *428:41 *514:24 0.000196276
60 *433:21 *514:10 0.000192308
61 *433:21 *514:12 8.2791e-05
62 *433:21 *514:20 0.000279564
63 *451:20 *514:34 0.000260413
64 *475:23 *514:24 0.000491963
65 *475:54 *514:24 0.000129463
66 *478:45 *514:34 0
67 *481:20 *514:28 0.000192976
68 *481:20 *514:30 0.00111693
69 *481:36 *514:28 0.000274294
70 *481:46 *514:28 2.77173e-05
*RES
1 *6805:Q *514:10 22.6036 
2 *514:10 *514:12 2.25 
3 *514:12 *514:20 22.2857 
4 *514:20 *514:24 37.7143 
5 *514:24 *514:28 39.3661 
6 *514:28 *514:30 92.3304 
7 *514:30 *514:32 4.5 
8 *514:32 *514:34 48.0893 
9 *514:34 *6726:B2 13.8 
10 *514:12 *6742:A1 15.9786 
11 *514:10 *6580:B 14.8839 
*END

*D_NET *515 0.00160983
*CONN
*I *6583:A I *D sky130_fd_sc_hd__xor2_2
*I *6991:A I *D sky130_fd_sc_hd__dlygate4sd3_1
*I *6856:Q O *D sky130_fd_sc_hd__dfrtp_2
*CAP
1 *6583:A 0.000189608
2 *6991:A 0.000295463
3 *6856:Q 0
4 *515:6 0.000485072
5 *6991:A *1084:28 0.000133328
6 *6583:B *6583:A 0.000156985
7 *6584:B *6583:A 2.62628e-05
8 *6733:B2 *6991:A 0.000323108
*RES
1 *6856:Q *515:6 13.8 
2 *515:6 *6991:A 20.7107 
3 *515:6 *6583:A 17.4964 
*END

*D_NET *516 0.00107475
*CONN
*I *6570:A I *D sky130_fd_sc_hd__xor2_2
*I *6988:A I *D sky130_fd_sc_hd__dlygate4sd3_1
*I *6866:Q O *D sky130_fd_sc_hd__dfrtp_2
*CAP
1 *6570:A 0
2 *6988:A 0.000169242
3 *6866:Q 0.000187988
4 *516:10 0.00035723
5 *6570:B *516:10 0
6 *6584:A *6988:A 0
7 *6584:A *516:10 0
8 *6781:CLK *516:10 1.74352e-05
9 *6856:RESET_B *6988:A 0
10 *6856:RESET_B *516:10 0
11 *311:43 *6988:A 0.00014285
12 *426:110 *516:10 5.52302e-05
13 *501:85 *6988:A 0.000144773
*RES
1 *6866:Q *516:10 16.6929 
2 *516:10 *6988:A 17.4071 
3 *516:10 *6570:A 13.8 
*END

*D_NET *517 0.00374698
*CONN
*I *6971:A I *D sky130_fd_sc_hd__dlygate4sd3_1
*I *6574:A I *D sky130_fd_sc_hd__or2_2
*I *6573:A I *D sky130_fd_sc_hd__nand2_2
*I *6867:Q O *D sky130_fd_sc_hd__dfrtp_2
*CAP
1 *6971:A 8.35986e-05
2 *6574:A 0.00017999
3 *6573:A 9.2157e-05
4 *6867:Q 0.000284291
5 *517:16 0.000706689
6 *517:10 0.000802432
7 *517:16 *6578:A 2.89114e-05
8 *6573:B *6573:A 5.52238e-05
9 *6578:B *6573:A 6.37237e-05
10 *6578:B *517:16 1.56e-05
11 *6591:A1 *6573:A 5.52238e-05
12 *6594:A1 *517:16 7.33323e-06
13 *6744:B1 *6971:A 1.24368e-05
14 *6744:B2 *6971:A 5.33005e-05
15 *6745:A2 *6971:A 1.04707e-05
16 *6745:B1 *6971:A 5.20232e-05
17 *6748:A2 *6971:A 0.000113119
18 *6748:A2 *517:10 7.80096e-05
19 *6748:B1 *6971:A 2.07371e-05
20 *6748:B1 *517:10 4.04863e-05
21 *6867:CLK *6573:A 0
22 *6867:CLK *517:16 9.90367e-05
23 *6867:RESET_B *517:10 2.81497e-05
24 *187:37 *6574:A 0.000146625
25 *302:239 *6574:A 0
26 *309:16 *517:10 0.000177434
27 *309:16 *517:16 0.000180777
28 *395:124 *6971:A 2.06178e-05
29 *505:26 *6574:A 0.000248631
30 *505:81 *6574:A 8.99513e-05
*RES
1 *6867:Q *517:10 19.8893 
2 *517:10 *517:16 10.0893 
3 *517:16 *6573:A 11.3893 
4 *517:16 *6574:A 22.675 
5 *517:10 *6971:A 15.9786 
*END

*D_NET *518 0.00362195
*CONN
*I *6592:A I *D sky130_fd_sc_hd__xor2_2
*I *6981:A I *D sky130_fd_sc_hd__dlygate4sd3_1
*I *6868:Q O *D sky130_fd_sc_hd__dfrtp_2
*CAP
1 *6592:A 0.000219685
2 *6981:A 0.000118936
3 *6868:Q 0.000658011
4 *518:8 0.000996632
5 *6574:B *6981:A 9.41642e-05
6 *6592:B *6592:A 9.23695e-05
7 *6593:D *6592:A 0.000315158
8 *6745:B2 *6981:A 7.61932e-05
9 *6765:CLK *518:8 5.52302e-05
10 *6808:CLK *6592:A 0.000162832
11 *187:37 *6592:A 0
12 *302:239 *6592:A 1.17968e-05
13 *302:239 *6981:A 6.65398e-05
14 *309:29 *6592:A 8.32242e-05
15 *309:29 *6981:A 0.00012401
16 *309:38 *518:8 0.000276726
17 *503:20 *518:8 3.06878e-06
18 *504:24 *6981:A 0.000267377
*RES
1 *6868:Q *518:8 22.1393 
2 *518:8 *6981:A 18.0321 
3 *518:8 *6592:A 19.9607 
*END

*D_NET *519 0.00204616
*CONN
*I *6575:A I *D sky130_fd_sc_hd__xor2_2
*I *6983:A I *D sky130_fd_sc_hd__dlygate4sd3_1
*I *6869:Q O *D sky130_fd_sc_hd__dfrtp_2
*CAP
1 *6575:A 0
2 *6983:A 0.000210428
3 *6869:Q 0.000386312
4 *519:10 0.00059674
5 *6593:B *6983:A 6.87975e-06
6 *6593:B *519:10 2.83284e-06
7 *6593:D *6983:A 0.000338876
8 *6746:A1 *6983:A 8.96049e-05
9 *6869:RESET_B *519:10 0.000138106
10 *307:28 *519:10 0
11 *307:34 *519:10 8.55687e-05
12 *402:118 *519:10 0
13 *501:65 *519:10 3.67124e-06
14 *503:35 *6983:A 4.03577e-05
15 *503:35 *519:10 6.87834e-06
16 *504:24 *6983:A 0.000139907
*RES
1 *6869:Q *519:10 19.5679 
2 *519:10 *6983:A 19.8357 
3 *519:10 *6575:A 13.8 
*END

*D_NET *520 0.00268209
*CONN
*I *6586:A I *D sky130_fd_sc_hd__or2_2
*I *6585:A I *D sky130_fd_sc_hd__nand2_2
*I *6975:A I *D sky130_fd_sc_hd__dlygate4sd3_1
*I *6870:Q O *D sky130_fd_sc_hd__dfrtp_2
*CAP
1 *6586:A 0.00021697
2 *6585:A 0
3 *6975:A 0.000243626
4 *6870:Q 0.000157383
5 *520:31 0.000467068
6 *520:6 0.000651107
7 *6586:B *6586:A 6.11983e-05
8 *6768:RESET_B *6975:A 1.3142e-05
9 *6768:RESET_B *520:31 4.22135e-06
10 *6870:RESET_B *6586:A 6.21688e-05
11 *155:51 *520:31 0.000221363
12 *306:21 *6975:A 5.21937e-05
13 *306:21 *520:6 8.37335e-05
14 *396:130 *6975:A 9.91086e-05
15 *504:24 *6586:A 2.42554e-05
16 *504:24 *520:31 9.70158e-05
17 *504:28 *6586:A 0.000227532
18 *514:20 *520:31 0
*RES
1 *6870:Q *520:6 11.4786 
2 *520:6 *6975:A 21.7107 
3 *520:6 *520:31 13.6607 
4 *520:31 *6585:A 9.3 
5 *520:31 *6586:A 22.9607 
*END

*D_NET *521 0.00374551
*CONN
*I *6579:A I *D sky130_fd_sc_hd__nand2_2
*I *6578:A I *D sky130_fd_sc_hd__or2_2
*I *6972:A I *D sky130_fd_sc_hd__dlygate4sd3_1
*I *6871:Q O *D sky130_fd_sc_hd__dfrtp_2
*CAP
1 *6579:A 5.57291e-05
2 *6578:A 0.0001172
3 *6972:A 0
4 *6871:Q 0.000954619
5 *521:12 0.000314694
6 *521:6 0.00120784
7 *6594:A1 *6578:A 0.00016208
8 *6594:A1 *521:12 1.02504e-05
9 *6594:A2 *6579:A 5.52302e-05
10 *6594:A2 *521:12 0.000185643
11 *6748:A1 *6579:A 9.90431e-05
12 *6748:A1 *521:6 8.71761e-05
13 *6748:A2 *521:6 1.50923e-05
14 *6871:D *521:6 4.37931e-05
15 *6871:RESET_B *521:6 0.000138106
16 *302:239 *6578:A 7.22823e-05
17 *302:253 *6578:A 4.1331e-06
18 *302:253 *521:12 4.57445e-05
19 *308:18 *521:6 5.64788e-05
20 *505:26 *6578:A 6.21521e-06
21 *505:45 *6578:A 2.12521e-05
22 *505:45 *521:12 6.39901e-05
23 *517:16 *6578:A 2.89114e-05
*RES
1 *6871:Q *521:6 21.3357 
2 *521:6 *521:12 8.32143 
3 *521:12 *6972:A 13.8 
4 *521:12 *6578:A 17.1929 
5 *521:6 *6579:A 10.9786 
*END

*D_NET *522 0.00397651
*CONN
*I *6587:A I *D sky130_fd_sc_hd__nand2_2
*I *6588:A I *D sky130_fd_sc_hd__or2_2
*I *6977:A I *D sky130_fd_sc_hd__dlygate4sd3_1
*I *6857:Q O *D sky130_fd_sc_hd__dfrtp_2
*CAP
1 *6587:A 3.97762e-05
2 *6588:A 8.77869e-05
3 *6977:A 0
4 *6857:Q 0.000360057
5 *522:23 0.000520438
6 *522:10 0.000752931
7 *6587:B *6587:A 1.33343e-05
8 *6587:B *6588:A 5.52302e-05
9 *6589:B1 *6587:A 4.58976e-05
10 *6589:B1 *6588:A 1.98839e-05
11 *6590:D1 *6588:A 4.51611e-05
12 *6734:B1 *522:10 7.0538e-05
13 *6774:RESET_B *522:10 7.45939e-05
14 *6790:RESET_B *522:23 0.000288933
15 *6799:CLK *522:10 0.000167293
16 *6857:CLK *522:10 2.89114e-05
17 *6857:D *522:10 1.02504e-05
18 *6863:CLK *522:23 6.82892e-05
19 *306:27 *522:23 6.31898e-05
20 *306:33 *522:23 0.000150395
21 *306:37 *522:10 0.000154762
22 *306:37 *522:23 0.000384755
23 *396:28 *6587:A 4.43256e-05
24 *396:28 *6588:A 0.000117553
25 *506:27 *522:10 0.000117144
26 *506:27 *522:23 0.000295085
*RES
1 *6857:Q *522:10 22.9429 
2 *522:10 *6977:A 13.8 
3 *522:10 *522:23 16.5893 
4 *522:23 *6588:A 11.9071 
5 *522:23 *6587:A 10.675 
*END

*D_NET *523 0.00202948
*CONN
*I *6571:A I *D sky130_fd_sc_hd__xor2_2
*I *6980:A I *D sky130_fd_sc_hd__dlygate4sd3_1
*I *6858:Q O *D sky130_fd_sc_hd__dfrtp_2
*CAP
1 *6571:A 0.000186805
2 *6980:A 0.000248202
3 *6858:Q 0
4 *523:6 0.000435007
5 *6980:A *6968:A 5.71472e-05
6 *6708:B2 *6980:A 1.5424e-05
7 *6735:B2 *6980:A 0.000320024
8 *6836:RESET_B *6980:A 0
9 *6858:RESET_B *6571:A 0
10 *6858:RESET_B *6980:A 0
11 *308:18 *6571:A 0.000318101
12 *400:14 *6571:A 4.25716e-05
13 *400:14 *6980:A 4.42832e-05
14 *401:107 *6980:A 0.000361914
*RES
1 *6858:Q *523:6 13.8 
2 *523:6 *6980:A 21.1929 
3 *523:6 *6571:A 18.4429 
*END

*D_NET *524 0.00288556
*CONN
*I *6576:A I *D sky130_fd_sc_hd__or2_2
*I *6974:A I *D sky130_fd_sc_hd__dlygate4sd3_1
*I *6577:A I *D sky130_fd_sc_hd__nand2_2
*I *6859:Q O *D sky130_fd_sc_hd__dfrtp_2
*CAP
1 *6576:A 0.000343843
2 *6974:A 0.000225255
3 *6577:A 0.000192194
4 *6859:Q 7.17422e-05
5 *524:23 0.000648041
6 *524:8 0.000342878
7 *6576:B *524:8 3.67142e-05
8 *6591:A2 *6577:A 0
9 *6591:A2 *524:23 0
10 *6591:B2 *6577:A 7.18974e-05
11 *6593:A *6576:A 9.47613e-05
12 *6593:C *6576:A 1.21289e-05
13 *6593:D *6576:A 5.71472e-05
14 *6594:C1 *6576:A 7.32173e-05
15 *6736:B2 *6974:A 0.000276211
16 *6746:A1 *6576:A 5.52302e-05
17 *6746:A1 *6974:A 5.52238e-05
18 *6748:B1 *6576:A 0.000134123
19 *6748:B1 *6974:A 9.22103e-06
20 *6836:RESET_B *6577:A 0
21 *396:130 *6974:A 0.000153863
22 *400:14 *6577:A 3.18676e-05
23 *431:62 *6577:A 0
*RES
1 *6859:Q *524:8 14.7464 
2 *524:8 *6577:A 17.8 
3 *524:8 *524:23 5.53571 
4 *524:23 *6974:A 14.925 
5 *524:23 *6576:A 15.6214 
*END

*D_NET *525 0.000756407
*CONN
*I *6986:A I *D sky130_fd_sc_hd__dlygate4sd3_1
*I *6569:A I *D sky130_fd_sc_hd__xor2_2
*I *6860:Q O *D sky130_fd_sc_hd__dfrtp_2
*CAP
1 *6986:A 0
2 *6569:A 0.000188885
3 *6860:Q 7.79884e-05
4 *525:8 0.000266873
5 *6859:RESET_B *6569:A 0
6 *6869:D *6569:A 5.07726e-05
7 *302:219 *6569:A 1.57046e-05
8 *307:6 *525:8 9.90367e-05
9 *504:24 *6569:A 5.71472e-05
*RES
1 *6860:Q *525:8 10.9786 
2 *525:8 *6569:A 22.05 
3 *525:8 *6986:A 9.3 
*END

*D_NET *526 0.00135905
*CONN
*I *6990:A I *D sky130_fd_sc_hd__dlygate4sd3_1
*I *6582:A I *D sky130_fd_sc_hd__xor2_2
*I *6861:Q O *D sky130_fd_sc_hd__dfrtp_2
*CAP
1 *6990:A 0
2 *6582:A 0.000104143
3 *6861:Q 0.00038088
4 *526:10 0.000485023
5 *6738:A2 *6582:A 8.01067e-05
6 *6738:A2 *526:10 6.63151e-05
7 *6776:RESET_B *6582:A 8.01067e-05
8 *6776:RESET_B *526:10 7.09176e-05
9 *396:28 *6582:A 3.18676e-05
10 *402:99 *526:10 4.46186e-06
11 *510:23 *6582:A 5.52302e-05
*RES
1 *6861:Q *526:10 19.1571 
2 *526:10 *6582:A 16.5857 
3 *526:10 *6990:A 13.8 
*END

*D_NET *527 0.00195489
*CONN
*I *6985:A I *D sky130_fd_sc_hd__dlygate4sd3_1
*I *6572:A I *D sky130_fd_sc_hd__xor2_2
*I *6862:Q O *D sky130_fd_sc_hd__dfrtp_2
*CAP
1 *6985:A 1.55603e-05
2 *6572:A 0.000105219
3 *6862:Q 0.000368312
4 *527:10 0.000489092
5 *6739:B2 *6985:A 5.52302e-05
6 *6866:D *527:10 3.4323e-05
7 *6866:RESET_B *527:10 0.000437808
8 *155:18 *6572:A 0.000191881
9 *155:18 *527:10 0.000113038
10 *500:35 *6572:A 0.000120679
11 *500:35 *527:10 4.46186e-06
12 *511:22 *6985:A 1.92905e-05
*RES
1 *6862:Q *527:10 19.675 
2 *527:10 *6572:A 17.0143 
3 *527:10 *6985:A 14.3357 
*END

*D_NET *528 0.0039967
*CONN
*I *6973:A I *D sky130_fd_sc_hd__dlygate4sd3_1
*I *6568:A I *D sky130_fd_sc_hd__or2_2
*I *6567:A I *D sky130_fd_sc_hd__nand2_2
*I *6863:Q O *D sky130_fd_sc_hd__dfrtp_2
*CAP
1 *6973:A 0.000148166
2 *6568:A 7.57731e-05
3 *6567:A 0.000171889
4 *6863:Q 0.000815361
5 *528:26 0.000597388
6 *528:18 0.00131325
7 *6740:A1 *6567:A 3.36039e-05
8 *6740:A1 *528:26 5.52302e-05
9 *6740:A2 *528:26 1.50923e-05
10 *6740:B1 *6567:A 0
11 *6740:B1 *6568:A 0.000183127
12 *6740:B1 *528:26 2.11419e-05
13 *6740:B2 *6567:A 2.59355e-05
14 *6740:B2 *528:26 5.33072e-05
15 *6769:CLK *6973:A 0.00014285
16 *6769:RESET_B *6567:A 0
17 *6769:RESET_B *6973:A 4.58976e-05
18 *6863:CLK *528:18 3.47641e-06
19 *6863:CLK *528:26 3.69047e-06
20 *6863:D *528:18 6.05161e-06
21 *6863:D *528:26 6.45381e-05
22 *6863:RESET_B *528:18 0
23 *6870:RESET_B *528:18 3.89864e-05
24 *311:87 *6973:A 5.71472e-05
25 *401:10 *6973:A 0
26 *401:10 *528:18 0
27 *401:10 *528:26 1.08175e-05
28 *401:16 *528:26 5.25192e-06
29 *403:61 *6567:A 1.94945e-05
30 *403:61 *6568:A 7.79091e-05
31 *403:61 *528:26 1.13265e-05
*RES
1 *6863:Q *528:18 24.2821 
2 *528:18 *528:26 14.0089 
3 *528:26 *6567:A 16.7018 
4 *528:26 *6568:A 16.2018 
5 *528:18 *6973:A 16.8 
*END

*D_NET *529 0.00156373
*CONN
*I *6581:A I *D sky130_fd_sc_hd__xor2_2
*I *6987:A I *D sky130_fd_sc_hd__dlygate4sd3_1
*I *6864:Q O *D sky130_fd_sc_hd__dfrtp_2
*CAP
1 *6581:A 0.000177461
2 *6987:A 0.000135499
3 *6864:Q 0
4 *529:4 0.00031296
5 *6581:B *6581:A 0.000235725
6 *6741:B2 *6581:A 2.39654e-05
7 *6741:B2 *6987:A 0.000141355
8 *266:14 *6581:A 5.15925e-05
9 *266:14 *6987:A 0.000184745
10 *501:103 *6987:A 0.000147339
11 *513:12 *6987:A 0.000132479
12 *513:14 *6987:A 2.06112e-05
*RES
1 *6864:Q *529:4 9.3 
2 *529:4 *6987:A 22.8357 
3 *529:4 *6581:A 21.3357 
*END

*D_NET *530 0.00146465
*CONN
*I *6580:A I *D sky130_fd_sc_hd__xor2_2
*I *6984:A I *D sky130_fd_sc_hd__dlygate4sd3_1
*I *6865:Q O *D sky130_fd_sc_hd__dfrtp_2
*CAP
1 *6580:A 0.000168185
2 *6984:A 0.000219704
3 *6865:Q 0
4 *530:4 0.000387888
5 *6580:B *6580:A 0.000292407
6 *6768:D *6984:A 0.000172609
7 *6860:RESET_B *6984:A 5.26224e-05
8 *6865:RESET_B *6580:A 2.59355e-05
9 *431:16 *6984:A 0.0001453
10 *433:21 *6984:A 0
*RES
1 *6865:Q *530:4 9.3 
2 *530:4 *6984:A 23.2821 
3 *530:4 *6580:A 13.55 
*END

*D_NET *531 0.00481922
*CONN
*I *6969:A I *D sky130_fd_sc_hd__dlygate4sd3_1
*I *6521:B I *D sky130_fd_sc_hd__and2_2
*I *6546:B I *D sky130_fd_sc_hd__and2_2
*I *6813:Q O *D sky130_fd_sc_hd__dfrtp_2
*CAP
1 *6969:A 0
2 *6521:B 0.000239614
3 *6546:B 0.000163273
4 *6813:Q 0.000526354
5 *531:24 0.000626427
6 *531:18 0.000749895
7 *6521:B *7229:A 6.74911e-05
8 *6521:B *7238:A 0
9 *6521:B *7250:A 0.000125731
10 *6546:B *7229:A 9.71197e-05
11 *531:18 *7243:A 0.000261569
12 *531:18 *7244:A 9.73299e-06
13 *531:18 *7246:A 0.000298643
14 *531:24 *7229:A 7.18982e-05
15 *531:24 *7240:A 9.57215e-05
16 *531:24 *7242:A 6.5185e-05
17 *531:24 *7246:A 0.000177234
18 *6645:A0 *531:18 9.91375e-05
19 *6796:D *531:18 0
20 *6813:D *531:18 7.6997e-05
21 *6813:RESET_B *531:18 3.80667e-05
22 *145:12 *6521:B 5.52238e-05
23 *221:24 *531:18 2.81946e-05
24 *285:9 *6521:B 3.18676e-05
25 *317:27 *531:18 4.58605e-05
26 *317:42 *531:18 6.56312e-06
27 *317:50 *531:24 0
28 *481:46 *6521:B 0
29 *481:46 *6546:B 0.000467392
30 *514:28 *6546:B 0.000288644
31 *514:28 *531:24 0.000105384
*RES
1 *6813:Q *531:18 32.8893 
2 *531:18 *531:24 10.4643 
3 *531:24 *6546:B 15.6036 
4 *531:24 *6521:B 23.5143 
5 *531:18 *6969:A 13.8 
*END

*D_NET *532 0.00249334
*CONN
*I *6763:A I *D sky130_fd_sc_hd__inv_2
*I *6771:D I *D sky130_fd_sc_hd__dfrtp_2
*I *6505:A I *D sky130_fd_sc_hd__inv_2
*I *6795:Q O *D sky130_fd_sc_hd__dfrtp_2
*CAP
1 *6763:A 0.000201439
2 *6771:D 6.92446e-05
3 *6505:A 3.34397e-05
4 *6795:Q 0.000632938
5 *532:21 0.00038657
6 *532:10 0.000782264
7 *532:10 *6795:CLK 2.72859e-05
8 *6771:CLK *6771:D 7.77652e-05
9 *6771:RESET_B *6763:A 8.73652e-05
10 *6771:RESET_B *532:21 2.8266e-06
11 *6794:CLK *6763:A 3.18676e-05
12 *6795:D *6505:A 1.58163e-05
13 *6795:D *532:10 7.83587e-05
14 *6795:RESET_B *532:10 1.20135e-05
15 *499:12 *6763:A 5.41494e-05
*RES
1 *6795:Q *532:10 22.0321 
2 *532:10 *6505:A 14.3357 
3 *532:10 *532:21 1.94643 
4 *532:21 *6771:D 15.1571 
5 *532:21 *6763:A 18.3179 
*END

*D_NET *533 0.00871117
*CONN
*I *6753:A I *D sky130_fd_sc_hd__inv_2
*I *6515:A I *D sky130_fd_sc_hd__inv_2
*I *6781:D I *D sky130_fd_sc_hd__dfrtp_2
*I *6769:Q O *D sky130_fd_sc_hd__dfrtp_2
*CAP
1 *6753:A 0.000136589
2 *6515:A 2.30826e-05
3 *6781:D 0.000417084
4 *6769:Q 0
5 *533:28 0.0016313
6 *533:12 0.00143485
7 *533:4 0.000334138
8 *6781:D *546:20 0.000313076
9 *6781:D *546:22 0.000879478
10 *533:28 *6514:A 0.000227526
11 *533:28 *6780:D 5.71242e-05
12 *6570:B *6781:D 0.000206578
13 *6768:RESET_B *6753:A 0.000272371
14 *6769:D *533:12 4.38128e-05
15 *6769:D *533:28 0.00031557
16 *6787:D *6781:D 7.32173e-05
17 *6787:RESET_B *6781:D 4.96155e-05
18 *6788:RESET_B *533:28 0
19 *6805:CLK *6515:A 0
20 *6805:CLK *533:12 7.15846e-05
21 *6805:CLK *533:28 0.0004486
22 *6805:D *533:12 0
23 *6863:RESET_B *533:28 0
24 *7012:A *533:28 7.77751e-05
25 *7016:A *6753:A 0.000144773
26 *7039:A *6781:D 0.000573291
27 *401:10 *533:28 2.72967e-05
28 *402:99 *533:28 0.000279626
29 *402:118 *533:28 5.33005e-05
30 *501:65 *6753:A 0.000305253
31 *512:57 *6781:D 0.000314253
*RES
1 *6769:Q *533:4 9.3 
2 *533:4 *533:12 12.7143 
3 *533:12 *533:28 43 
4 *533:28 *6781:D 29.55 
5 *533:12 *6515:A 9.72857 
6 *533:4 *6753:A 14.8 
*END

*D_NET *534 0.0028073
*CONN
*I *6752:A I *D sky130_fd_sc_hd__inv_2
*I *6782:D I *D sky130_fd_sc_hd__dfrtp_2
*I *6516:A I *D sky130_fd_sc_hd__inv_2
*I *6768:Q O *D sky130_fd_sc_hd__dfrtp_2
*CAP
1 *6752:A 0.000667439
2 *6782:D 0.00073486
3 *6516:A 0.000249591
4 *6768:Q 0.000257096
5 *534:10 0.000574109
6 *6742:B2 *534:10 0
7 *6782:CLK *6516:A 1.33343e-05
8 *6782:CLK *6752:A 0.000105649
9 *6782:CLK *6782:D 7.17235e-05
10 *6782:CLK *534:10 0
11 *7006:A *6752:A 3.44618e-05
12 *431:10 *6516:A 9.90367e-05
13 *431:10 *534:10 0
14 *431:16 *534:10 0
*RES
1 *6768:Q *534:10 22.3714 
2 *534:10 *6516:A 13.9607 
3 *534:10 *6782:D 10.6571 
4 *6782:D *6752:A 27.2116 
*END

*D_NET *535 0.00141643
*CONN
*I *6783:D I *D sky130_fd_sc_hd__dfrtp_2
*I *6751:A I *D sky130_fd_sc_hd__inv_2
*I *6517:A I *D sky130_fd_sc_hd__inv_2
*I *6767:Q O *D sky130_fd_sc_hd__dfrtp_2
*CAP
1 *6783:D 0.000114198
2 *6751:A 0
3 *6517:A 9.36172e-05
4 *6767:Q 7.68208e-05
5 *535:14 0.000212462
6 *535:10 0.000309863
7 *6766:CLK *6783:D 8.25843e-06
8 *6809:CLK *535:10 0
9 *6810:CLK *535:10 0.000125724
10 *307:71 *6517:A 0.000276211
11 *307:71 *6783:D 1.98839e-05
12 *307:71 *535:14 9.02232e-05
13 *502:12 *535:10 8.91726e-05
*RES
1 *6767:Q *535:10 20.55 
2 *535:10 *535:14 2.19643 
3 *535:14 *6517:A 11.8893 
4 *535:14 *6751:A 9.3 
5 *535:10 *6783:D 11.0679 
*END

*D_NET *536 0.00234711
*CONN
*I *6750:A I *D sky130_fd_sc_hd__inv_2
*I *6518:A I *D sky130_fd_sc_hd__inv_2
*I *6784:D I *D sky130_fd_sc_hd__dfrtp_2
*I *6766:Q O *D sky130_fd_sc_hd__dfrtp_2
*CAP
1 *6750:A 0
2 *6518:A 0.000182315
3 *6784:D 0.00048723
4 *6766:Q 0.000362381
5 *536:28 0.000307163
6 *6765:CLK *536:28 5.71472e-05
7 *6784:RESET_B *6784:D 0.000105574
8 *6809:CLK *6518:A 6.41079e-05
9 *6810:CLK *6518:A 0.000112418
10 *6867:RESET_B *6518:A 0
11 *309:38 *536:28 0.000142856
12 *404:95 *6784:D 0
13 *438:26 *6518:A 0
14 *438:45 *6518:A 0.000139907
15 *503:16 *6784:D 0.000134489
16 *503:20 *6784:D 0.000198352
17 *503:20 *536:28 3.57315e-05
18 *504:12 *6518:A 1.74352e-05
*RES
1 *6766:Q *6784:D 36.3143 
2 *6784:D *536:28 12.4429 
3 *536:28 *6518:A 22.5143 
4 *536:28 *6750:A 9.3 
*END

*D_NET *537 0.00343161
*CONN
*I *6519:A I *D sky130_fd_sc_hd__inv_2
*I *6785:D I *D sky130_fd_sc_hd__dfrtp_2
*I *6749:A I *D sky130_fd_sc_hd__inv_2
*I *6765:Q O *D sky130_fd_sc_hd__dfrtp_2
*CAP
1 *6519:A 0.000160366
2 *6785:D 0
3 *6749:A 0.000509995
4 *6765:Q 0.000646939
5 *537:12 0.000651073
6 *537:6 0.000948383
7 *6748:A2 *6749:A 0
8 *6764:CLK *6749:A 0.000187326
9 *6764:RESET_B *537:12 0
10 *6765:D *6519:A 0.000102207
11 *6765:D *537:6 2.47833e-05
12 *6785:CLK *6749:A 7.48091e-05
13 *6836:RESET_B *6749:A 0
14 *6867:RESET_B *6749:A 0.000125724
15 *6867:RESET_B *537:12 0
16 *308:14 *6749:A 0
17 *309:8 *6749:A 0
18 *309:69 *6749:A 0
19 *309:69 *537:12 0
*RES
1 *6765:Q *537:6 16.8179 
2 *537:6 *537:12 11.25 
3 *537:12 *6749:A 29.1929 
4 *537:12 *6785:D 9.3 
5 *537:6 *6519:A 12.6393 
*END

*D_NET *538 0.00216544
*CONN
*I *6786:D I *D sky130_fd_sc_hd__dfrtp_2
*I *6520:A I *D sky130_fd_sc_hd__inv_2
*I *6764:Q O *D sky130_fd_sc_hd__dfrtp_2
*CAP
1 *6786:D 4.34013e-05
2 *6520:A 0.000385255
3 *6764:Q 0.000412196
4 *538:10 0.000840853
5 *6764:D *6520:A 3.18676e-05
6 *6839:CLK *6520:A 5.52302e-05
7 *6839:RESET_B *6520:A 0
8 *308:73 *6520:A 0.000343217
9 *308:73 *6786:D 6.05161e-06
10 *308:73 *538:10 4.73656e-05
11 *309:8 *538:10 0
12 *437:61 *538:10 0
13 *437:63 *6520:A 0
*RES
1 *6764:Q *538:10 19.4607 
2 *538:10 *6520:A 22.0143 
3 *538:10 *6786:D 14.3357 
*END

*D_NET *539 0.00217137
*CONN
*I *6762:A I *D sky130_fd_sc_hd__inv_2
*I *6506:A I *D sky130_fd_sc_hd__inv_2
*I *6772:D I *D sky130_fd_sc_hd__dfrtp_2
*I *6794:Q O *D sky130_fd_sc_hd__dfrtp_2
*CAP
1 *6762:A 7.42637e-05
2 *6506:A 2.23854e-05
3 *6772:D 0.000216471
4 *6794:Q 0.000130935
5 *539:14 0.000636374
6 *539:10 0.000602716
7 *6771:RESET_B *6772:D 0
8 *6793:D *6762:A 0
9 *6794:D *6772:D 2.51343e-06
10 *6794:D *539:14 1.15281e-05
11 *6796:RESET_B *539:10 3.92854e-05
12 *6939:A *539:14 8.37104e-05
13 *318:16 *539:10 3.18676e-05
14 *403:23 *6762:A 0.000143804
15 *403:23 *539:10 0.000175519
*RES
1 *6794:Q *539:10 16.5857 
2 *539:10 *539:14 10.7857 
3 *539:14 *6772:D 21.7107 
4 *539:14 *6506:A 9.72857 
5 *539:10 *6762:A 15.7464 
*END

*D_NET *540 0.0029722
*CONN
*I *6773:D I *D sky130_fd_sc_hd__dfrtp_2
*I *6761:A I *D sky130_fd_sc_hd__inv_2
*I *6507:A I *D sky130_fd_sc_hd__inv_2
*I *6793:Q O *D sky130_fd_sc_hd__dfrtp_2
*CAP
1 *6773:D 0.000159446
2 *6761:A 0.000501324
3 *6507:A 0.000110155
4 *6793:Q 0
5 *540:8 0.000906344
6 *540:4 0.00045431
7 *6761:A *541:32 0.000322981
8 *6734:A1 *6761:A 9.58181e-05
9 *6734:A2 *6761:A 3.04242e-05
10 *6734:B1 *6761:A 5.33614e-05
11 *6734:B2 *6761:A 3.51442e-05
12 *6773:CLK *6773:D 5.45307e-05
13 *6773:CLK *540:8 2.50909e-05
14 *6792:CLK *6761:A 0.000100447
15 *6792:RESET_B *540:8 4.50862e-05
16 *6793:D *6507:A 0
17 *6793:D *6761:A 0
18 *7008:A *6761:A 0
19 *403:21 *540:8 7.77352e-05
20 *506:8 *6761:A 0
21 *506:27 *6761:A 0
*RES
1 *6793:Q *540:4 9.3 
2 *540:4 *540:8 8.32143 
3 *540:8 *6507:A 15.4429 
4 *540:8 *6761:A 23.7821 
5 *540:4 *6773:D 11.9071 
*END

*D_NET *541 0.00348992
*CONN
*I *6508:A I *D sky130_fd_sc_hd__inv_2
*I *6760:A I *D sky130_fd_sc_hd__inv_2
*I *6774:D I *D sky130_fd_sc_hd__dfrtp_2
*I *6792:Q O *D sky130_fd_sc_hd__dfrtp_2
*CAP
1 *6508:A 0
2 *6760:A 0.000361069
3 *6774:D 0.000548312
4 *6792:Q 9.99887e-05
5 *541:32 0.000809393
6 *6734:A1 *541:32 2.48095e-05
7 *6761:A *541:32 0.000322981
8 *6774:CLK *541:32 9.99853e-05
9 *6774:RESET_B *6774:D 0.000138838
10 *6774:RESET_B *541:32 1.30665e-05
11 *6791:CLK *6760:A 2.27416e-05
12 *6792:CLK *541:32 6.8445e-06
13 *6797:D *6760:A 9.60939e-05
14 *6797:D *541:32 0.000260325
15 *6857:D *541:32 0.000487423
16 *475:23 *6774:D 9.82947e-05
17 *514:24 *6774:D 9.97552e-05
*RES
1 *6792:Q *6774:D 30.2964 
2 *6774:D *541:32 21.5143 
3 *541:32 *6760:A 15.5857 
4 *541:32 *6508:A 9.3 
*END

*D_NET *542 0.00254894
*CONN
*I *6759:A I *D sky130_fd_sc_hd__inv_2
*I *6775:D I *D sky130_fd_sc_hd__dfrtp_2
*I *6509:A I *D sky130_fd_sc_hd__inv_2
*I *6791:Q O *D sky130_fd_sc_hd__dfrtp_2
*CAP
1 *6759:A 0.000249488
2 *6775:D 0.000443875
3 *6509:A 0.000383661
4 *6791:Q 6.70433e-05
5 *542:8 0.000645092
6 *6759:A *1084:22 3.39935e-05
7 *6775:D *1084:22 9.46929e-05
8 *6775:CLK *6759:A 0.000227322
9 *6790:CLK *6759:A 5.71472e-05
10 *6791:D *6509:A 3.18676e-05
11 *403:61 *6775:D 0.000186599
12 *403:61 *542:8 0.000128154
13 *506:27 *6775:D 0
14 *506:27 *542:8 0
*RES
1 *6791:Q *542:8 15.4429 
2 *542:8 *6509:A 20.0857 
3 *542:8 *6775:D 18.1214 
4 *6775:D *6759:A 24.0821 
*END

*D_NET *543 0.00551278
*CONN
*I *6776:D I *D sky130_fd_sc_hd__dfrtp_2
*I *6758:A I *D sky130_fd_sc_hd__inv_2
*I *6510:A I *D sky130_fd_sc_hd__inv_2
*I *6790:Q O *D sky130_fd_sc_hd__dfrtp_2
*CAP
1 *6776:D 0
2 *6758:A 0.000473241
3 *6510:A 3.80973e-05
4 *6790:Q 0.000583928
5 *543:31 0.000580396
6 *543:16 0.00072918
7 *6582:B *6510:A 0
8 *6582:B *543:16 5.91336e-05
9 *6582:B *543:31 0
10 *6775:CLK *6510:A 0
11 *6775:CLK *543:31 0
12 *6789:D *6758:A 4.6025e-06
13 *6790:RESET_B *543:16 5.33334e-05
14 *6801:CLK *543:16 1.24368e-05
15 *186:54 *6758:A 0.000504113
16 *186:54 *543:31 1.40306e-05
17 *303:70 *6758:A 0.000122081
18 *403:61 *543:16 2.59093e-05
19 *425:66 *543:16 0.000247771
20 *475:54 *543:16 0.000118891
21 *508:78 *6758:A 0.000141343
22 *509:12 *543:16 0.000224456
23 *509:14 *6758:A 0.00153795
24 *509:14 *543:31 4.18895e-05
*RES
1 *6790:Q *543:16 32.7821 
2 *543:16 *6510:A 14.5321 
3 *543:16 *543:31 6.375 
4 *543:31 *6758:A 35.9607 
5 *543:31 *6776:D 9.3 
*END

*D_NET *544 0.00393883
*CONN
*I *6511:A I *D sky130_fd_sc_hd__inv_2
*I *6757:A I *D sky130_fd_sc_hd__inv_2
*I *6777:D I *D sky130_fd_sc_hd__dfrtp_2
*I *6789:Q O *D sky130_fd_sc_hd__dfrtp_2
*CAP
1 *6511:A 0
2 *6757:A 2.44504e-05
3 *6777:D 0.000503623
4 *6789:Q 0.000625323
5 *544:21 0.000115633
6 *544:6 0.00122013
7 *6757:A *1084:28 5.22828e-05
8 *6788:CLK *6757:A 5.71472e-05
9 *6788:CLK *544:21 9.49984e-05
10 *6789:D *544:6 0.000180777
11 *6789:D *544:21 0.00011594
12 *155:51 *6777:D 0.000148878
13 *155:51 *544:6 0.000139179
14 *302:181 *6757:A 8.07313e-05
15 *303:64 *6777:D 0.000275498
16 *303:64 *544:6 0.000304246
*RES
1 *6789:Q *544:6 18.05 
2 *544:6 *6777:D 16.425 
3 *544:6 *544:21 10.6429 
4 *544:21 *6757:A 10.6571 
5 *544:21 *6511:A 9.3 
*END

*D_NET *545 0.00253436
*CONN
*I *6756:A I *D sky130_fd_sc_hd__inv_2
*I *6778:D I *D sky130_fd_sc_hd__dfrtp_2
*I *6512:A I *D sky130_fd_sc_hd__inv_2
*I *6788:Q O *D sky130_fd_sc_hd__dfrtp_2
*CAP
1 *6756:A 0.000199167
2 *6778:D 0
3 *6512:A 0.000200871
4 *6788:Q 8.07352e-05
5 *545:29 0.000336581
6 *545:6 0.000419019
7 *6756:A *6513:A 4.46186e-06
8 *6778:RESET_B *6756:A 5.52238e-05
9 *6788:CLK *6512:A 0.000186669
10 *6788:D *6512:A 6.84283e-05
11 *6788:RESET_B *6756:A 0
12 *6788:RESET_B *545:29 0
13 *6789:RESET_B *545:29 5.42764e-05
14 *6861:RESET_B *6512:A 0.000358002
15 *6861:RESET_B *545:6 0.00019233
16 *7000:A *6756:A 0
17 *402:80 *6512:A 0.000134278
18 *402:80 *545:6 0.000244318
*RES
1 *6788:Q *545:6 13.5321 
2 *545:6 *6512:A 25.175 
3 *545:6 *545:29 6.75 
4 *545:29 *6778:D 13.8 
5 *545:29 *6756:A 17.4964 
*END

*D_NET *546 0.0111247
*CONN
*I *6513:A I *D sky130_fd_sc_hd__inv_2
*I *6779:D I *D sky130_fd_sc_hd__dfrtp_2
*I *6755:A I *D sky130_fd_sc_hd__inv_2
*I *6787:Q O *D sky130_fd_sc_hd__dfrtp_2
*CAP
1 *6513:A 0.00016215
2 *6779:D 0
3 *6755:A 6.61308e-05
4 *6787:Q 0.000472259
5 *546:22 0.00327393
6 *546:20 0.00384221
7 *6570:B *546:22 1.3277e-05
8 *6756:A *6513:A 4.46186e-06
9 *6781:CLK *546:22 0.000537442
10 *6781:D *546:20 0.000313076
11 *6781:D *546:22 0.000879478
12 *6787:CLK *6513:A 0
13 *6787:D *6513:A 0.000100823
14 *6787:RESET_B *6755:A 0.000144773
15 *6787:RESET_B *546:20 7.49387e-06
16 *6788:RESET_B *6513:A 2.49484e-05
17 *312:66 *546:22 0.000613547
18 *312:73 *546:22 0.000668731
19 *425:10 *6513:A 0
*RES
1 *6787:Q *6755:A 20.3857 
2 *6787:Q *546:20 15.175 
3 *546:20 *546:22 47.0045 
4 *546:22 *6779:D 9.3 
5 *546:20 *6513:A 21.4607 
*END

*D_NET *547 0.00317337
*CONN
*I *6780:D I *D sky130_fd_sc_hd__dfrtp_2
*I *6514:A I *D sky130_fd_sc_hd__inv_2
*I *6754:A I *D sky130_fd_sc_hd__inv_2
*I *6770:Q O *D sky130_fd_sc_hd__dfrtp_2
*CAP
1 *6780:D 0.000380339
2 *6514:A 3.90996e-05
3 *6754:A 0.000145355
4 *6770:Q 0
5 *547:10 0.000427425
6 *547:4 0.00062331
7 *6740:B2 *6754:A 7.77751e-05
8 *6770:RESET_B *6754:A 0.00017335
9 *6770:RESET_B *547:10 0.00012401
10 *6805:CLK *6780:D 1.87955e-05
11 *6942:A *6780:D 2.72859e-05
12 *311:87 *6754:A 0.000227532
13 *311:87 *6780:D 1.19509e-05
14 *402:99 *6514:A 0.000227526
15 *403:61 *6754:A 4.29471e-05
16 *512:10 *6754:A 5.58941e-05
17 *512:57 *6754:A 0.000171368
18 *512:57 *547:10 0.000114759
19 *533:28 *6514:A 0.000227526
20 *533:28 *6780:D 5.71242e-05
*RES
1 *6770:Q *547:4 9.3 
2 *547:4 *547:10 8.32143 
3 *547:10 *6754:A 18.8357 
4 *547:10 *6514:A 15.9786 
5 *547:4 *6780:D 23.6571 
*END

*D_NET *548 0.000584025
*CONN
*I *7090:A I *D sky130_fd_sc_hd__nand2_1
*I *6524:X O *D sky130_fd_sc_hd__and3_2
*CAP
1 *7090:A 0.000195412
2 *6524:X 0.000195412
3 *7090:A *7081:A 0.000114589
4 *7090:A *7090:B 7.86112e-05
*RES
1 *6524:X *7090:A 22.4571 
*END

*D_NET *549 0.000320268
*CONN
*I *7069:A I *D sky130_fd_sc_hd__inv_1
*I *7090:Y O *D sky130_fd_sc_hd__nand2_1
*CAP
1 *7069:A 0.000131123
2 *7090:Y 0.000131123
3 *412:77 *7069:A 5.80217e-05
*RES
1 *7090:Y *7069:A 30.2384 
*END

*D_NET *550 0.000342166
*CONN
*I *7060:A I *D sky130_fd_sc_hd__inv_1
*I *7059:Y O *D sky130_fd_sc_hd__inv_1
*CAP
1 *7060:A 0.000107616
2 *7059:Y 0.000107616
3 *7060:A *7059:A 5.4484e-05
4 *7060:A *7061:A 2.20987e-05
5 *7060:A *7506:A 2.06461e-06
6 *412:81 *7060:A 4.82872e-05
*RES
1 *7059:Y *7060:A 20.8277 
*END

*D_NET *551 0.000809958
*CONN
*I *7061:A I *D sky130_fd_sc_hd__inv_1
*I *7060:Y O *D sky130_fd_sc_hd__inv_1
*CAP
1 *7061:A 0.000274838
2 *7060:Y 0.000274838
3 *7061:A *7062:A 2.55568e-05
4 *6524:B *7061:A 0.000128161
5 *6616:A2 *7061:A 2.51343e-06
6 *7060:A *7061:A 2.20987e-05
7 *149:84 *7061:A 6.5185e-05
8 *412:81 *7061:A 1.67669e-05
*RES
1 *7060:Y *7061:A 32.3455 
*END

*D_NET *552 0.000865232
*CONN
*I *7062:A I *D sky130_fd_sc_hd__inv_1
*I *7061:Y O *D sky130_fd_sc_hd__inv_1
*CAP
1 *7062:A 0.000208656
2 *7061:Y 0.000208656
3 *6616:A2 *7062:A 7.83565e-05
4 *6626:B1 *7062:A 0.00012401
5 *7061:A *7062:A 2.55568e-05
6 *213:10 *7062:A 6.42242e-05
7 *405:51 *7062:A 0.000155772
*RES
1 *7061:Y *7062:A 31.9348 
*END

*D_NET *553 0.000726297
*CONN
*I *7063:A I *D sky130_fd_sc_hd__inv_1
*I *7062:Y O *D sky130_fd_sc_hd__inv_1
*CAP
1 *7063:A 0.000207813
2 *7062:Y 0.000207813
3 *7063:A *7064:A 8.29496e-05
4 *7063:A *7065:A 6.56312e-06
5 *6616:A2 *7063:A 0.000201383
6 *405:51 *7063:A 1.9774e-05
*RES
1 *7062:Y *7063:A 30.8902 
*END

*D_NET *554 0.000689282
*CONN
*I *7064:A I *D sky130_fd_sc_hd__inv_1
*I *7063:Y O *D sky130_fd_sc_hd__inv_1
*CAP
1 *7064:A 0.000195792
2 *7063:Y 0.000195792
3 *7064:A *7065:A 7.2344e-05
4 *7064:A *555:6 2.48912e-05
5 *6616:A2 *7064:A 0.000117513
6 *7063:A *7064:A 8.29496e-05
*RES
1 *7063:Y *7064:A 31.9527 
*END

*D_NET *555 0.000869847
*CONN
*I *7065:A I *D sky130_fd_sc_hd__inv_1
*I *7089:A I *D sky130_fd_sc_hd__buf_1
*I *7064:Y O *D sky130_fd_sc_hd__inv_1
*CAP
1 *7065:A 0.000135274
2 *7089:A 0.000167302
3 *7064:Y 4.16644e-05
4 *555:6 0.00034424
5 *7065:A *7066:A 1.34499e-05
6 *6616:A2 *7065:A 1.14548e-05
7 *7063:A *7065:A 6.56312e-06
8 *7064:A *7065:A 7.2344e-05
9 *7064:A *555:6 2.48912e-05
10 *411:114 *7089:A 5.26625e-05
*RES
1 *7064:Y *555:6 10.0411 
2 *555:6 *7089:A 12.2107 
3 *555:6 *7065:A 20.7866 
*END

*D_NET *556 0.00086495
*CONN
*I *7066:A I *D sky130_fd_sc_hd__inv_1
*I *7065:Y O *D sky130_fd_sc_hd__inv_1
*CAP
1 *7066:A 0.000315025
2 *7065:Y 0.000315025
3 *7066:A *7067:A 2.19819e-05
4 *7066:A *7072:A 0.000141726
5 *7066:A *7073:A 7.96867e-06
6 *6616:A2 *7066:A 4.97724e-05
7 *7065:A *7066:A 1.34499e-05
*RES
1 *7065:Y *7066:A 32.9348 
*END

*D_NET *557 0.000767212
*CONN
*I *7067:A I *D sky130_fd_sc_hd__inv_1
*I *7066:Y O *D sky130_fd_sc_hd__inv_1
*CAP
1 *7067:A 0.00020481
2 *7066:Y 0.00020481
3 *7067:A *7068:A 3.69697e-05
4 *7067:A *7072:A 4.03714e-05
5 *6616:A1 *7067:A 6.71295e-05
6 *6616:B2 *7067:A 6.71295e-05
7 *7066:A *7067:A 2.19819e-05
8 *216:16 *7067:A 0.00012401
9 *413:127 *7067:A 0
*RES
1 *7066:Y *7067:A 31.4527 
*END

*D_NET *558 0.000459936
*CONN
*I *7068:A I *D sky130_fd_sc_hd__inv_1
*I *7067:Y O *D sky130_fd_sc_hd__inv_1
*CAP
1 *7068:A 0.000126839
2 *7067:Y 0.000126839
3 *7068:A *7070:A 1.14548e-05
4 *6616:B2 *7068:A 7.66879e-05
5 *7067:A *7068:A 3.69697e-05
6 *216:16 *7068:A 1.69115e-05
7 *413:127 *7068:A 6.42338e-05
*RES
1 *7067:Y *7068:A 30.2205 
*END

*D_NET *559 0.000384365
*CONN
*I *7070:A I *D sky130_fd_sc_hd__inv_1
*I *7068:Y O *D sky130_fd_sc_hd__inv_1
*CAP
1 *7070:A 0.00017964
2 *7068:Y 0.00017964
3 *7070:A *7071:A 1.36301e-05
4 *7068:A *7070:A 1.14548e-05
*RES
1 *7068:Y *7070:A 21.1313 
*END

*D_NET *560 0.000155673
*CONN
*I *7080:A I *D sky130_fd_sc_hd__inv_1
*I *7069:Y O *D sky130_fd_sc_hd__inv_1
*CAP
1 *7080:A 7.78365e-05
2 *7069:Y 7.78365e-05
*RES
1 *7069:Y *7080:A 19.908 
*END

*D_NET *561 0.000532655
*CONN
*I *7071:A I *D sky130_fd_sc_hd__inv_1
*I *7070:Y O *D sky130_fd_sc_hd__inv_1
*CAP
1 *7071:A 0.000150258
2 *7070:Y 0.000150258
3 *7071:A *7072:A 3.92757e-05
4 *7070:A *7071:A 1.36301e-05
5 *411:78 *7071:A 2.47093e-05
6 *413:127 *7071:A 0.000154524
*RES
1 *7070:Y *7071:A 30.5688 
*END

*D_NET *562 0.000980681
*CONN
*I *7072:A I *D sky130_fd_sc_hd__inv_1
*I *7071:Y O *D sky130_fd_sc_hd__inv_1
*CAP
1 *7072:A 0.000196937
2 *7071:Y 0.000196937
3 *7072:A *7073:A 0.000182598
4 *7066:A *7072:A 0.000141726
5 *7067:A *7072:A 4.03714e-05
6 *7071:A *7072:A 3.92757e-05
7 *216:16 *7072:A 2.58997e-05
8 *411:78 *7072:A 0.000118134
9 *413:127 *7072:A 3.88029e-05
*RES
1 *7071:Y *7072:A 33.2384 
*END

*D_NET *563 0.000852117
*CONN
*I *7073:A I *D sky130_fd_sc_hd__inv_1
*I *7072:Y O *D sky130_fd_sc_hd__inv_1
*CAP
1 *7073:A 0.000189334
2 *7072:Y 0.000189334
3 *7066:A *7073:A 7.96867e-06
4 *7072:A *7073:A 0.000182598
5 *216:16 *7073:A 0.000174805
6 *411:78 *7073:A 8.45364e-05
7 *413:127 *7073:A 2.3541e-05
*RES
1 *7072:Y *7073:A 32.0598 
*END

*D_NET *564 0.000914993
*CONN
*I *7074:A I *D sky130_fd_sc_hd__inv_1
*I *7073:Y O *D sky130_fd_sc_hd__inv_1
*CAP
1 *7074:A 0.000377269
2 *7073:Y 0.000377269
3 *411:78 *7074:A 0
4 *413:127 *7074:A 0.000160455
*RES
1 *7073:Y *7074:A 33.283 
*END

*D_NET *565 0.000108388
*CONN
*I *7075:A I *D sky130_fd_sc_hd__inv_1
*I *7074:Y O *D sky130_fd_sc_hd__inv_1
*CAP
1 *7075:A 5.41939e-05
2 *7074:Y 5.41939e-05
*RES
1 *7074:Y *7075:A 19.4973 
*END

*D_NET *566 0.000107065
*CONN
*I *7076:A I *D sky130_fd_sc_hd__inv_1
*I *7075:Y O *D sky130_fd_sc_hd__inv_1
*CAP
1 *7076:A 5.35325e-05
2 *7075:Y 5.35325e-05
*RES
1 *7075:Y *7076:A 19.4973 
*END

*D_NET *567 0.000135924
*CONN
*I *7077:A I *D sky130_fd_sc_hd__inv_1
*I *7076:Y O *D sky130_fd_sc_hd__inv_1
*CAP
1 *7077:A 5.77471e-05
2 *7076:Y 5.77471e-05
3 *7077:A *7078:A 2.04294e-05
*RES
1 *7076:Y *7077:A 19.4973 
*END

*D_NET *568 0.000632117
*CONN
*I *7078:A I *D sky130_fd_sc_hd__inv_1
*I *7077:Y O *D sky130_fd_sc_hd__inv_1
*CAP
1 *7078:A 0.00021194
2 *7077:Y 0.00021194
3 *6626:B1 *7078:A 1.36161e-05
4 *7077:A *7078:A 2.04294e-05
5 *413:127 *7078:A 2.79827e-05
6 *415:32 *7078:A 0.000146208
*RES
1 *7077:Y *7078:A 30.9795 
*END

*D_NET *569 0.000269984
*CONN
*I *7079:A I *D sky130_fd_sc_hd__inv_1
*I *7078:Y O *D sky130_fd_sc_hd__inv_1
*CAP
1 *7079:A 3.13467e-05
2 *7078:Y 3.13467e-05
3 *6626:B1 *7079:A 7.16657e-05
4 *413:127 *7079:A 0.000135625
*RES
1 *7078:Y *7079:A 19.908 
*END

*D_NET *570 0.000643852
*CONN
*I *7081:A I *D sky130_fd_sc_hd__inv_1
*I *7079:Y O *D sky130_fd_sc_hd__inv_1
*CAP
1 *7081:A 0.00014578
2 *7079:Y 0.00014578
3 *6524:A *7081:A 2.89114e-05
4 *7090:A *7081:A 0.000114589
5 *413:111 *7081:A 5.03772e-05
6 *413:127 *7081:A 0.000158415
*RES
1 *7079:Y *7081:A 21.9616 
*END

*D_NET *571 0.000382907
*CONN
*I *7082:A I *D sky130_fd_sc_hd__inv_1
*I *7080:Y O *D sky130_fd_sc_hd__inv_1
*CAP
1 *7082:A 0.000155756
2 *7080:Y 0.000155756
3 *7082:A *7083:A 3.00023e-05
4 *7082:A *7084:A 2.524e-05
5 *7082:A *7085:A 1.61534e-05
*RES
1 *7080:Y *7082:A 21.6938 
*END

*D_NET *572 0.000136421
*CONN
*I *7090:B I *D sky130_fd_sc_hd__nand2_1
*I *7081:Y O *D sky130_fd_sc_hd__inv_1
*CAP
1 *7090:B 2.89051e-05
2 *7081:Y 2.89051e-05
3 *7090:A *7090:B 7.86112e-05
*RES
1 *7081:Y *7090:B 19.3411 
*END

*D_NET *573 0.000991155
*CONN
*I *7083:A I *D sky130_fd_sc_hd__inv_1
*I *7082:Y O *D sky130_fd_sc_hd__inv_1
*CAP
1 *7083:A 0.000346042
2 *7082:Y 0.000346042
3 *7083:A *7084:A 8.21204e-05
4 *7083:A *7085:A 0.00012401
5 *7083:A *7570:A 6.29385e-05
6 *7082:A *7083:A 3.00023e-05
*RES
1 *7082:Y *7083:A 34.6134 
*END

*D_NET *574 0.000748358
*CONN
*I *7084:A I *D sky130_fd_sc_hd__inv_1
*I *7083:Y O *D sky130_fd_sc_hd__inv_1
*CAP
1 *7084:A 0.000257637
2 *7083:Y 0.000257637
3 *7084:A *7085:A 0.000125724
4 *7082:A *7084:A 2.524e-05
5 *7083:A *7084:A 8.21204e-05
*RES
1 *7083:Y *7084:A 32.2384 
*END

*D_NET *575 0.000464602
*CONN
*I *7085:A I *D sky130_fd_sc_hd__inv_1
*I *7084:Y O *D sky130_fd_sc_hd__inv_1
*CAP
1 *7085:A 8.12144e-05
2 *7084:Y 8.12144e-05
3 *7085:A *7086:A 2.79827e-05
4 *7085:A *7506:A 8.30355e-06
5 *7082:A *7085:A 1.61534e-05
6 *7083:A *7085:A 0.00012401
7 *7084:A *7085:A 0.000125724
*RES
1 *7084:Y *7085:A 29.8545 
*END

*D_NET *576 0.000335872
*CONN
*I *7086:A I *D sky130_fd_sc_hd__inv_1
*I *7085:Y O *D sky130_fd_sc_hd__inv_1
*CAP
1 *7086:A 0.000128234
2 *7085:Y 0.000128234
3 *7086:A *7087:A 2.95948e-05
4 *7086:A *7088:A 0
5 *7086:A *7506:A 2.1825e-05
6 *7085:A *7086:A 2.79827e-05
*RES
1 *7085:Y *7086:A 20.8277 
*END

*D_NET *577 0.000362228
*CONN
*I *7087:A I *D sky130_fd_sc_hd__inv_1
*I *7086:Y O *D sky130_fd_sc_hd__inv_1
*CAP
1 *7087:A 7.8878e-05
2 *7086:Y 7.8878e-05
3 *7087:A *7059:A 0
4 *7087:A *7088:A 3.02869e-05
5 *7087:A *7506:A 0.000144591
6 *7086:A *7087:A 2.95948e-05
*RES
1 *7086:Y *7087:A 21.1313 
*END

*D_NET *578 0.00034681
*CONN
*I *7088:A I *D sky130_fd_sc_hd__inv_1
*I *7087:Y O *D sky130_fd_sc_hd__inv_1
*CAP
1 *7088:A 0.00013103
2 *7087:Y 0.00013103
3 *7088:A *7059:A 3.02869e-05
4 *7088:A *7506:A 2.41765e-05
5 *7086:A *7088:A 0
6 *7087:A *7088:A 3.02869e-05
*RES
1 *7087:Y *7088:A 21.3813 
*END

*D_NET *579 0.000496289
*CONN
*I *7059:A I *D sky130_fd_sc_hd__inv_1
*I *7088:Y O *D sky130_fd_sc_hd__inv_1
*CAP
1 *7059:A 0.000114542
2 *7088:Y 0.000114542
3 *7059:A *7506:A 0.000182434
4 *7060:A *7059:A 5.4484e-05
5 *7087:A *7059:A 0
6 *7088:A *7059:A 3.02869e-05
*RES
1 *7088:Y *7059:A 22.0241 
*END

*D_NET *580 0.000556779
*CONN
*I *6630:A1 I *D sky130_fd_sc_hd__a221o_2
*I *7089:X O *D sky130_fd_sc_hd__buf_1
*CAP
1 *6630:A1 0.000150011
2 *7089:X 0.000150011
3 *6630:A2 *6630:A1 0.000120034
4 *216:16 *6630:A1 0
5 *409:47 *6630:A1 3.54964e-05
6 *411:114 *6630:A1 0.000101227
*RES
1 *7089:X *6630:A1 30.7071 
*END

*D_NET *581 0.0014121
*CONN
*I *7122:A I *D sky130_fd_sc_hd__nand2_1
*I *6539:X O *D sky130_fd_sc_hd__and3_2
*CAP
1 *7122:A 0.000304498
2 *6539:X 0.000304498
3 *7122:A *7101:A 6.1053e-05
4 *7122:A *7112:A 1.35756e-05
5 *7122:A *7113:A 6.44047e-05
6 *7122:A *7122:B 0.000178663
7 *6524:B *7122:A 0.000104236
8 *6539:C *7122:A 6.05161e-06
9 *151:149 *7122:A 0.000196269
10 *415:49 *7122:A 0.000178847
*RES
1 *6539:X *7122:A 35.35 
*END

*D_NET *582 0.000253083
*CONN
*I *7101:A I *D sky130_fd_sc_hd__inv_1
*I *7122:Y O *D sky130_fd_sc_hd__nand2_1
*CAP
1 *7101:A 7.49499e-05
2 *7122:Y 7.49499e-05
3 *7101:A *7112:A 2.20867e-05
4 *7101:A *7122:B 2.00433e-05
5 *7122:A *7101:A 6.1053e-05
*RES
1 *7122:Y *7101:A 20.2563 
*END

*D_NET *583 0.000330703
*CONN
*I *7092:A I *D sky130_fd_sc_hd__inv_1
*I *7091:Y O *D sky130_fd_sc_hd__inv_1
*CAP
1 *7092:A 7.83926e-05
2 *7091:Y 7.83926e-05
3 *7092:A *7091:A 0.000147484
4 *7092:A *7093:A 7.39859e-06
5 *7092:A *7094:A 1.90343e-05
*RES
1 *7091:Y *7092:A 20.8277 
*END

*D_NET *584 0.000529754
*CONN
*I *7093:A I *D sky130_fd_sc_hd__inv_1
*I *7092:Y O *D sky130_fd_sc_hd__inv_1
*CAP
1 *7093:A 0.000189748
2 *7092:Y 0.000189748
3 *7093:A *7091:A 0.000135716
4 *7093:A *7094:A 7.14333e-06
5 *7092:A *7093:A 7.39859e-06
*RES
1 *7092:Y *7093:A 21.4348 
*END

*D_NET *585 0.000582419
*CONN
*I *7094:A I *D sky130_fd_sc_hd__inv_1
*I *7093:Y O *D sky130_fd_sc_hd__inv_1
*CAP
1 *7094:A 0.000264085
2 *7093:Y 0.000264085
3 *6537:A *7094:A 2.80715e-05
4 *7092:A *7094:A 1.90343e-05
5 *7093:A *7094:A 7.14333e-06
*RES
1 *7093:Y *7094:A 31.3902 
*END

*D_NET *586 0.000157494
*CONN
*I *7095:A I *D sky130_fd_sc_hd__inv_1
*I *7094:Y O *D sky130_fd_sc_hd__inv_1
*CAP
1 *7095:A 3.13485e-05
2 *7094:Y 3.13485e-05
3 *6537:A *7095:A 9.47974e-05
*RES
1 *7094:Y *7095:A 19.4973 
*END

*D_NET *587 0.000171545
*CONN
*I *7096:A I *D sky130_fd_sc_hd__inv_1
*I *7095:Y O *D sky130_fd_sc_hd__inv_1
*CAP
1 *7096:A 3.96779e-05
2 *7095:Y 3.96779e-05
3 *6537:A *7096:A 9.21898e-05
*RES
1 *7095:Y *7096:A 19.4973 
*END

*D_NET *588 0.0011494
*CONN
*I *7121:A I *D sky130_fd_sc_hd__buf_1
*I *7097:A I *D sky130_fd_sc_hd__inv_1
*I *7096:Y O *D sky130_fd_sc_hd__inv_1
*CAP
1 *7121:A 0
2 *7097:A 0.000159248
3 *7096:Y 7.28959e-05
4 *588:6 0.000232144
5 *7097:A *7098:A 2.99061e-05
6 *6524:B *7097:A 0.000151333
7 *6537:A *7097:A 6.42095e-05
8 *6537:A *588:6 0.000158415
9 *6537:B *7097:A 2.59355e-05
10 *414:120 *7097:A 5.66157e-05
11 *415:49 *7097:A 0.000198698
*RES
1 *7096:Y *588:6 10.8625 
2 *588:6 *7097:A 22.9205 
3 *588:6 *7121:A 9.3 
*END

*D_NET *589 0.000367266
*CONN
*I *7098:A I *D sky130_fd_sc_hd__inv_1
*I *7097:Y O *D sky130_fd_sc_hd__inv_1
*CAP
1 *7098:A 0.000103624
2 *7097:Y 0.000103624
3 *7098:A *7099:A 0.000130112
4 *7097:A *7098:A 2.99061e-05
*RES
1 *7097:Y *7098:A 20.8277 
*END

*D_NET *590 0.000616855
*CONN
*I *7099:A I *D sky130_fd_sc_hd__inv_1
*I *7098:Y O *D sky130_fd_sc_hd__inv_1
*CAP
1 *7099:A 0.000243372
2 *7098:Y 0.000243372
3 *7098:A *7099:A 0.000130112
*RES
1 *7098:Y *7099:A 21.9973 
*END

*D_NET *591 0.000532889
*CONN
*I *7100:A I *D sky130_fd_sc_hd__inv_1
*I *7099:Y O *D sky130_fd_sc_hd__inv_1
*CAP
1 *7100:A 0.000188349
2 *7099:Y 0.000188349
3 *7100:A *7102:A 7.61109e-05
4 *149:84 *7100:A 8.00806e-05
*RES
1 *7099:Y *7100:A 31.0777 
*END

*D_NET *592 0.000171992
*CONN
*I *7102:A I *D sky130_fd_sc_hd__inv_1
*I *7100:Y O *D sky130_fd_sc_hd__inv_1
*CAP
1 *7102:A 4.36963e-05
2 *7100:Y 4.36963e-05
3 *7102:A *7104:A 8.48822e-06
4 *7100:A *7102:A 7.61109e-05
*RES
1 *7100:Y *7102:A 19.4973 
*END

*D_NET *593 0.000555724
*CONN
*I *7112:A I *D sky130_fd_sc_hd__inv_1
*I *7101:Y O *D sky130_fd_sc_hd__inv_1
*CAP
1 *7112:A 0.000120375
2 *7101:Y 0.000120375
3 *7112:A *7115:A 2.79827e-05
4 *6545:B *7112:A 0.000127246
5 *7101:A *7112:A 2.20867e-05
6 *7122:A *7112:A 1.35756e-05
7 *213:10 *7112:A 0.000124083
*RES
1 *7101:Y *7112:A 30.2652 
*END

*D_NET *594 0.000113128
*CONN
*I *7103:A I *D sky130_fd_sc_hd__inv_1
*I *7102:Y O *D sky130_fd_sc_hd__inv_1
*CAP
1 *7103:A 3.7518e-05
2 *7102:Y 3.7518e-05
3 *7103:A *7104:A 3.80922e-05
*RES
1 *7102:Y *7103:A 19.4973 
*END

*D_NET *595 0.00070511
*CONN
*I *7104:A I *D sky130_fd_sc_hd__inv_1
*I *7103:Y O *D sky130_fd_sc_hd__inv_1
*CAP
1 *7104:A 0.000251884
2 *7103:Y 0.000251884
3 *7102:A *7104:A 8.48822e-06
4 *7103:A *7104:A 3.80922e-05
5 *149:84 *7104:A 0.000154762
*RES
1 *7103:Y *7104:A 31.7563 
*END

*D_NET *596 0.000591883
*CONN
*I *7105:A I *D sky130_fd_sc_hd__inv_1
*I *7104:Y O *D sky130_fd_sc_hd__inv_1
*CAP
1 *7105:A 0.000198813
2 *7104:Y 0.000198813
3 *7105:A *7106:A 0.000140879
4 *7105:A *7107:A 5.33783e-05
*RES
1 *7104:Y *7105:A 22.8188 
*END

*D_NET *597 0.000647789
*CONN
*I *7106:A I *D sky130_fd_sc_hd__inv_1
*I *7105:Y O *D sky130_fd_sc_hd__inv_1
*CAP
1 *7106:A 0.00014512
2 *7105:Y 0.00014512
3 *7106:A *7107:A 9.57215e-05
4 *7106:A *7108:A 0.00012095
5 *7105:A *7106:A 0.000140879
*RES
1 *7105:Y *7106:A 22.5152 
*END

*D_NET *598 0.000174798
*CONN
*I *7107:A I *D sky130_fd_sc_hd__inv_1
*I *7106:Y O *D sky130_fd_sc_hd__inv_1
*CAP
1 *7107:A 1.2849e-05
2 *7106:Y 1.2849e-05
3 *7105:A *7107:A 5.33783e-05
4 *7106:A *7107:A 9.57215e-05
*RES
1 *7106:Y *7107:A 19.4973 
*END

*D_NET *599 0.000542103
*CONN
*I *7108:A I *D sky130_fd_sc_hd__inv_1
*I *7107:Y O *D sky130_fd_sc_hd__inv_1
*CAP
1 *7108:A 0.000195576
2 *7107:Y 0.000195576
3 *7108:A *7110:A 3.00023e-05
4 *7106:A *7108:A 0.00012095
5 *149:84 *7108:A 0
*RES
1 *7107:Y *7108:A 30.6759 
*END

*D_NET *600 0.00016283
*CONN
*I *7109:A I *D sky130_fd_sc_hd__inv_1
*I *7108:Y O *D sky130_fd_sc_hd__inv_1
*CAP
1 *7109:A 3.3554e-05
2 *7108:Y 3.3554e-05
3 *7109:A *7110:A 9.57215e-05
*RES
1 *7108:Y *7109:A 19.4973 
*END

*D_NET *601 0.000602647
*CONN
*I *7110:A I *D sky130_fd_sc_hd__inv_1
*I *7109:Y O *D sky130_fd_sc_hd__inv_1
*CAP
1 *7110:A 0.000211219
2 *7109:Y 0.000211219
3 *7110:A *7111:A 5.4484e-05
4 *7108:A *7110:A 3.00023e-05
5 *7109:A *7110:A 9.57215e-05
*RES
1 *7109:Y *7110:A 22.9527 
*END

*D_NET *602 0.000395047
*CONN
*I *7111:A I *D sky130_fd_sc_hd__inv_1
*I *7110:Y O *D sky130_fd_sc_hd__inv_1
*CAP
1 *7111:A 0.000159583
2 *7110:Y 0.000159583
3 *7111:A *7113:A 2.13968e-05
4 *7110:A *7111:A 5.4484e-05
*RES
1 *7110:Y *7111:A 21.2384 
*END

*D_NET *603 0.000441558
*CONN
*I *7113:A I *D sky130_fd_sc_hd__inv_1
*I *7111:Y O *D sky130_fd_sc_hd__inv_1
*CAP
1 *7113:A 0.000177878
2 *7111:Y 0.000177878
3 *7111:A *7113:A 2.13968e-05
4 *7122:A *7113:A 6.44047e-05
*RES
1 *7111:Y *7113:A 21.542 
*END

*D_NET *604 0.000190712
*CONN
*I *7114:A I *D sky130_fd_sc_hd__inv_1
*I *7112:Y O *D sky130_fd_sc_hd__inv_1
*CAP
1 *7114:A 5.06657e-05
2 *7112:Y 5.06657e-05
3 *7114:A *7115:A 8.93809e-05
*RES
1 *7112:Y *7114:A 19.4973 
*END

*D_NET *605 0.000867484
*CONN
*I *7122:B I *D sky130_fd_sc_hd__nand2_1
*I *7113:Y O *D sky130_fd_sc_hd__inv_1
*CAP
1 *7122:B 0.000334389
2 *7113:Y 0.000334389
3 *7101:A *7122:B 2.00433e-05
4 *7122:A *7122:B 0.000178663
*RES
1 *7113:Y *7122:B 23.3768 
*END

*D_NET *606 0.000752306
*CONN
*I *7115:A I *D sky130_fd_sc_hd__inv_1
*I *7114:Y O *D sky130_fd_sc_hd__inv_1
*CAP
1 *7115:A 0.000261787
2 *7114:Y 0.000261787
3 *7115:A *7116:A 9.47974e-05
4 *7115:A *7117:A 1.65705e-05
5 *7112:A *7115:A 2.79827e-05
6 *7114:A *7115:A 8.93809e-05
*RES
1 *7114:Y *7115:A 23.2563 
*END

*D_NET *607 0.000165697
*CONN
*I *7116:A I *D sky130_fd_sc_hd__inv_1
*I *7115:Y O *D sky130_fd_sc_hd__inv_1
*CAP
1 *7116:A 3.54496e-05
2 *7115:Y 3.54496e-05
3 *7115:A *7116:A 9.47974e-05
*RES
1 *7115:Y *7116:A 19.4973 
*END

*D_NET *608 0.000463911
*CONN
*I *7117:A I *D sky130_fd_sc_hd__inv_1
*I *7116:Y O *D sky130_fd_sc_hd__inv_1
*CAP
1 *7117:A 0.000144907
2 *7116:Y 0.000144907
3 *7117:A *7118:A 1.14548e-05
4 *6545:B *7117:A 0.000146071
5 *7115:A *7117:A 1.65705e-05
*RES
1 *7116:Y *7117:A 30.1134 
*END

*D_NET *609 0.000322052
*CONN
*I *7118:A I *D sky130_fd_sc_hd__inv_1
*I *7117:Y O *D sky130_fd_sc_hd__inv_1
*CAP
1 *7118:A 0.000142566
2 *7117:Y 0.000142566
3 *7118:A *7119:A 2.54648e-05
4 *7117:A *7118:A 1.14548e-05
*RES
1 *7117:Y *7118:A 21.1313 
*END

*D_NET *610 0.000325159
*CONN
*I *7119:A I *D sky130_fd_sc_hd__inv_1
*I *7118:Y O *D sky130_fd_sc_hd__inv_1
*CAP
1 *7119:A 0.000134851
2 *7118:Y 0.000134851
3 *7119:A *7120:A 2.99931e-05
4 *7118:A *7119:A 2.54648e-05
*RES
1 *7118:Y *7119:A 21.0643 
*END

*D_NET *611 0.00030938
*CONN
*I *7120:A I *D sky130_fd_sc_hd__inv_1
*I *7119:Y O *D sky130_fd_sc_hd__inv_1
*CAP
1 *7120:A 0.000112575
2 *7119:Y 0.000112575
3 *7120:A *7091:A 5.42373e-05
4 *7119:A *7120:A 2.99931e-05
*RES
1 *7119:Y *7120:A 20.8991 
*END

*D_NET *612 0.000983946
*CONN
*I *7091:A I *D sky130_fd_sc_hd__inv_1
*I *7120:Y O *D sky130_fd_sc_hd__inv_1
*CAP
1 *7091:A 0.000323254
2 *7120:Y 0.000323254
3 *7092:A *7091:A 0.000147484
4 *7093:A *7091:A 0.000135716
5 *7120:A *7091:A 5.42373e-05
6 *217:10 *7091:A 0
*RES
1 *7120:Y *7091:A 34.3277 
*END

*D_NET *613 0.000513212
*CONN
*I *6623:B2 I *D sky130_fd_sc_hd__a22o_2
*I *7121:X O *D sky130_fd_sc_hd__buf_1
*CAP
1 *6623:B2 0.000104991
2 *7121:X 0.000104991
3 *6537:C *6623:B2 7.02611e-05
4 *6624:C1 *6623:B2 4.88631e-05
5 *414:120 *6623:B2 0.000124529
6 *415:49 *6623:B2 5.95766e-05
*RES
1 *7121:X *6623:B2 30.6 
*END

*D_NET *614 0.000494181
*CONN
*I *7154:A I *D sky130_fd_sc_hd__nand2_1
*I *6540:X O *D sky130_fd_sc_hd__and3_2
*CAP
1 *7154:A 0.000166378
2 *6540:X 0.000166378
3 *7154:A *7133:A 0.000123924
4 *7154:A *7142:A 0
5 *7154:A *7143:A 3.77739e-06
6 *7154:A *7144:A 2.97286e-05
7 *152:56 *7154:A 3.99614e-06
*RES
1 *6540:X *7154:A 22.1313 
*END

*D_NET *615 0.000297463
*CONN
*I *7133:A I *D sky130_fd_sc_hd__inv_1
*I *7154:Y O *D sky130_fd_sc_hd__nand2_1
*CAP
1 *7133:A 7.57204e-05
2 *7154:Y 7.57204e-05
3 *7133:A *7143:A 0
4 *7133:A *7144:A 2.20987e-05
5 *7154:A *7133:A 0.000123924
*RES
1 *7154:Y *7133:A 20.6223 
*END

*D_NET *616 0.000350195
*CONN
*I *7124:A I *D sky130_fd_sc_hd__inv_1
*I *7123:Y O *D sky130_fd_sc_hd__inv_1
*CAP
1 *7124:A 0.000140199
2 *7123:Y 0.000140199
3 *6537:A *7124:A 0
4 *217:10 *7124:A 6.97972e-05
*RES
1 *7123:Y *7124:A 29.8098 
*END

*D_NET *617 0.000227043
*CONN
*I *7125:A I *D sky130_fd_sc_hd__inv_1
*I *7124:Y O *D sky130_fd_sc_hd__inv_1
*CAP
1 *7125:A 0.000113521
2 *7124:Y 0.000113521
*RES
1 *7124:Y *7125:A 20.3545 
*END

*D_NET *618 0.000107065
*CONN
*I *7126:A I *D sky130_fd_sc_hd__inv_1
*I *7125:Y O *D sky130_fd_sc_hd__inv_1
*CAP
1 *7126:A 5.35325e-05
2 *7125:Y 5.35325e-05
*RES
1 *7125:Y *7126:A 19.4973 
*END

*D_NET *619 0.000123495
*CONN
*I *7127:A I *D sky130_fd_sc_hd__inv_1
*I *7126:Y O *D sky130_fd_sc_hd__inv_1
*CAP
1 *7127:A 6.17473e-05
2 *7126:Y 6.17473e-05
*RES
1 *7126:Y *7127:A 19.4973 
*END

*D_NET *620 0.000108768
*CONN
*I *7128:A I *D sky130_fd_sc_hd__inv_1
*I *7127:Y O *D sky130_fd_sc_hd__inv_1
*CAP
1 *7128:A 5.43839e-05
2 *7127:Y 5.43839e-05
*RES
1 *7127:Y *7128:A 19.4973 
*END

*D_NET *621 0.00062068
*CONN
*I *7153:A I *D sky130_fd_sc_hd__buf_1
*I *7129:A I *D sky130_fd_sc_hd__inv_1
*I *7128:Y O *D sky130_fd_sc_hd__inv_1
*CAP
1 *7153:A 0
2 *7129:A 0.000118385
3 *7128:Y 0.000145099
4 *621:12 0.000263484
5 *7129:A *7130:A 5.17185e-05
6 *6537:A *621:12 0
7 *6624:C1 *621:12 4.1993e-05
*RES
1 *7128:Y *621:12 20.5768 
2 *621:12 *7129:A 11.2509 
3 *621:12 *7153:A 9.3 
*END

*D_NET *622 0.000305846
*CONN
*I *7130:A I *D sky130_fd_sc_hd__inv_1
*I *7129:Y O *D sky130_fd_sc_hd__inv_1
*CAP
1 *7130:A 0.000108758
2 *7129:Y 0.000108758
3 *7130:A *7131:A 3.66125e-05
4 *7129:A *7130:A 5.17185e-05
*RES
1 *7129:Y *7130:A 20.8277 
*END

*D_NET *623 0.000316074
*CONN
*I *7131:A I *D sky130_fd_sc_hd__inv_1
*I *7130:Y O *D sky130_fd_sc_hd__inv_1
*CAP
1 *7131:A 0.000130213
2 *7130:Y 0.000130213
3 *7131:A *7132:A 1.90343e-05
4 *7130:A *7131:A 3.66125e-05
*RES
1 *7130:Y *7131:A 21.1313 
*END

*D_NET *624 0.000345124
*CONN
*I *7132:A I *D sky130_fd_sc_hd__inv_1
*I *7131:Y O *D sky130_fd_sc_hd__inv_1
*CAP
1 *7132:A 0.000151421
2 *7131:Y 0.000151421
3 *7132:A *7137:A 1.62621e-05
4 *7131:A *7132:A 1.90343e-05
5 *217:10 *7132:A 0
6 *406:41 *7132:A 6.98553e-06
*RES
1 *7131:Y *7132:A 29.8098 
*END

*D_NET *625 0.000221991
*CONN
*I *7134:A I *D sky130_fd_sc_hd__inv_1
*I *7132:Y O *D sky130_fd_sc_hd__inv_1
*CAP
1 *7134:A 9.65886e-05
2 *7132:Y 9.65886e-05
3 *7134:A *7137:A 6.63095e-06
4 *406:41 *7134:A 2.21826e-05
*RES
1 *7132:Y *7134:A 20.3545 
*END

*D_NET *626 0.00100871
*CONN
*I *7144:A I *D sky130_fd_sc_hd__inv_1
*I *7133:Y O *D sky130_fd_sc_hd__inv_1
*CAP
1 *7144:A 0.00028764
2 *7133:Y 0.00028764
3 *6540:A *7144:A 1.58163e-05
4 *6540:B *7144:A 5.52302e-05
5 *6925:A *7144:A 0.000176234
6 *7133:A *7144:A 2.20987e-05
7 *7154:A *7144:A 2.97286e-05
8 *152:56 *7144:A 2.07491e-05
9 *152:67 *7144:A 1.92789e-05
10 *408:22 *7144:A 9.42962e-05
*RES
1 *7133:Y *7144:A 33.7473 
*END

*D_NET *627 0.000137156
*CONN
*I *7135:A I *D sky130_fd_sc_hd__inv_1
*I *7134:Y O *D sky130_fd_sc_hd__inv_1
*CAP
1 *7135:A 4.18092e-05
2 *7134:Y 4.18092e-05
3 *7135:A *7136:A 2.96312e-05
4 *406:41 *7135:A 2.3906e-05
*RES
1 *7134:Y *7135:A 19.4973 
*END

*D_NET *628 0.00106733
*CONN
*I *7136:A I *D sky130_fd_sc_hd__inv_1
*I *7135:Y O *D sky130_fd_sc_hd__inv_1
*CAP
1 *7136:A 0.000279053
2 *7135:Y 0.000279053
3 *6537:A *7136:A 3.27461e-05
4 *7135:A *7136:A 2.96312e-05
5 *217:10 *7136:A 0
6 *406:41 *7136:A 2.84026e-05
7 *406:58 *7136:A 0.000134752
8 *414:105 *7136:A 0.000283689
*RES
1 *7135:Y *7136:A 33.7205 
*END

*D_NET *629 0.000646587
*CONN
*I *7137:A I *D sky130_fd_sc_hd__inv_1
*I *7136:Y O *D sky130_fd_sc_hd__inv_1
*CAP
1 *7137:A 0.00023064
2 *7136:Y 0.00023064
3 *7137:A *7138:A 5.83134e-05
4 *7137:A *7140:A 0
5 *7132:A *7137:A 1.62621e-05
6 *7134:A *7137:A 6.63095e-06
7 *217:10 *7137:A 5.85498e-05
8 *406:41 *7137:A 6.06291e-06
9 *414:105 *7137:A 3.94886e-05
*RES
1 *7136:Y *7137:A 31.7384 
*END

*D_NET *630 0.000422946
*CONN
*I *7138:A I *D sky130_fd_sc_hd__inv_1
*I *7137:Y O *D sky130_fd_sc_hd__inv_1
*CAP
1 *7138:A 0.000109029
2 *7137:Y 0.000109029
3 *7138:A *7139:A 6.72092e-05
4 *7137:A *7138:A 5.83134e-05
5 *406:41 *7138:A 7.93654e-05
*RES
1 *7137:Y *7138:A 21.3098 
*END

*D_NET *631 0.000323129
*CONN
*I *7139:A I *D sky130_fd_sc_hd__inv_1
*I *7138:Y O *D sky130_fd_sc_hd__inv_1
*CAP
1 *7139:A 6.1224e-05
2 *7138:Y 6.1224e-05
3 *7139:A *7140:A 4.85703e-05
4 *7138:A *7139:A 6.72092e-05
5 *406:41 *7139:A 8.4901e-05
*RES
1 *7138:Y *7139:A 20.8277 
*END

*D_NET *632 0.000399172
*CONN
*I *7140:A I *D sky130_fd_sc_hd__inv_1
*I *7139:Y O *D sky130_fd_sc_hd__inv_1
*CAP
1 *7140:A 0.000119655
2 *7139:Y 0.000119655
3 *7140:A *7141:A 4.75026e-05
4 *7137:A *7140:A 0
5 *7139:A *7140:A 4.85703e-05
6 *406:41 *7140:A 6.3789e-05
*RES
1 *7139:Y *7140:A 21.667 
*END

*D_NET *633 0.000426856
*CONN
*I *7141:A I *D sky130_fd_sc_hd__inv_1
*I *7140:Y O *D sky130_fd_sc_hd__inv_1
*CAP
1 *7141:A 0.000174676
2 *7140:Y 0.000174676
3 *7141:A *7142:A 3.00023e-05
4 *7141:A *7145:A 0
5 *7141:A *7154:B 0
6 *7140:A *7141:A 4.75026e-05
7 *413:138 *7141:A 0
*RES
1 *7140:Y *7141:A 30.2652 
*END

*D_NET *634 0.000274336
*CONN
*I *7142:A I *D sky130_fd_sc_hd__inv_1
*I *7141:Y O *D sky130_fd_sc_hd__inv_1
*CAP
1 *7142:A 0.000109021
2 *7141:Y 0.000109021
3 *7142:A *7143:A 2.62908e-05
4 *7141:A *7142:A 3.00023e-05
5 *7154:A *7142:A 0
*RES
1 *7141:Y *7142:A 20.8277 
*END

*D_NET *635 0.000305177
*CONN
*I *7143:A I *D sky130_fd_sc_hd__inv_1
*I *7142:Y O *D sky130_fd_sc_hd__inv_1
*CAP
1 *7143:A 0.000132223
2 *7142:Y 0.000132223
3 *7143:A *7145:A 1.06618e-05
4 *7133:A *7143:A 0
5 *7142:A *7143:A 2.62908e-05
6 *7154:A *7143:A 3.77739e-06
*RES
1 *7142:Y *7143:A 20.9705 
*END

*D_NET *636 0.000814322
*CONN
*I *7145:A I *D sky130_fd_sc_hd__inv_1
*I *7143:Y O *D sky130_fd_sc_hd__inv_1
*CAP
1 *7145:A 0.000222647
2 *7143:Y 0.000222647
3 *7145:A *7154:B 0
4 *6621:A2 *7145:A 0
5 *7141:A *7145:A 0
6 *7143:A *7145:A 1.06618e-05
7 *150:45 *7145:A 7.48912e-05
8 *406:41 *7145:A 0.000283475
*RES
1 *7143:Y *7145:A 32.2741 
*END

*D_NET *637 0.000126413
*CONN
*I *7146:A I *D sky130_fd_sc_hd__inv_1
*I *7144:Y O *D sky130_fd_sc_hd__inv_1
*CAP
1 *7146:A 6.32065e-05
2 *7144:Y 6.32065e-05
*RES
1 *7144:Y *7146:A 19.4973 
*END

*D_NET *638 0.000427623
*CONN
*I *7154:B I *D sky130_fd_sc_hd__nand2_1
*I *7145:Y O *D sky130_fd_sc_hd__inv_1
*CAP
1 *7154:B 0.000143351
2 *7145:Y 0.000143351
3 *6621:A2 *7154:B 6.42338e-05
4 *7141:A *7154:B 0
5 *7145:A *7154:B 0
6 *406:41 *7154:B 7.66879e-05
*RES
1 *7145:Y *7154:B 29.9839 
*END

*D_NET *639 0.000730625
*CONN
*I *7147:A I *D sky130_fd_sc_hd__inv_1
*I *7146:Y O *D sky130_fd_sc_hd__inv_1
*CAP
1 *7147:A 0.000183673
2 *7146:Y 0.000183673
3 *7147:A *7148:A 7.38151e-05
4 *204:10 *7147:A 0.000126439
5 *405:10 *7147:A 3.4879e-05
6 *414:93 *7147:A 0.000128146
*RES
1 *7146:Y *7147:A 31.4973 
*END

*D_NET *640 0.000622334
*CONN
*I *7148:A I *D sky130_fd_sc_hd__inv_1
*I *7147:Y O *D sky130_fd_sc_hd__inv_1
*CAP
1 *7148:A 0.000189739
2 *7147:Y 0.000189739
3 *7148:A *7149:A 1.59935e-05
4 *7147:A *7148:A 7.38151e-05
5 *204:10 *7148:A 0.000153047
*RES
1 *7147:Y *7148:A 31.3455 
*END

*D_NET *641 0.000617125
*CONN
*I *7149:A I *D sky130_fd_sc_hd__inv_1
*I *7148:Y O *D sky130_fd_sc_hd__inv_1
*CAP
1 *7149:A 0.000300566
2 *7148:Y 0.000300566
3 *7148:A *7149:A 1.59935e-05
4 *204:10 *7149:A 0
*RES
1 *7148:Y *7149:A 31.4973 
*END

*D_NET *642 0.000106793
*CONN
*I *7150:A I *D sky130_fd_sc_hd__inv_1
*I *7149:Y O *D sky130_fd_sc_hd__inv_1
*CAP
1 *7150:A 5.33963e-05
2 *7149:Y 5.33963e-05
*RES
1 *7149:Y *7150:A 19.4973 
*END

*D_NET *643 0.000204553
*CONN
*I *7151:A I *D sky130_fd_sc_hd__inv_1
*I *7150:Y O *D sky130_fd_sc_hd__inv_1
*CAP
1 *7151:A 0.000102277
2 *7150:Y 0.000102277
*RES
1 *7150:Y *7151:A 20.3188 
*END

*D_NET *644 0.000106793
*CONN
*I *7152:A I *D sky130_fd_sc_hd__inv_1
*I *7151:Y O *D sky130_fd_sc_hd__inv_1
*CAP
1 *7152:A 5.33963e-05
2 *7151:Y 5.33963e-05
*RES
1 *7151:Y *7152:A 19.4973 
*END

*D_NET *645 0.000139938
*CONN
*I *7123:A I *D sky130_fd_sc_hd__inv_1
*I *7152:Y O *D sky130_fd_sc_hd__inv_1
*CAP
1 *7123:A 6.9969e-05
2 *7152:Y 6.9969e-05
*RES
1 *7152:Y *7123:A 19.4973 
*END

*D_NET *646 0.000661093
*CONN
*I *6624:B2 I *D sky130_fd_sc_hd__a221o_2
*I *7153:X O *D sky130_fd_sc_hd__buf_1
*CAP
1 *6624:B2 0.000221204
2 *7153:X 0.000221204
3 *6624:C1 *6624:B2 0.000218685
*RES
1 *7153:X *6624:B2 22.5866 
*END

*D_NET *647 0.000800119
*CONN
*I *7186:A I *D sky130_fd_sc_hd__nand2_1
*I *6542:X O *D sky130_fd_sc_hd__and3_2
*CAP
1 *7186:A 0.000304008
2 *6542:X 0.000304008
3 *7186:A *7165:A 6.09963e-05
4 *7186:A *7186:B 2.60117e-05
5 *6542:C *7186:A 4.85049e-06
6 *414:105 *7186:A 3.08382e-06
7 *414:120 *7186:A 9.71601e-05
*RES
1 *6542:X *7186:A 24.225 
*END

*D_NET *648 0.000303727
*CONN
*I *7165:A I *D sky130_fd_sc_hd__inv_1
*I *7186:Y O *D sky130_fd_sc_hd__nand2_1
*CAP
1 *7165:A 8.88979e-05
2 *7186:Y 8.88979e-05
3 *7165:A *7186:B 6.49351e-05
4 *7186:A *7165:A 6.09963e-05
*RES
1 *7186:Y *7165:A 20.667 
*END

*D_NET *649 0.000411189
*CONN
*I *7156:A I *D sky130_fd_sc_hd__inv_1
*I *7155:Y O *D sky130_fd_sc_hd__inv_1
*CAP
1 *7156:A 0.000110569
2 *7155:Y 0.000110569
3 *7156:A *7155:A 0.000142969
4 *7156:A *7180:A 0
5 *7156:A *7182:A 2.3541e-05
6 *7156:A *7282:A 2.3541e-05
*RES
1 *7155:Y *7156:A 29.8098 
*END

*D_NET *650 0.00104456
*CONN
*I *7157:A I *D sky130_fd_sc_hd__inv_1
*I *7156:Y O *D sky130_fd_sc_hd__inv_1
*CAP
1 *7157:A 0.000275008
2 *7156:Y 0.000275008
3 *7157:A *7158:A 0.000112826
4 *7157:A *7180:A 6.2638e-05
5 *7157:A *7181:A 7.78101e-05
6 *7157:A *7182:A 0.000144324
7 *7157:A *7282:A 9.69489e-05
*RES
1 *7156:Y *7157:A 25.283 
*END

*D_NET *651 0.00061306
*CONN
*I *7158:A I *D sky130_fd_sc_hd__inv_1
*I *7157:Y O *D sky130_fd_sc_hd__inv_1
*CAP
1 *7158:A 0.000173065
2 *7157:Y 0.000173065
3 *7158:A *7159:A 1.87618e-05
4 *7158:A *7282:A 0.000135342
5 *7157:A *7158:A 0.000112826
*RES
1 *7157:Y *7158:A 22.2563 
*END

*D_NET *652 0.00102016
*CONN
*I *7159:A I *D sky130_fd_sc_hd__inv_1
*I *7158:Y O *D sky130_fd_sc_hd__inv_1
*CAP
1 *7159:A 0.0003767
2 *7158:Y 0.0003767
3 *7159:A *7160:A 5.47661e-05
4 *7159:A *7175:A 7.83659e-05
5 *7159:A *7177:A 7.61109e-05
6 *7159:A *7282:A 3.87571e-05
7 *6628:A2 *7159:A 0
8 *7158:A *7159:A 1.87618e-05
*RES
1 *7158:Y *7159:A 33.8812 
*END

*D_NET *653 0.000819707
*CONN
*I *7160:A I *D sky130_fd_sc_hd__inv_1
*I *7159:Y O *D sky130_fd_sc_hd__inv_1
*CAP
1 *7160:A 0.000303357
2 *7159:Y 0.000303357
3 *7160:A *7162:A 0.000123429
4 *7160:A *7163:A 3.47984e-05
5 *7159:A *7160:A 5.47661e-05
*RES
1 *7159:Y *7160:A 23.7027 
*END

*D_NET *654 0.00118501
*CONN
*I *7185:A I *D sky130_fd_sc_hd__buf_1
*I *7161:A I *D sky130_fd_sc_hd__inv_1
*I *7160:Y O *D sky130_fd_sc_hd__inv_1
*CAP
1 *7185:A 0.000117951
2 *7161:A 0
3 *7160:Y 0.000160815
4 *654:8 0.000278766
5 *7185:A *6627:A1 5.33005e-05
6 *654:8 *7162:A 0.000182245
7 *6621:A1 *7185:A 0.000168491
8 *6627:A2 *7185:A 5.33005e-05
9 *218:20 *7185:A 0.000170138
*RES
1 *7160:Y *654:8 12.175 
2 *654:8 *7161:A 9.3 
3 *654:8 *7185:A 21.5768 
*END

*D_NET *655 0.000558462
*CONN
*I *7162:A I *D sky130_fd_sc_hd__inv_1
*I *7161:Y O *D sky130_fd_sc_hd__inv_1
*CAP
1 *7162:A 0.000126394
2 *7161:Y 0.000126394
3 *7160:A *7162:A 0.000123429
4 *654:8 *7162:A 0.000182245
*RES
1 *7161:Y *7162:A 21.6938 
*END

*D_NET *656 0.000451515
*CONN
*I *7163:A I *D sky130_fd_sc_hd__inv_1
*I *7162:Y O *D sky130_fd_sc_hd__inv_1
*CAP
1 *7163:A 8.69332e-05
2 *7162:Y 8.69332e-05
3 *6614:A2 *7163:A 0.000126439
4 *6624:B1 *7163:A 1.31516e-05
5 *6627:A2 *7163:A 0.00010326
6 *7160:A *7163:A 3.47984e-05
*RES
1 *7162:Y *7163:A 29.8545 
*END

*D_NET *657 0.000223596
*CONN
*I *7164:A I *D sky130_fd_sc_hd__inv_1
*I *7163:Y O *D sky130_fd_sc_hd__inv_1
*CAP
1 *7164:A 0.000111798
2 *7163:Y 0.000111798
*RES
1 *7163:Y *7164:A 20.3188 
*END

*D_NET *658 0.000155673
*CONN
*I *7166:A I *D sky130_fd_sc_hd__inv_1
*I *7164:Y O *D sky130_fd_sc_hd__inv_1
*CAP
1 *7166:A 7.78365e-05
2 *7164:Y 7.78365e-05
*RES
1 *7164:Y *7166:A 19.908 
*END

*D_NET *659 0.000155673
*CONN
*I *7176:A I *D sky130_fd_sc_hd__inv_1
*I *7165:Y O *D sky130_fd_sc_hd__inv_1
*CAP
1 *7176:A 7.78365e-05
2 *7165:Y 7.78365e-05
*RES
1 *7165:Y *7176:A 19.908 
*END

*D_NET *660 0.000155673
*CONN
*I *7167:A I *D sky130_fd_sc_hd__inv_1
*I *7166:Y O *D sky130_fd_sc_hd__inv_1
*CAP
1 *7167:A 7.78365e-05
2 *7166:Y 7.78365e-05
*RES
1 *7166:Y *7167:A 19.908 
*END

*D_NET *661 0.000465154
*CONN
*I *7168:A I *D sky130_fd_sc_hd__inv_1
*I *7167:Y O *D sky130_fd_sc_hd__inv_1
*CAP
1 *7168:A 0.000164224
2 *7167:Y 0.000164224
3 *7168:A *6628:B2 3.82062e-05
4 *6620:B2 *7168:A 2.66026e-05
5 *6621:B1 *7168:A 7.18982e-05
*RES
1 *7167:Y *7168:A 30.5688 
*END

*D_NET *662 0.000186857
*CONN
*I *7169:A I *D sky130_fd_sc_hd__inv_1
*I *7168:Y O *D sky130_fd_sc_hd__inv_1
*CAP
1 *7169:A 2.26192e-05
2 *7168:Y 2.26192e-05
3 *7169:A *6628:B2 4.88402e-05
4 *6621:B1 *7169:A 9.27788e-05
*RES
1 *7168:Y *7169:A 19.4973 
*END

*D_NET *663 0.000560371
*CONN
*I *7170:A I *D sky130_fd_sc_hd__inv_1
*I *7169:Y O *D sky130_fd_sc_hd__inv_1
*CAP
1 *7170:A 0.000233368
2 *7169:Y 0.000233368
3 *7170:A *7171:A 2.80853e-05
4 *6621:B1 *7170:A 6.55493e-05
*RES
1 *7169:Y *7170:A 30.9795 
*END

*D_NET *664 0.000433251
*CONN
*I *7171:A I *D sky130_fd_sc_hd__inv_1
*I *7170:Y O *D sky130_fd_sc_hd__inv_1
*CAP
1 *7171:A 0.00019424
2 *7170:Y 0.00019424
3 *7171:A *7172:A 1.66856e-05
4 *7170:A *7171:A 2.80853e-05
*RES
1 *7170:Y *7171:A 22.0598 
*END

*D_NET *665 0.000323967
*CONN
*I *7172:A I *D sky130_fd_sc_hd__inv_1
*I *7171:Y O *D sky130_fd_sc_hd__inv_1
*CAP
1 *7172:A 0.000146603
2 *7171:Y 0.000146603
3 *7172:A *7173:A 1.40749e-05
4 *7171:A *7172:A 1.66856e-05
*RES
1 *7171:Y *7172:A 29.8098 
*END

*D_NET *666 0.000306348
*CONN
*I *7173:A I *D sky130_fd_sc_hd__inv_1
*I *7172:Y O *D sky130_fd_sc_hd__inv_1
*CAP
1 *7173:A 0.000132814
2 *7172:Y 0.000132814
3 *7173:A *7174:A 2.66459e-05
4 *7172:A *7173:A 1.40749e-05
*RES
1 *7172:Y *7173:A 21.2518 
*END

*D_NET *667 0.000308034
*CONN
*I *7174:A I *D sky130_fd_sc_hd__inv_1
*I *7173:Y O *D sky130_fd_sc_hd__inv_1
*CAP
1 *7174:A 0.000133562
2 *7173:Y 0.000133562
3 *7174:A *7175:A 1.42638e-05
4 *7173:A *7174:A 2.66459e-05
*RES
1 *7173:Y *7174:A 21.1313 
*END

*D_NET *668 0.000577327
*CONN
*I *7175:A I *D sky130_fd_sc_hd__inv_1
*I *7174:Y O *D sky130_fd_sc_hd__inv_1
*CAP
1 *7175:A 0.000224001
2 *7174:Y 0.000224001
3 *7175:A *7177:A 1.14548e-05
4 *7175:A *7282:A 2.524e-05
5 *6628:A2 *7175:A 0
6 *7159:A *7175:A 7.83659e-05
7 *7174:A *7175:A 1.42638e-05
*RES
1 *7174:Y *7175:A 30.9348 
*END

*D_NET *669 0.000452296
*CONN
*I *7177:A I *D sky130_fd_sc_hd__inv_1
*I *7175:Y O *D sky130_fd_sc_hd__inv_1
*CAP
1 *7177:A 0.00010916
2 *7175:Y 0.00010916
3 *7177:A *7282:A 0.00014641
4 *7159:A *7177:A 7.61109e-05
5 *7175:A *7177:A 1.14548e-05
*RES
1 *7175:Y *7177:A 21.542 
*END

*D_NET *670 0.000155673
*CONN
*I *7178:A I *D sky130_fd_sc_hd__inv_1
*I *7176:Y O *D sky130_fd_sc_hd__inv_1
*CAP
1 *7178:A 7.78365e-05
2 *7176:Y 7.78365e-05
*RES
1 *7176:Y *7178:A 19.908 
*END

*D_NET *671 0.000856211
*CONN
*I *7186:B I *D sky130_fd_sc_hd__nand2_1
*I *7177:Y O *D sky130_fd_sc_hd__inv_1
*CAP
1 *7186:B 0.000261068
2 *7177:Y 0.000261068
3 *7186:B *7282:A 0.000164762
4 *6628:A2 *7186:B 7.83659e-05
5 *7165:A *7186:B 6.49351e-05
6 *7186:A *7186:B 2.60117e-05
*RES
1 *7177:Y *7186:B 31.8768 
*END

*D_NET *672 0.000338076
*CONN
*I *7179:A I *D sky130_fd_sc_hd__inv_1
*I *7178:Y O *D sky130_fd_sc_hd__inv_1
*CAP
1 *7179:A 0.000135749
2 *7178:Y 0.000135749
3 *7179:A *7516:A 2.3541e-05
4 *7179:A *7518:A 4.30377e-05
*RES
1 *7178:Y *7179:A 21.283 
*END

*D_NET *673 0.000502656
*CONN
*I *7180:A I *D sky130_fd_sc_hd__inv_1
*I *7179:Y O *D sky130_fd_sc_hd__inv_1
*CAP
1 *7180:A 0.000160063
2 *7179:Y 0.000160063
3 *7180:A *7282:A 0.000115711
4 *7180:A *7518:A 4.18134e-06
5 *7156:A *7180:A 0
6 *7157:A *7180:A 6.2638e-05
*RES
1 *7179:Y *7180:A 30.6759 
*END

*D_NET *674 0.000254805
*CONN
*I *7181:A I *D sky130_fd_sc_hd__inv_1
*I *7180:Y O *D sky130_fd_sc_hd__inv_1
*CAP
1 *7181:A 1.87302e-05
2 *7180:Y 1.87302e-05
3 *7181:A *7282:A 0.000139534
4 *7157:A *7181:A 7.78101e-05
*RES
1 *7180:Y *7181:A 19.908 
*END

*D_NET *675 0.000448837
*CONN
*I *7182:A I *D sky130_fd_sc_hd__inv_1
*I *7181:Y O *D sky130_fd_sc_hd__inv_1
*CAP
1 *7182:A 8.40464e-05
2 *7181:Y 8.40464e-05
3 *7182:A *7184:A 6.74605e-06
4 *7182:A *7282:A 0.000106133
5 *7156:A *7182:A 2.3541e-05
6 *7157:A *7182:A 0.000144324
*RES
1 *7181:Y *7182:A 21.1536 
*END

*D_NET *676 0.000199707
*CONN
*I *7183:A I *D sky130_fd_sc_hd__inv_1
*I *7182:Y O *D sky130_fd_sc_hd__inv_1
*CAP
1 *7183:A 1.5085e-05
2 *7182:Y 1.5085e-05
3 *7183:A *7184:A 7.38151e-05
4 *7183:A *7282:A 9.57215e-05
*RES
1 *7182:Y *7183:A 19.4973 
*END

*D_NET *677 0.000710325
*CONN
*I *7184:A I *D sky130_fd_sc_hd__inv_1
*I *7183:Y O *D sky130_fd_sc_hd__inv_1
*CAP
1 *7184:A 0.000279185
2 *7183:Y 0.000279185
3 *7184:A *7155:A 4.40401e-05
4 *7184:A *7282:A 2.7353e-05
5 *7184:A *7282:B 0
6 *7182:A *7184:A 6.74605e-06
7 *7183:A *7184:A 7.38151e-05
*RES
1 *7183:Y *7184:A 32.8991 
*END

*D_NET *678 0.000779036
*CONN
*I *7155:A I *D sky130_fd_sc_hd__inv_1
*I *7184:Y O *D sky130_fd_sc_hd__inv_1
*CAP
1 *7155:A 0.000296013
2 *7184:Y 0.000296013
3 *7155:A *7282:B 0
4 *7156:A *7155:A 0.000142969
5 *7184:A *7155:A 4.40401e-05
*RES
1 *7184:Y *7155:A 32.6491 
*END

*D_NET *679 0.000717975
*CONN
*I *6627:A1 I *D sky130_fd_sc_hd__a22o_2
*I *7185:X O *D sky130_fd_sc_hd__buf_1
*CAP
1 *6627:A1 0.00013525
2 *7185:X 0.00013525
3 *6627:A2 *6627:A1 0.000130498
4 *6628:C1 *6627:A1 6.09682e-05
5 *7185:A *6627:A1 5.33005e-05
6 *206:46 *6627:A1 0.000202707
*RES
1 *7185:X *6627:A1 22.4571 
*END

*D_NET *680 0.000456721
*CONN
*I *7218:A I *D sky130_fd_sc_hd__nand2_1
*I *6543:X O *D sky130_fd_sc_hd__and3_2
*CAP
1 *7218:A 0.000105763
2 *6543:X 0.000105763
3 *6615:A2 *7218:A 0.000125731
4 *6621:A2 *7218:A 6.42338e-05
5 *414:105 *7218:A 5.52302e-05
*RES
1 *6543:X *7218:A 29.7786 
*END

*D_NET *681 0.000218021
*CONN
*I *7197:A I *D sky130_fd_sc_hd__inv_1
*I *7218:Y O *D sky130_fd_sc_hd__nand2_1
*CAP
1 *7197:A 9.81239e-05
2 *7218:Y 9.81239e-05
3 *7197:A *7208:A 2.17735e-05
*RES
1 *7218:Y *7197:A 20.2563 
*END

*D_NET *682 0.00102473
*CONN
*I *7188:A I *D sky130_fd_sc_hd__inv_1
*I *7187:Y O *D sky130_fd_sc_hd__inv_1
*CAP
1 *7188:A 0.00019619
2 *7187:Y 0.00019619
3 *7188:A *7187:A 7.83659e-05
4 *7188:A *7212:A 3.99614e-06
5 *7188:A *7213:A 0
6 *6543:C *7188:A 3.28686e-05
7 *6615:A2 *7188:A 0.000129214
8 *6621:A2 *7188:A 0.000179656
9 *6622:B1 *7188:A 0.000103253
10 *150:49 *7188:A 0
11 *206:26 *7188:A 1.22159e-05
12 *206:46 *7188:A 9.27788e-05
*RES
1 *7187:Y *7188:A 33.533 
*END

*D_NET *683 0.000313788
*CONN
*I *7189:A I *D sky130_fd_sc_hd__inv_1
*I *7188:Y O *D sky130_fd_sc_hd__inv_1
*CAP
1 *7189:A 6.66917e-05
2 *7188:Y 6.66917e-05
3 *206:46 *7189:A 0.000180404
*RES
1 *7188:Y *7189:A 20.3188 
*END

*D_NET *684 0.000371381
*CONN
*I *7190:A I *D sky130_fd_sc_hd__inv_1
*I *7189:Y O *D sky130_fd_sc_hd__inv_1
*CAP
1 *7190:A 7.21106e-05
2 *7189:Y 7.21106e-05
3 *206:46 *7190:A 0.00022716
*RES
1 *7189:Y *7190:A 20.7295 
*END

*D_NET *685 0.00048355
*CONN
*I *7191:A I *D sky130_fd_sc_hd__inv_1
*I *7190:Y O *D sky130_fd_sc_hd__inv_1
*CAP
1 *7191:A 0.000139361
2 *7190:Y 0.000139361
3 *6621:A1 *7191:A 7.18982e-05
4 *6621:B1 *7191:A 7.18982e-05
5 *6632:B2 *7191:A 1.46624e-05
6 *150:49 *7191:A 0
7 *206:46 *7191:A 1.06618e-05
8 *413:138 *7191:A 3.5707e-05
*RES
1 *7190:Y *7191:A 30.5688 
*END

*D_NET *686 0.000233397
*CONN
*I *7192:A I *D sky130_fd_sc_hd__inv_1
*I *7191:Y O *D sky130_fd_sc_hd__inv_1
*CAP
1 *7192:A 2.68687e-05
2 *7191:Y 2.68687e-05
3 *6621:A1 *7192:A 8.98296e-05
4 *6621:B1 *7192:A 8.98296e-05
*RES
1 *7191:Y *7192:A 19.4973 
*END

*D_NET *687 0.000710494
*CONN
*I *7217:A I *D sky130_fd_sc_hd__buf_1
*I *7193:A I *D sky130_fd_sc_hd__inv_1
*I *7192:Y O *D sky130_fd_sc_hd__inv_1
*CAP
1 *7217:A 2.97947e-05
2 *7193:A 0
3 *7192:Y 0.000165343
4 *687:14 0.000195138
5 *7217:A *7194:A 2.92204e-05
6 *687:14 *7194:A 1.78648e-05
7 *6620:B2 *687:14 7.71303e-05
8 *206:46 *7217:A 0.000106117
9 *206:46 *687:14 3.72587e-05
10 *217:10 *687:14 5.26277e-05
*RES
1 *7192:Y *687:14 21.3402 
2 *687:14 *7193:A 9.3 
3 *687:14 *7217:A 10.4295 
*END

*D_NET *688 0.000562954
*CONN
*I *7194:A I *D sky130_fd_sc_hd__inv_1
*I *7193:Y O *D sky130_fd_sc_hd__inv_1
*CAP
1 *7194:A 0.000207148
2 *7193:Y 0.000207148
3 *7194:A *7195:A 4.42922e-05
4 *7217:A *7194:A 2.92204e-05
5 *206:46 *7194:A 5.72806e-05
6 *687:14 *7194:A 1.78648e-05
*RES
1 *7193:Y *7194:A 22.2964 
*END

*D_NET *689 0.000198943
*CONN
*I *7195:A I *D sky130_fd_sc_hd__inv_1
*I *7194:Y O *D sky130_fd_sc_hd__inv_1
*CAP
1 *7195:A 3.24107e-05
2 *7194:Y 3.24107e-05
3 *7194:A *7195:A 4.42922e-05
4 *206:46 *7195:A 8.98296e-05
*RES
1 *7194:Y *7195:A 19.4973 
*END

*D_NET *690 0.000445952
*CONN
*I *7196:A I *D sky130_fd_sc_hd__inv_1
*I *7195:Y O *D sky130_fd_sc_hd__inv_1
*CAP
1 *7196:A 0.000146677
2 *7195:Y 0.000146677
3 *7196:A *7198:A 2.97126e-05
4 *206:46 *7196:A 7.71303e-05
5 *217:10 *7196:A 4.57538e-05
*RES
1 *7195:Y *7196:A 30.2652 
*END

*D_NET *691 0.000513674
*CONN
*I *7198:A I *D sky130_fd_sc_hd__inv_1
*I *7196:Y O *D sky130_fd_sc_hd__inv_1
*CAP
1 *7198:A 0.000188718
2 *7196:Y 0.000188718
3 *7198:A *7199:A 8.98296e-05
4 *7198:A *7200:A 1.66955e-05
5 *7196:A *7198:A 2.97126e-05
*RES
1 *7196:Y *7198:A 22.0241 
*END

*D_NET *692 0.000594193
*CONN
*I *7208:A I *D sky130_fd_sc_hd__inv_1
*I *7197:Y O *D sky130_fd_sc_hd__inv_1
*CAP
1 *7208:A 0.00019336
2 *7197:Y 0.00019336
3 *7208:A *7210:A 2.80853e-05
4 *6615:A2 *7208:A 8.15939e-05
5 *6621:A2 *7208:A 7.6021e-05
6 *7197:A *7208:A 2.17735e-05
*RES
1 *7197:Y *7208:A 30.9795 
*END

*D_NET *693 0.000188739
*CONN
*I *7199:A I *D sky130_fd_sc_hd__inv_1
*I *7198:Y O *D sky130_fd_sc_hd__inv_1
*CAP
1 *7199:A 4.94546e-05
2 *7198:Y 4.94546e-05
3 *7198:A *7199:A 8.98296e-05
*RES
1 *7198:Y *7199:A 19.4973 
*END

*D_NET *694 0.000797069
*CONN
*I *7200:A I *D sky130_fd_sc_hd__inv_1
*I *7199:Y O *D sky130_fd_sc_hd__inv_1
*CAP
1 *7200:A 0.000182948
2 *7199:Y 0.000182948
3 *7200:A *7201:A 6.74911e-05
4 *6545:A *7200:A 0
5 *7198:A *7200:A 1.66955e-05
6 *217:10 *7200:A 0.000321745
7 *406:58 *7200:A 0
8 *414:105 *7200:A 2.524e-05
*RES
1 *7199:Y *7200:A 32.2384 
*END

*D_NET *695 0.000423786
*CONN
*I *7201:A I *D sky130_fd_sc_hd__inv_1
*I *7200:Y O *D sky130_fd_sc_hd__inv_1
*CAP
1 *7201:A 0.000148871
2 *7200:Y 0.000148871
3 *7201:A *7202:A 2.80715e-05
4 *7200:A *7201:A 6.74911e-05
5 *414:105 *7201:A 3.04823e-05
*RES
1 *7200:Y *7201:A 30.2652 
*END

*D_NET *696 0.000293136
*CONN
*I *7202:A I *D sky130_fd_sc_hd__inv_1
*I *7201:Y O *D sky130_fd_sc_hd__inv_1
*CAP
1 *7202:A 0.000121483
2 *7201:Y 0.000121483
3 *7202:A *7203:A 2.20987e-05
4 *7202:A *7204:A 0
5 *7201:A *7202:A 2.80715e-05
*RES
1 *7201:Y *7202:A 20.8277 
*END

*D_NET *697 0.00037519
*CONN
*I *7203:A I *D sky130_fd_sc_hd__inv_1
*I *7202:Y O *D sky130_fd_sc_hd__inv_1
*CAP
1 *7203:A 0.000151034
2 *7202:Y 0.000151034
3 *7203:A *7204:A 3.12533e-05
4 *7203:A *7205:A 1.97695e-05
5 *7202:A *7203:A 2.20987e-05
*RES
1 *7202:Y *7203:A 21.0643 
*END

*D_NET *698 0.000295762
*CONN
*I *7204:A I *D sky130_fd_sc_hd__inv_1
*I *7203:Y O *D sky130_fd_sc_hd__inv_1
*CAP
1 *7204:A 0.000107969
2 *7203:Y 0.000107969
3 *7204:A *7205:A 4.85703e-05
4 *7202:A *7204:A 0
5 *7203:A *7204:A 3.12533e-05
*RES
1 *7203:Y *7204:A 20.8277 
*END

*D_NET *699 0.000417946
*CONN
*I *7205:A I *D sky130_fd_sc_hd__inv_1
*I *7204:Y O *D sky130_fd_sc_hd__inv_1
*CAP
1 *7205:A 0.000161658
2 *7204:Y 0.000161658
3 *7205:A *7206:A 2.62908e-05
4 *7203:A *7205:A 1.97695e-05
5 *7204:A *7205:A 4.85703e-05
*RES
1 *7204:Y *7205:A 22.0777 
*END

*D_NET *700 0.000496102
*CONN
*I *7206:A I *D sky130_fd_sc_hd__inv_1
*I *7205:Y O *D sky130_fd_sc_hd__inv_1
*CAP
1 *7206:A 0.000183981
2 *7205:Y 0.000183981
3 *7206:A *7207:A 1.40749e-05
4 *7205:A *7206:A 2.62908e-05
5 *150:49 *7206:A 6.42338e-05
6 *414:105 *7206:A 2.3541e-05
*RES
1 *7205:Y *7206:A 30.6313 
*END

*D_NET *701 0.00037177
*CONN
*I *7207:A I *D sky130_fd_sc_hd__inv_1
*I *7206:Y O *D sky130_fd_sc_hd__inv_1
*CAP
1 *7207:A 0.00010625
2 *7206:Y 0.00010625
3 *7207:A *7209:A 6.07269e-05
4 *7206:A *7207:A 1.40749e-05
5 *414:105 *7207:A 8.44692e-05
*RES
1 *7206:Y *7207:A 21.1313 
*END

*D_NET *702 0.000447358
*CONN
*I *7209:A I *D sky130_fd_sc_hd__inv_1
*I *7207:Y O *D sky130_fd_sc_hd__inv_1
*CAP
1 *7209:A 0.000134073
2 *7207:Y 0.000134073
3 *7209:A *7218:B 2.20987e-05
4 *7207:A *7209:A 6.07269e-05
5 *414:105 *7209:A 9.63854e-05
*RES
1 *7207:Y *7209:A 21.6848 
*END

*D_NET *703 0.000300217
*CONN
*I *7210:A I *D sky130_fd_sc_hd__inv_1
*I *7208:Y O *D sky130_fd_sc_hd__inv_1
*CAP
1 *7210:A 0.000126581
2 *7208:Y 0.000126581
3 *7210:A *7211:A 1.89695e-05
4 *7208:A *7210:A 2.80853e-05
*RES
1 *7208:Y *7210:A 20.8277 
*END

*D_NET *704 0.000897482
*CONN
*I *7218:B I *D sky130_fd_sc_hd__nand2_1
*I *7209:Y O *D sky130_fd_sc_hd__inv_1
*CAP
1 *7218:B 0.000142698
2 *7209:Y 0.000142698
3 *6543:B *7218:B 0.000139907
4 *6543:C *7218:B 0.000154762
5 *6615:A2 *7218:B 0.000169405
6 *6925:A *7218:B 2.91794e-05
7 *7209:A *7218:B 2.20987e-05
8 *414:93 *7218:B 5.83304e-05
9 *414:105 *7218:B 3.84033e-05
*RES
1 *7209:Y *7218:B 32.4304 
*END

*D_NET *705 0.000421072
*CONN
*I *7211:A I *D sky130_fd_sc_hd__inv_1
*I *7210:Y O *D sky130_fd_sc_hd__inv_1
*CAP
1 *7211:A 0.00010679
2 *7210:Y 0.00010679
3 *7211:A *7212:A 2.80853e-05
4 *6615:A2 *7211:A 0.000123288
5 *6621:A2 *7211:A 3.71496e-05
6 *7210:A *7211:A 1.89695e-05
*RES
1 *7210:Y *7211:A 29.8545 
*END

*D_NET *706 0.000408435
*CONN
*I *7212:A I *D sky130_fd_sc_hd__inv_1
*I *7211:Y O *D sky130_fd_sc_hd__inv_1
*CAP
1 *7212:A 8.47019e-05
2 *7211:Y 8.47019e-05
3 *7212:A *7213:A 2.61262e-05
4 *7188:A *7212:A 3.99614e-06
5 *7211:A *7212:A 2.80853e-05
6 *206:26 *7212:A 0.000180823
*RES
1 *7211:Y *7212:A 20.8277 
*END

*D_NET *707 0.000410975
*CONN
*I *7213:A I *D sky130_fd_sc_hd__inv_1
*I *7212:Y O *D sky130_fd_sc_hd__inv_1
*CAP
1 *7213:A 0.000118464
2 *7212:Y 0.000118464
3 *7213:A *7214:A 4.69242e-05
4 *7188:A *7213:A 0
5 *7212:A *7213:A 2.61262e-05
6 *206:26 *7213:A 0.000100996
*RES
1 *7212:Y *7213:A 21.1313 
*END

*D_NET *708 0.000621625
*CONN
*I *7214:A I *D sky130_fd_sc_hd__inv_1
*I *7213:Y O *D sky130_fd_sc_hd__inv_1
*CAP
1 *7214:A 0.000124824
2 *7213:Y 0.000124824
3 *7214:A *7215:A 1.36161e-05
4 *7214:A *7216:A 1.36161e-05
5 *6543:C *7214:A 0.000148911
6 *6925:A *7214:A 0.000148911
7 *7213:A *7214:A 4.69242e-05
*RES
1 *7213:Y *7214:A 30.5688 
*END

*D_NET *709 0.000372154
*CONN
*I *7215:A I *D sky130_fd_sc_hd__inv_1
*I *7214:Y O *D sky130_fd_sc_hd__inv_1
*CAP
1 *7215:A 0.000158471
2 *7214:Y 0.000158471
3 *7215:A *7216:A 4.15963e-05
4 *7214:A *7215:A 1.36161e-05
*RES
1 *7214:Y *7215:A 21.1313 
*END

*D_NET *710 0.000476844
*CONN
*I *7216:A I *D sky130_fd_sc_hd__inv_1
*I *7215:Y O *D sky130_fd_sc_hd__inv_1
*CAP
1 *7216:A 0.000210816
2 *7215:Y 0.000210816
3 *6621:A2 *7216:A 0
4 *7214:A *7216:A 1.36161e-05
5 *7215:A *7216:A 4.15963e-05
*RES
1 *7215:Y *7216:A 21.5866 
*END

*D_NET *711 0.00047712
*CONN
*I *7187:A I *D sky130_fd_sc_hd__inv_1
*I *7216:Y O *D sky130_fd_sc_hd__inv_1
*CAP
1 *7187:A 9.84022e-05
2 *7216:Y 9.84022e-05
3 *6543:C *7187:A 2.3541e-05
4 *6615:A2 *7187:A 0.000127446
5 *6622:B1 *7187:A 1.81709e-05
6 *6633:B1 *7187:A 2.3541e-05
7 *7188:A *7187:A 7.83659e-05
8 *153:57 *7187:A 9.25014e-06
*RES
1 *7216:Y *7187:A 29.8098 
*END

*D_NET *712 0.00031434
*CONN
*I *6627:B2 I *D sky130_fd_sc_hd__a22o_2
*I *7217:X O *D sky130_fd_sc_hd__buf_1
*CAP
1 *6627:B2 8.54823e-05
2 *7217:X 8.54823e-05
3 *206:46 *6627:B2 0.000143375
*RES
1 *7217:X *6627:B2 20.6893 
*END

*D_NET *713 0.00107329
*CONN
*I *7250:A I *D sky130_fd_sc_hd__nand2_1
*I *6544:X O *D sky130_fd_sc_hd__and3_2
*CAP
1 *7250:A 0.000288652
2 *6544:X 0.000288652
3 *6521:B *7250:A 0.000125731
4 *145:12 *7250:A 0.00013785
5 *406:12 *7250:A 0.000186662
6 *481:46 *7250:A 4.57445e-05
*RES
1 *6544:X *7250:A 32.6536 
*END

*D_NET *714 0.000662592
*CONN
*I *7229:A I *D sky130_fd_sc_hd__inv_1
*I *7250:Y O *D sky130_fd_sc_hd__nand2_1
*CAP
1 *7229:A 0.000106585
2 *7250:Y 0.000106585
3 *6521:B *7229:A 6.74911e-05
4 *6546:B *7229:A 9.71197e-05
5 *481:46 *7229:A 5.33882e-05
6 *514:28 *7229:A 0.000159524
7 *531:24 *7229:A 7.18982e-05
*RES
1 *7250:Y *7229:A 31.0598 
*END

*D_NET *715 0.000549807
*CONN
*I *7220:A I *D sky130_fd_sc_hd__inv_1
*I *7219:Y O *D sky130_fd_sc_hd__inv_1
*CAP
1 *7220:A 0.000182704
2 *7219:Y 0.000182704
3 *7220:A *7219:A 2.19819e-05
4 *205:32 *7220:A 2.23488e-06
5 *285:9 *7220:A 3.61003e-05
6 *317:50 *7220:A 0.000124083
*RES
1 *7219:Y *7220:A 30.6759 
*END

*D_NET *716 0.000575588
*CONN
*I *7221:A I *D sky130_fd_sc_hd__inv_1
*I *7220:Y O *D sky130_fd_sc_hd__inv_1
*CAP
1 *7221:A 0.000189337
2 *7220:Y 0.000189337
3 *7221:A *7222:A 6.64618e-06
4 *6827:CLK *7221:A 5.49544e-05
5 *6827:D *7221:A 0
6 *285:9 *7221:A 3.32595e-05
7 *317:50 *7221:A 0.000102053
*RES
1 *7220:Y *7221:A 31.3098 
*END

*D_NET *717 0.00108506
*CONN
*I *7222:A I *D sky130_fd_sc_hd__inv_1
*I *7221:Y O *D sky130_fd_sc_hd__inv_1
*CAP
1 *7222:A 0.000348901
2 *7221:Y 0.000348901
3 *7222:A *7226:A 0
4 *6614:A1 *7222:A 0
5 *6632:A2 *7222:A 4.13122e-06
6 *6826:CLK *7222:A 0.000334338
7 *6827:CLK *7222:A 2.59355e-05
8 *7221:A *7222:A 6.64618e-06
9 *218:20 *7222:A 1.62049e-05
*RES
1 *7221:Y *7222:A 34.2562 
*END

*D_NET *718 0.000141483
*CONN
*I *7223:A I *D sky130_fd_sc_hd__inv_1
*I *7222:Y O *D sky130_fd_sc_hd__inv_1
*CAP
1 *7223:A 2.02496e-05
2 *7222:Y 2.02496e-05
3 *6826:CLK *7223:A 5.11359e-05
4 *218:20 *7223:A 4.9848e-05
*RES
1 *7222:Y *7223:A 19.4973 
*END

*D_NET *719 0.000861392
*CONN
*I *7224:A I *D sky130_fd_sc_hd__inv_1
*I *7223:Y O *D sky130_fd_sc_hd__inv_1
*CAP
1 *7224:A 0.00014304
2 *7223:Y 0.00014304
3 *7224:A *7225:A 6.83862e-05
4 *7224:A *7226:A 0.000143862
5 *7224:A *720:12 0.000121254
6 *6614:A1 *7224:A 1.37743e-05
7 *6826:CLK *7224:A 0.000163424
8 *201:20 *7224:A 1.37743e-05
9 *218:20 *7224:A 3.27745e-05
10 *411:129 *7224:A 1.80626e-05
*RES
1 *7223:Y *7224:A 31.9973 
*END

*D_NET *720 0.000647318
*CONN
*I *7249:A I *D sky130_fd_sc_hd__buf_1
*I *7225:A I *D sky130_fd_sc_hd__inv_1
*I *7224:Y O *D sky130_fd_sc_hd__inv_1
*CAP
1 *7249:A 0
2 *7225:A 3.46661e-05
3 *7224:Y 9.31586e-05
4 *720:12 0.000127825
5 *6620:A1 *720:12 9.25014e-06
6 *6826:CLK *7225:A 2.12005e-05
7 *7224:A *7225:A 6.83862e-05
8 *7224:A *720:12 0.000121254
9 *201:20 *720:12 3.33238e-05
10 *206:46 *7225:A 5.52302e-05
11 *218:20 *7225:A 1.14548e-05
12 *411:129 *720:12 7.15687e-05
*RES
1 *7224:Y *720:12 20.5768 
2 *720:12 *7225:A 10.358 
3 *720:12 *7249:A 9.3 
*END

*D_NET *721 0.000673699
*CONN
*I *7226:A I *D sky130_fd_sc_hd__inv_1
*I *7225:Y O *D sky130_fd_sc_hd__inv_1
*CAP
1 *7226:A 0.000189374
2 *7225:Y 0.000189374
3 *7226:A *7227:A 5.74909e-05
4 *6614:A1 *7226:A 4.91399e-05
5 *6826:CLK *7226:A 3.4517e-05
6 *7222:A *7226:A 0
7 *7224:A *7226:A 0.000143862
8 *201:20 *7226:A 9.94194e-06
*RES
1 *7225:Y *7226:A 31.3277 
*END

*D_NET *722 0.000363072
*CONN
*I *7227:A I *D sky130_fd_sc_hd__inv_1
*I *7226:Y O *D sky130_fd_sc_hd__inv_1
*CAP
1 *7227:A 6.36972e-05
2 *7226:Y 6.36972e-05
3 *7227:A *7228:A 2.54648e-05
4 *6614:A1 *7227:A 8.83483e-06
5 *7226:A *7227:A 5.74909e-05
6 *201:20 *7227:A 0.000143887
*RES
1 *7226:Y *7227:A 20.8277 
*END

*D_NET *723 0.000410872
*CONN
*I *7228:A I *D sky130_fd_sc_hd__inv_1
*I *7227:Y O *D sky130_fd_sc_hd__inv_1
*CAP
1 *7228:A 0.000174254
2 *7227:Y 0.000174254
3 *7228:A *7230:A 1.76324e-05
4 *7227:A *7228:A 2.54648e-05
5 *201:20 *7228:A 1.92674e-05
*RES
1 *7227:Y *7228:A 20.9795 
*END

*D_NET *724 0.00032885
*CONN
*I *7230:A I *D sky130_fd_sc_hd__inv_1
*I *7228:Y O *D sky130_fd_sc_hd__inv_1
*CAP
1 *7230:A 8.70438e-05
2 *7228:Y 8.70438e-05
3 *7230:A *7231:A 3.60379e-05
4 *7228:A *7230:A 1.76324e-05
5 *201:20 *7230:A 0.000101092
*RES
1 *7228:Y *7230:A 20.8277 
*END

*D_NET *725 0.000212531
*CONN
*I *7240:A I *D sky130_fd_sc_hd__inv_1
*I *7229:Y O *D sky130_fd_sc_hd__inv_1
*CAP
1 *7240:A 1.05439e-05
2 *7229:Y 1.05439e-05
3 *514:28 *7240:A 9.57215e-05
4 *531:24 *7240:A 9.57215e-05
*RES
1 *7229:Y *7240:A 19.4973 
*END

*D_NET *726 0.000401903
*CONN
*I *7231:A I *D sky130_fd_sc_hd__inv_1
*I *7230:Y O *D sky130_fd_sc_hd__inv_1
*CAP
1 *7231:A 8.46083e-05
2 *7230:Y 8.46083e-05
3 *7231:A *7232:A 5.42373e-05
4 *7230:A *7231:A 3.60379e-05
5 *201:20 *7231:A 0.000142411
*RES
1 *7230:Y *7231:A 21.2027 
*END

*D_NET *727 0.00049318
*CONN
*I *7232:A I *D sky130_fd_sc_hd__inv_1
*I *7231:Y O *D sky130_fd_sc_hd__inv_1
*CAP
1 *7232:A 0.000179237
2 *7231:Y 0.000179237
3 *7232:A *7233:A 2.80715e-05
4 *7232:A *7235:A 3.34779e-05
5 *7232:A *7236:A 0
6 *6826:CLK *7232:A 0
7 *7231:A *7232:A 5.42373e-05
8 *201:20 *7232:A 1.89189e-05
*RES
1 *7231:Y *7232:A 30.9795 
*END

*D_NET *728 0.000295151
*CONN
*I *7233:A I *D sky130_fd_sc_hd__inv_1
*I *7232:Y O *D sky130_fd_sc_hd__inv_1
*CAP
1 *7233:A 0.000103806
2 *7232:Y 0.000103806
3 *7233:A *7234:A 5.94681e-05
4 *7232:A *7233:A 2.80715e-05
*RES
1 *7232:Y *7233:A 20.6982 
*END

*D_NET *729 0.000354125
*CONN
*I *7234:A I *D sky130_fd_sc_hd__inv_1
*I *7233:Y O *D sky130_fd_sc_hd__inv_1
*CAP
1 *7234:A 0.000139498
2 *7233:Y 0.000139498
3 *7234:A *7235:A 1.56615e-05
4 *7233:A *7234:A 5.94681e-05
*RES
1 *7233:Y *7234:A 21.2518 
*END

*D_NET *730 0.000489006
*CONN
*I *7235:A I *D sky130_fd_sc_hd__inv_1
*I *7234:Y O *D sky130_fd_sc_hd__inv_1
*CAP
1 *7235:A 0.000142311
2 *7234:Y 0.000142311
3 *7235:A *7236:A 0.000155244
4 *7232:A *7235:A 3.34779e-05
5 *7234:A *7235:A 1.56615e-05
*RES
1 *7234:Y *7235:A 30.2652 
*END

*D_NET *731 0.00111126
*CONN
*I *7236:A I *D sky130_fd_sc_hd__inv_1
*I *7235:Y O *D sky130_fd_sc_hd__inv_1
*CAP
1 *7236:A 0.000429706
2 *7235:Y 0.000429706
3 *7236:A *7237:A 2.80853e-05
4 *6521:A *7236:A 0
5 *6632:C1 *7236:A 0
6 *7232:A *7236:A 0
7 *7235:A *7236:A 0.000155244
8 *201:20 *7236:A 6.85154e-05
9 *481:46 *7236:A 0
*RES
1 *7235:Y *7236:A 34.9795 
*END

*D_NET *732 0.000375977
*CONN
*I *7237:A I *D sky130_fd_sc_hd__inv_1
*I *7236:Y O *D sky130_fd_sc_hd__inv_1
*CAP
1 *7237:A 8.0844e-05
2 *7236:Y 8.0844e-05
3 *7237:A *7238:A 1.05613e-05
4 *7236:A *7237:A 2.80853e-05
5 *285:9 *7237:A 0.000175642
*RES
1 *7236:Y *7237:A 20.6982 
*END

*D_NET *733 0.000338727
*CONN
*I *7238:A I *D sky130_fd_sc_hd__inv_1
*I *7237:Y O *D sky130_fd_sc_hd__inv_1
*CAP
1 *7238:A 0.00015004
2 *7237:Y 0.00015004
3 *7238:A *7241:A 2.80853e-05
4 *6521:B *7238:A 0
5 *7237:A *7238:A 1.05613e-05
*RES
1 *7237:Y *7238:A 29.8545 
*END

*D_NET *734 0.00016283
*CONN
*I *7239:A I *D sky130_fd_sc_hd__inv_1
*I *7238:Y O *D sky130_fd_sc_hd__inv_1
*CAP
1 *7239:A 3.3554e-05
2 *7238:Y 3.3554e-05
3 *7239:A *7241:A 9.57215e-05
*RES
1 *7238:Y *7239:A 19.4973 
*END

*D_NET *735 0.000643287
*CONN
*I *7241:A I *D sky130_fd_sc_hd__inv_1
*I *7239:Y O *D sky130_fd_sc_hd__inv_1
*CAP
1 *7241:A 0.000111898
2 *7239:Y 0.000111898
3 *7241:A *7250:B 5.47661e-05
4 *7238:A *7241:A 2.80853e-05
5 *7239:A *7241:A 9.57215e-05
6 *205:12 *7241:A 7.66725e-05
7 *205:32 *7241:A 0.000164246
*RES
1 *7239:Y *7241:A 22.542 
*END

*D_NET *736 0.000362251
*CONN
*I *7242:A I *D sky130_fd_sc_hd__inv_1
*I *7240:Y O *D sky130_fd_sc_hd__inv_1
*CAP
1 *7242:A 0.000119142
2 *7240:Y 0.000119142
3 *7242:A *7244:A 2.3541e-05
4 *6795:RESET_B *7242:A 0
5 *514:28 *7242:A 3.52408e-05
6 *531:24 *7242:A 6.5185e-05
*RES
1 *7240:Y *7242:A 29.8098 
*END

*D_NET *737 0.000520663
*CONN
*I *7250:B I *D sky130_fd_sc_hd__nand2_1
*I *7241:Y O *D sky130_fd_sc_hd__inv_1
*CAP
1 *7250:B 0.00016964
2 *7241:Y 0.00016964
3 *7241:A *7250:B 5.47661e-05
4 *205:12 *7250:B 0.000126617
*RES
1 *7241:Y *7250:B 21.8232 
*END

*D_NET *738 0.000731121
*CONN
*I *7243:A I *D sky130_fd_sc_hd__inv_1
*I *7242:Y O *D sky130_fd_sc_hd__inv_1
*CAP
1 *7243:A 0.000163774
2 *7242:Y 0.000163774
3 *7243:A *7244:A 2.79552e-05
4 *7243:A *7245:A 0
5 *7243:A *7246:A 1.98839e-05
6 *6796:D *7243:A 9.41642e-05
7 *531:18 *7243:A 0.000261569
*RES
1 *7242:Y *7243:A 31.3902 
*END

*D_NET *739 0.000969929
*CONN
*I *7244:A I *D sky130_fd_sc_hd__inv_1
*I *7243:Y O *D sky130_fd_sc_hd__inv_1
*CAP
1 *7244:A 0.000317669
2 *7243:Y 0.000317669
3 *7244:A *7245:A 1.87618e-05
4 *7244:A *7246:A 0.000128161
5 *7242:A *7244:A 2.3541e-05
6 *7243:A *7244:A 2.79552e-05
7 *317:42 *7244:A 0.000126439
8 *531:18 *7244:A 9.73299e-06
*RES
1 *7243:Y *7244:A 33.6491 
*END

*D_NET *740 0.000534556
*CONN
*I *7245:A I *D sky130_fd_sc_hd__inv_1
*I *7244:Y O *D sky130_fd_sc_hd__inv_1
*CAP
1 *7245:A 0.000238358
2 *7244:Y 0.000238358
3 *7245:A *7246:A 1.66856e-05
4 *6795:RESET_B *7245:A 0
5 *6796:D *7245:A 1.3142e-05
6 *7010:A *7245:A 9.25014e-06
7 *7243:A *7245:A 0
8 *7244:A *7245:A 1.87618e-05
*RES
1 *7244:Y *7245:A 31.3455 
*END

*D_NET *741 0.001838
*CONN
*I *7246:A I *D sky130_fd_sc_hd__inv_1
*I *7245:Y O *D sky130_fd_sc_hd__inv_1
*CAP
1 *7246:A 0.000501329
2 *7245:Y 0.000501329
3 *6796:D *7246:A 6.4443e-05
4 *7243:A *7246:A 1.98839e-05
5 *7244:A *7246:A 0.000128161
6 *7245:A *7246:A 1.66856e-05
7 *317:42 *7246:A 5.84075e-05
8 *317:50 *7246:A 0
9 *514:28 *7246:A 7.18844e-05
10 *531:18 *7246:A 0.000298643
11 *531:24 *7246:A 0.000177234
*RES
1 *7245:Y *7246:A 37.4973 
*END

*D_NET *742 0.00015937
*CONN
*I *7247:A I *D sky130_fd_sc_hd__inv_1
*I *7246:Y O *D sky130_fd_sc_hd__inv_1
*CAP
1 *7247:A 3.22865e-05
2 *7246:Y 3.22865e-05
3 *514:28 *7247:A 9.47974e-05
*RES
1 *7246:Y *7247:A 19.4973 
*END

*D_NET *743 0.000159808
*CONN
*I *7248:A I *D sky130_fd_sc_hd__inv_1
*I *7247:Y O *D sky130_fd_sc_hd__inv_1
*CAP
1 *7248:A 3.25052e-05
2 *7247:Y 3.25052e-05
3 *514:28 *7248:A 9.47974e-05
*RES
1 *7247:Y *7248:A 19.4973 
*END

*D_NET *744 0.00058779
*CONN
*I *7219:A I *D sky130_fd_sc_hd__inv_1
*I *7248:Y O *D sky130_fd_sc_hd__inv_1
*CAP
1 *7219:A 0.000192636
2 *7248:Y 0.000192636
3 *7220:A *7219:A 2.19819e-05
4 *205:32 *7219:A 1.91113e-05
5 *317:50 *7219:A 0.000146208
6 *514:28 *7219:A 1.52168e-05
*RES
1 *7248:Y *7219:A 30.9348 
*END

*D_NET *745 0.00079356
*CONN
*I *6628:A1 I *D sky130_fd_sc_hd__a221o_2
*I *7249:X O *D sky130_fd_sc_hd__buf_1
*CAP
1 *6628:A1 0.000203383
2 *7249:X 0.000203383
3 *6614:A2 *6628:A1 5.01117e-05
4 *6624:B1 *6628:A1 1.02504e-05
5 *150:85 *6628:A1 0.000100823
6 *206:46 *6628:A1 0.000225609
*RES
1 *7249:X *6628:A1 31.1179 
*END

*D_NET *746 0.00353024
*CONN
*I *7282:A I *D sky130_fd_sc_hd__nand2_1
*I *6545:X O *D sky130_fd_sc_hd__and3_2
*CAP
1 *7282:A 0.00118138
2 *6545:X 0.00118138
3 *7282:A *7261:A 3.95811e-05
4 *6545:C *7282:A 1.24368e-05
5 *7156:A *7282:A 2.3541e-05
6 *7157:A *7282:A 9.69489e-05
7 *7158:A *7282:A 0.000135342
8 *7159:A *7282:A 3.87571e-05
9 *7175:A *7282:A 2.524e-05
10 *7177:A *7282:A 0.00014641
11 *7180:A *7282:A 0.000115711
12 *7181:A *7282:A 0.000139534
13 *7182:A *7282:A 0.000106133
14 *7183:A *7282:A 9.57215e-05
15 *7184:A *7282:A 2.7353e-05
16 *7186:B *7282:A 0.000164762
*RES
1 *6545:X *7282:A 40.5286 
*END

*D_NET *747 0.000189841
*CONN
*I *7261:A I *D sky130_fd_sc_hd__inv_1
*I *7282:Y O *D sky130_fd_sc_hd__nand2_1
*CAP
1 *7261:A 7.51298e-05
2 *7282:Y 7.51298e-05
3 *7282:A *7261:A 3.95811e-05
*RES
1 *7282:Y *7261:A 20.1268 
*END

*D_NET *748 0.000307689
*CONN
*I *7252:A I *D sky130_fd_sc_hd__inv_1
*I *7251:Y O *D sky130_fd_sc_hd__inv_1
*CAP
1 *7252:A 7.51368e-05
2 *7251:Y 7.51368e-05
3 *7252:A *7251:A 5.87622e-05
4 *7252:A *7253:A 1.96517e-05
5 *7252:A *7282:B 7.90012e-05
*RES
1 *7251:Y *7252:A 20.8277 
*END

*D_NET *749 0.000334781
*CONN
*I *7253:A I *D sky130_fd_sc_hd__inv_1
*I *7252:Y O *D sky130_fd_sc_hd__inv_1
*CAP
1 *7253:A 0.000143522
2 *7252:Y 0.000143522
3 *7253:A *7254:A 2.80853e-05
4 *7252:A *7253:A 1.96517e-05
*RES
1 *7252:Y *7253:A 29.8545 
*END

*D_NET *750 0.000293134
*CONN
*I *7254:A I *D sky130_fd_sc_hd__inv_1
*I *7253:Y O *D sky130_fd_sc_hd__inv_1
*CAP
1 *7254:A 0.000102983
2 *7253:Y 0.000102983
3 *7254:A *7255:A 5.90837e-05
4 *7254:A *7256:A 0
5 *7253:A *7254:A 2.80853e-05
*RES
1 *7253:Y *7254:A 20.6982 
*END

*D_NET *751 0.000342727
*CONN
*I *7255:A I *D sky130_fd_sc_hd__inv_1
*I *7254:Y O *D sky130_fd_sc_hd__inv_1
*CAP
1 *7255:A 0.000125791
2 *7254:Y 0.000125791
3 *7255:A *7256:A 3.20612e-05
4 *7254:A *7255:A 5.90837e-05
*RES
1 *7254:Y *7255:A 21.0643 
*END

*D_NET *752 0.000268949
*CONN
*I *7256:A I *D sky130_fd_sc_hd__inv_1
*I *7255:Y O *D sky130_fd_sc_hd__inv_1
*CAP
1 *7256:A 0.000109063
2 *7255:Y 0.000109063
3 *7256:A *753:12 1.87618e-05
4 *7254:A *7256:A 0
5 *7255:A *7256:A 3.20612e-05
*RES
1 *7255:Y *7256:A 20.8277 
*END

*D_NET *753 0.000825436
*CONN
*I *7257:A I *D sky130_fd_sc_hd__inv_1
*I *7281:A I *D sky130_fd_sc_hd__buf_1
*I *7256:Y O *D sky130_fd_sc_hd__inv_1
*CAP
1 *7257:A 1.02097e-05
2 *7281:A 0.000120564
3 *7256:Y 0.000177417
4 *753:12 0.00030819
5 *7281:A *6628:B2 5.17614e-05
6 *6621:B1 *7281:A 5.52238e-05
7 *7256:A *753:12 1.87618e-05
8 *304:26 *7257:A 2.80853e-05
9 *304:26 *7281:A 5.52238e-05
*RES
1 *7256:Y *753:12 20.9875 
2 *753:12 *7281:A 11.8893 
3 *753:12 *7257:A 9.58125 
*END

*D_NET *754 0.000156494
*CONN
*I *7258:A I *D sky130_fd_sc_hd__inv_1
*I *7257:Y O *D sky130_fd_sc_hd__inv_1
*CAP
1 *7258:A 3.03862e-05
2 *7257:Y 3.03862e-05
3 *304:26 *7258:A 9.57215e-05
*RES
1 *7257:Y *7258:A 19.4973 
*END

*D_NET *755 0.000228123
*CONN
*I *7259:A I *D sky130_fd_sc_hd__inv_1
*I *7258:Y O *D sky130_fd_sc_hd__inv_1
*CAP
1 *7259:A 4.42944e-05
2 *7258:Y 4.42944e-05
3 *304:26 *7259:A 0.000139534
*RES
1 *7258:Y *7259:A 19.908 
*END

*D_NET *756 0.000626933
*CONN
*I *7260:A I *D sky130_fd_sc_hd__inv_1
*I *7259:Y O *D sky130_fd_sc_hd__inv_1
*CAP
1 *7260:A 0.000283254
2 *7259:Y 0.000283254
3 *304:26 *7260:A 6.04239e-05
*RES
1 *7259:Y *7260:A 31.8009 
*END

*D_NET *757 0.000204553
*CONN
*I *7262:A I *D sky130_fd_sc_hd__inv_1
*I *7260:Y O *D sky130_fd_sc_hd__inv_1
*CAP
1 *7262:A 0.000102277
2 *7260:Y 0.000102277
*RES
1 *7260:Y *7262:A 20.3188 
*END

*D_NET *758 0.000106793
*CONN
*I *7272:A I *D sky130_fd_sc_hd__inv_1
*I *7261:Y O *D sky130_fd_sc_hd__inv_1
*CAP
1 *7272:A 5.33963e-05
2 *7261:Y 5.33963e-05
*RES
1 *7261:Y *7272:A 19.4973 
*END

*D_NET *759 0.000155673
*CONN
*I *7263:A I *D sky130_fd_sc_hd__inv_1
*I *7262:Y O *D sky130_fd_sc_hd__inv_1
*CAP
1 *7263:A 7.78365e-05
2 *7262:Y 7.78365e-05
*RES
1 *7262:Y *7263:A 19.908 
*END

*D_NET *760 0.000106793
*CONN
*I *7264:A I *D sky130_fd_sc_hd__inv_1
*I *7263:Y O *D sky130_fd_sc_hd__inv_1
*CAP
1 *7264:A 5.33963e-05
2 *7263:Y 5.33963e-05
*RES
1 *7263:Y *7264:A 19.4973 
*END

*D_NET *761 0.000473553
*CONN
*I *7265:A I *D sky130_fd_sc_hd__inv_1
*I *7264:Y O *D sky130_fd_sc_hd__inv_1
*CAP
1 *7265:A 0.000168964
2 *7264:Y 0.000168964
3 *7265:A *7269:A 0.000126378
4 *7265:A *7270:A 9.24628e-06
*RES
1 *7264:Y *7265:A 22.1045 
*END

*D_NET *762 0.00053142
*CONN
*I *7266:A I *D sky130_fd_sc_hd__inv_1
*I *7265:Y O *D sky130_fd_sc_hd__inv_1
*CAP
1 *7266:A 0.000160199
2 *7265:Y 0.000160199
3 *7266:A *7267:A 9.33297e-05
4 *7266:A *7269:A 7.41875e-05
5 *7266:A *7270:A 4.35048e-05
*RES
1 *7265:Y *7266:A 30.6313 
*END

*D_NET *763 0.000839275
*CONN
*I *7267:A I *D sky130_fd_sc_hd__inv_1
*I *7266:Y O *D sky130_fd_sc_hd__inv_1
*CAP
1 *7267:A 0.000311855
2 *7266:Y 0.000311855
3 *7267:A *7268:A 8.39e-05
4 *6679:A3 *7267:A 1.02504e-05
5 *7266:A *7267:A 9.33297e-05
6 *304:26 *7267:A 2.80853e-05
*RES
1 *7266:Y *7267:A 32.9973 
*END

*D_NET *764 0.000370917
*CONN
*I *7268:A I *D sky130_fd_sc_hd__inv_1
*I *7267:Y O *D sky130_fd_sc_hd__inv_1
*CAP
1 *7268:A 0.000124806
2 *7267:Y 0.000124806
3 *7268:A *7269:A 3.00023e-05
4 *7267:A *7268:A 8.39e-05
5 *304:26 *7268:A 7.40303e-06
*RES
1 *7267:Y *7268:A 30.158 
*END

*D_NET *765 0.000579382
*CONN
*I *7269:A I *D sky130_fd_sc_hd__inv_1
*I *7268:Y O *D sky130_fd_sc_hd__inv_1
*CAP
1 *7269:A 0.000153467
2 *7268:Y 0.000153467
3 *7269:A *7270:A 4.18799e-05
4 *7265:A *7269:A 0.000126378
5 *7266:A *7269:A 7.41875e-05
6 *7268:A *7269:A 3.00023e-05
*RES
1 *7268:Y *7269:A 22.0598 
*END

*D_NET *766 0.000508544
*CONN
*I *7270:A I *D sky130_fd_sc_hd__inv_1
*I *7269:Y O *D sky130_fd_sc_hd__inv_1
*CAP
1 *7270:A 0.000193811
2 *7269:Y 0.000193811
3 *7270:A *7271:A 2.62908e-05
4 *7265:A *7270:A 9.24628e-06
5 *7266:A *7270:A 4.35048e-05
6 *7269:A *7270:A 4.18799e-05
*RES
1 *7269:Y *7270:A 31.042 
*END

*D_NET *767 0.000357919
*CONN
*I *7271:A I *D sky130_fd_sc_hd__inv_1
*I *7270:Y O *D sky130_fd_sc_hd__inv_1
*CAP
1 *7271:A 0.000150671
2 *7270:Y 0.000150671
3 *7271:A *7273:A 3.02869e-05
4 *7270:A *7271:A 2.62908e-05
*RES
1 *7270:Y *7271:A 21.1313 
*END

*D_NET *768 0.000353926
*CONN
*I *7273:A I *D sky130_fd_sc_hd__inv_1
*I *7271:Y O *D sky130_fd_sc_hd__inv_1
*CAP
1 *7273:A 0.000152439
2 *7271:Y 0.000152439
3 *7273:A *7282:B 1.87618e-05
4 *7271:A *7273:A 3.02869e-05
*RES
1 *7271:Y *7273:A 21.542 
*END

*D_NET *769 0.000575017
*CONN
*I *7274:A I *D sky130_fd_sc_hd__inv_1
*I *7272:Y O *D sky130_fd_sc_hd__inv_1
*CAP
1 *7274:A 0.000195364
2 *7272:Y 0.000195364
3 *7274:A *7275:A 7.90536e-05
4 *7274:A *7279:A 0.000101545
5 *7274:A *7280:A 3.69047e-06
*RES
1 *7272:Y *7274:A 31.3366 
*END

*D_NET *770 0.00128803
*CONN
*I *7282:B I *D sky130_fd_sc_hd__nand2_1
*I *7273:Y O *D sky130_fd_sc_hd__inv_1
*CAP
1 *7282:B 0.000559201
2 *7273:Y 0.000559201
3 *7282:B *7251:A 2.73766e-05
4 *7282:B *7279:A 0
5 *7282:B *7280:A 4.44842e-05
6 *7155:A *7282:B 0
7 *7184:A *7282:B 0
8 *7252:A *7282:B 7.90012e-05
9 *7273:A *7282:B 1.87618e-05
*RES
1 *7273:Y *7282:B 35.2161 
*END

*D_NET *771 0.000213274
*CONN
*I *7275:A I *D sky130_fd_sc_hd__inv_1
*I *7274:Y O *D sky130_fd_sc_hd__inv_1
*CAP
1 *7275:A 6.71104e-05
2 *7274:Y 6.71104e-05
3 *7274:A *7275:A 7.90536e-05
*RES
1 *7274:Y *7275:A 19.908 
*END

*D_NET *772 0.00011689
*CONN
*I *7276:A I *D sky130_fd_sc_hd__inv_1
*I *7275:Y O *D sky130_fd_sc_hd__inv_1
*CAP
1 *7276:A 5.42009e-05
2 *7275:Y 5.42009e-05
3 *7276:A *7278:A 8.48822e-06
*RES
1 *7275:Y *7276:A 19.4973 
*END

*D_NET *773 0.000113128
*CONN
*I *7277:A I *D sky130_fd_sc_hd__inv_1
*I *7276:Y O *D sky130_fd_sc_hd__inv_1
*CAP
1 *7277:A 3.7518e-05
2 *7276:Y 3.7518e-05
3 *7277:A *7278:A 3.80922e-05
*RES
1 *7276:Y *7277:A 19.4973 
*END

*D_NET *774 0.000637278
*CONN
*I *7278:A I *D sky130_fd_sc_hd__inv_1
*I *7277:Y O *D sky130_fd_sc_hd__inv_1
*CAP
1 *7278:A 0.000279021
2 *7277:Y 0.000279021
3 *7278:A *7279:A 3.2655e-05
4 *7276:A *7278:A 8.48822e-06
5 *7277:A *7278:A 3.80922e-05
*RES
1 *7277:Y *7278:A 31.7563 
*END

*D_NET *775 0.000877941
*CONN
*I *7279:A I *D sky130_fd_sc_hd__inv_1
*I *7278:Y O *D sky130_fd_sc_hd__inv_1
*CAP
1 *7279:A 0.000357828
2 *7278:Y 0.000357828
3 *7279:A *7280:A 2.80853e-05
4 *7279:A *7524:A 0
5 *7274:A *7279:A 0.000101545
6 *7278:A *7279:A 3.2655e-05
7 *7282:B *7279:A 0
*RES
1 *7278:Y *7279:A 33.5152 
*END

*D_NET *776 0.00065554
*CONN
*I *7280:A I *D sky130_fd_sc_hd__inv_1
*I *7279:Y O *D sky130_fd_sc_hd__inv_1
*CAP
1 *7280:A 0.000262257
2 *7279:Y 0.000262257
3 *7280:A *7251:A 5.47661e-05
4 *7274:A *7280:A 3.69047e-06
5 *7279:A *7280:A 2.80853e-05
6 *7282:B *7280:A 4.44842e-05
*RES
1 *7279:Y *7280:A 32.4348 
*END

*D_NET *777 0.000334073
*CONN
*I *7251:A I *D sky130_fd_sc_hd__inv_1
*I *7280:Y O *D sky130_fd_sc_hd__inv_1
*CAP
1 *7251:A 9.65842e-05
2 *7280:Y 9.65842e-05
3 *7252:A *7251:A 5.87622e-05
4 *7280:A *7251:A 5.47661e-05
5 *7282:B *7251:A 2.73766e-05
*RES
1 *7280:Y *7251:A 20.8991 
*END

*D_NET *778 0.00271465
*CONN
*I *6628:B2 I *D sky130_fd_sc_hd__a221o_2
*I *7281:X O *D sky130_fd_sc_hd__buf_1
*CAP
1 *6628:B2 0.00103726
2 *7281:X 0.00103726
3 *6621:B1 *6628:B2 0.000440323
4 *6628:A2 *6628:B2 6.10112e-05
5 *7168:A *6628:B2 3.82062e-05
6 *7169:A *6628:B2 4.88402e-05
7 *7281:A *6628:B2 5.17614e-05
*RES
1 *7281:X *6628:B2 33.2964 
*END

*D_NET *779 0.00129892
*CONN
*I *7314:A I *D sky130_fd_sc_hd__nand2_1
*I *6526:X O *D sky130_fd_sc_hd__and3_2
*CAP
1 *7314:A 0.000610579
2 *6526:X 0.000610579
3 *7314:A *7306:A 0
4 *7314:A *7441:A 7.77652e-05
*RES
1 *6526:X *7314:A 35.1179 
*END

*D_NET *780 0.000231712
*CONN
*I *7293:A I *D sky130_fd_sc_hd__inv_1
*I *7314:Y O *D sky130_fd_sc_hd__nand2_1
*CAP
1 *7293:A 7.44248e-05
2 *7314:Y 7.44248e-05
3 *7293:A *7314:B 8.28621e-05
*RES
1 *7314:Y *7293:A 20.2563 
*END

*D_NET *781 0.000498696
*CONN
*I *7284:A I *D sky130_fd_sc_hd__inv_1
*I *7283:Y O *D sky130_fd_sc_hd__inv_1
*CAP
1 *7284:A 0.000119347
2 *7283:Y 0.000119347
3 *7284:A *7283:A 7.18982e-05
4 *7284:A *7285:A 2.62908e-05
5 *7284:A *7291:A 0.000161813
*RES
1 *7283:Y *7284:A 21.6491 
*END

*D_NET *782 0.00074503
*CONN
*I *7285:A I *D sky130_fd_sc_hd__inv_1
*I *7284:Y O *D sky130_fd_sc_hd__inv_1
*CAP
1 *7285:A 0.000258637
2 *7284:Y 0.000258637
3 *7285:A *7286:A 2.55503e-05
4 *7285:A *7290:A 6.38016e-05
5 *7285:A *7291:A 0.000112114
6 *7284:A *7285:A 2.62908e-05
*RES
1 *7284:Y *7285:A 32.5241 
*END

*D_NET *783 0.000523296
*CONN
*I *7286:A I *D sky130_fd_sc_hd__inv_1
*I *7285:Y O *D sky130_fd_sc_hd__inv_1
*CAP
1 *7286:A 0.000151179
2 *7285:Y 0.000151179
3 *7286:A *7287:A 6.8949e-05
4 *7286:A *7290:A 0.000126439
5 *7285:A *7286:A 2.55503e-05
6 *412:77 *7286:A 0
*RES
1 *7285:Y *7286:A 30.2652 
*END

*D_NET *784 0.000555751
*CONN
*I *7287:A I *D sky130_fd_sc_hd__inv_1
*I *7286:Y O *D sky130_fd_sc_hd__inv_1
*CAP
1 *7287:A 0.00014143
2 *7286:Y 0.00014143
3 *7287:A *7288:A 5.87622e-05
4 *7287:A *7289:A 6.80483e-05
5 *7287:A *7290:A 7.71303e-05
6 *7286:A *7287:A 6.8949e-05
*RES
1 *7286:Y *7287:A 22.1313 
*END

*D_NET *785 0.000356878
*CONN
*I *7288:A I *D sky130_fd_sc_hd__inv_1
*I *7287:Y O *D sky130_fd_sc_hd__inv_1
*CAP
1 *7288:A 6.83713e-05
2 *7287:Y 6.83713e-05
3 *7288:A *7289:A 0.000135082
4 *7288:A *7313:A 2.62908e-05
5 *7287:A *7288:A 5.87622e-05
*RES
1 *7287:Y *7288:A 20.8277 
*END

*D_NET *786 0.00163578
*CONN
*I *7289:A I *D sky130_fd_sc_hd__inv_1
*I *7313:A I *D sky130_fd_sc_hd__buf_1
*I *7288:Y O *D sky130_fd_sc_hd__inv_1
*CAP
1 *7289:A 0.0001896
2 *7313:A 0.000417455
3 *7288:Y 0
4 *786:4 0.000607055
5 *7287:A *7289:A 6.80483e-05
6 *7288:A *7289:A 0.000135082
7 *7288:A *7313:A 2.62908e-05
8 *151:130 *7313:A 0.000125717
9 *405:66 *7313:A 6.65302e-05
*RES
1 *7288:Y *786:4 9.3 
2 *786:4 *7313:A 23.9696 
3 *786:4 *7289:A 12.6527 
*END

*D_NET *787 0.000669898
*CONN
*I *7290:A I *D sky130_fd_sc_hd__inv_1
*I *7289:Y O *D sky130_fd_sc_hd__inv_1
*CAP
1 *7290:A 0.000201264
2 *7289:Y 0.000201264
3 *7290:A *7283:A 0
4 *7285:A *7290:A 6.38016e-05
5 *7286:A *7290:A 0.000126439
6 *7287:A *7290:A 7.71303e-05
*RES
1 *7289:Y *7290:A 31.4795 
*END

*D_NET *788 0.00118602
*CONN
*I *7291:A I *D sky130_fd_sc_hd__inv_1
*I *7290:Y O *D sky130_fd_sc_hd__inv_1
*CAP
1 *7291:A 0.000432262
2 *7290:Y 0.000432262
3 *7291:A *7283:A 4.75723e-05
4 *7284:A *7291:A 0.000161813
5 *7285:A *7291:A 0.000112114
*RES
1 *7290:Y *7291:A 34.0509 
*END

*D_NET *789 0.000204553
*CONN
*I *7292:A I *D sky130_fd_sc_hd__inv_1
*I *7291:Y O *D sky130_fd_sc_hd__inv_1
*CAP
1 *7292:A 0.000102277
2 *7291:Y 0.000102277
*RES
1 *7291:Y *7292:A 20.3188 
*END

*D_NET *790 0.000155673
*CONN
*I *7294:A I *D sky130_fd_sc_hd__inv_1
*I *7292:Y O *D sky130_fd_sc_hd__inv_1
*CAP
1 *7294:A 7.78365e-05
2 *7292:Y 7.78365e-05
*RES
1 *7292:Y *7294:A 19.908 
*END

*D_NET *791 0.00016283
*CONN
*I *7304:A I *D sky130_fd_sc_hd__inv_1
*I *7293:Y O *D sky130_fd_sc_hd__inv_1
*CAP
1 *7304:A 3.3554e-05
2 *7293:Y 3.3554e-05
3 *7304:A *7314:B 9.57215e-05
*RES
1 *7293:Y *7304:A 19.4973 
*END

*D_NET *792 0.000106793
*CONN
*I *7295:A I *D sky130_fd_sc_hd__inv_1
*I *7294:Y O *D sky130_fd_sc_hd__inv_1
*CAP
1 *7295:A 5.33963e-05
2 *7294:Y 5.33963e-05
*RES
1 *7294:Y *7295:A 19.4973 
*END

*D_NET *793 0.000106793
*CONN
*I *7296:A I *D sky130_fd_sc_hd__inv_1
*I *7295:Y O *D sky130_fd_sc_hd__inv_1
*CAP
1 *7296:A 5.33963e-05
2 *7295:Y 5.33963e-05
*RES
1 *7295:Y *7296:A 19.4973 
*END

*D_NET *794 0.000332629
*CONN
*I *7297:A I *D sky130_fd_sc_hd__inv_1
*I *7296:Y O *D sky130_fd_sc_hd__inv_1
*CAP
1 *7297:A 0.000151313
2 *7296:Y 0.000151313
3 *7297:A *7299:A 3.00023e-05
*RES
1 *7296:Y *7297:A 29.8545 
*END

*D_NET *795 0.00016283
*CONN
*I *7298:A I *D sky130_fd_sc_hd__inv_1
*I *7297:Y O *D sky130_fd_sc_hd__inv_1
*CAP
1 *7298:A 3.3554e-05
2 *7297:Y 3.3554e-05
3 *7298:A *7299:A 9.57215e-05
*RES
1 *7297:Y *7298:A 19.4973 
*END

*D_NET *796 0.000486302
*CONN
*I *7299:A I *D sky130_fd_sc_hd__inv_1
*I *7298:Y O *D sky130_fd_sc_hd__inv_1
*CAP
1 *7299:A 0.000147515
2 *7298:Y 0.000147515
3 *7299:A *7300:A 6.55493e-05
4 *7297:A *7299:A 3.00023e-05
5 *7298:A *7299:A 9.57215e-05
*RES
1 *7298:Y *7299:A 21.9304 
*END

*D_NET *797 0.000561809
*CONN
*I *7300:A I *D sky130_fd_sc_hd__inv_1
*I *7299:Y O *D sky130_fd_sc_hd__inv_1
*CAP
1 *7300:A 0.000234087
2 *7299:Y 0.000234087
3 *7300:A *7302:A 2.80853e-05
4 *7299:A *7300:A 6.55493e-05
*RES
1 *7299:Y *7300:A 30.9795 
*END

*D_NET *798 0.00016283
*CONN
*I *7301:A I *D sky130_fd_sc_hd__inv_1
*I *7300:Y O *D sky130_fd_sc_hd__inv_1
*CAP
1 *7301:A 3.3554e-05
2 *7300:Y 3.3554e-05
3 *7301:A *7302:A 9.57215e-05
*RES
1 *7300:Y *7301:A 19.4973 
*END

*D_NET *799 0.000515937
*CONN
*I *7302:A I *D sky130_fd_sc_hd__inv_1
*I *7301:Y O *D sky130_fd_sc_hd__inv_1
*CAP
1 *7302:A 0.000166083
2 *7301:Y 0.000166083
3 *7302:A *7303:A 5.99642e-05
4 *7300:A *7302:A 2.80853e-05
5 *7301:A *7302:A 9.57215e-05
*RES
1 *7301:Y *7302:A 22.1313 
*END

*D_NET *800 0.000295488
*CONN
*I *7303:A I *D sky130_fd_sc_hd__inv_1
*I *7302:Y O *D sky130_fd_sc_hd__inv_1
*CAP
1 *7303:A 0.000104617
2 *7302:Y 0.000104617
3 *7303:A *7305:A 2.62908e-05
4 *7302:A *7303:A 5.99642e-05
*RES
1 *7302:Y *7303:A 20.8277 
*END

*D_NET *801 0.000462954
*CONN
*I *7305:A I *D sky130_fd_sc_hd__inv_1
*I *7303:Y O *D sky130_fd_sc_hd__inv_1
*CAP
1 *7305:A 0.000209984
2 *7303:Y 0.000209984
3 *7305:A *7314:B 1.66955e-05
4 *7303:A *7305:A 2.62908e-05
*RES
1 *7303:Y *7305:A 21.9527 
*END

*D_NET *802 0.000551125
*CONN
*I *7306:A I *D sky130_fd_sc_hd__inv_1
*I *7304:Y O *D sky130_fd_sc_hd__inv_1
*CAP
1 *7306:A 0.000215166
2 *7304:Y 0.000215166
3 *7306:A *7307:A 7.18982e-05
4 *7306:A *7314:B 4.88944e-05
5 *7314:A *7306:A 0
*RES
1 *7304:Y *7306:A 31.0866 
*END

*D_NET *803 0.00123751
*CONN
*I *7314:B I *D sky130_fd_sc_hd__nand2_1
*I *7305:Y O *D sky130_fd_sc_hd__inv_1
*CAP
1 *7314:B 0.000445572
2 *7305:Y 0.000445572
3 *7314:B *7419:A 0.000102197
4 *7293:A *7314:B 8.28621e-05
5 *7304:A *7314:B 9.57215e-05
6 *7305:A *7314:B 1.66955e-05
7 *7306:A *7314:B 4.88944e-05
*RES
1 *7305:Y *7314:B 36.5911 
*END

*D_NET *804 0.000511469
*CONN
*I *7307:A I *D sky130_fd_sc_hd__inv_1
*I *7306:Y O *D sky130_fd_sc_hd__inv_1
*CAP
1 *7307:A 0.000162099
2 *7306:Y 0.000162099
3 *7307:A *7308:A 9.57215e-05
4 *7307:A *7309:A 1.96517e-05
5 *7306:A *7307:A 7.18982e-05
*RES
1 *7306:Y *7307:A 22.0241 
*END

*D_NET *805 0.00016283
*CONN
*I *7308:A I *D sky130_fd_sc_hd__inv_1
*I *7307:Y O *D sky130_fd_sc_hd__inv_1
*CAP
1 *7308:A 3.3554e-05
2 *7307:Y 3.3554e-05
3 *7307:A *7308:A 9.57215e-05
*RES
1 *7307:Y *7308:A 19.4973 
*END

*D_NET *806 0.000384567
*CONN
*I *7309:A I *D sky130_fd_sc_hd__inv_1
*I *7308:Y O *D sky130_fd_sc_hd__inv_1
*CAP
1 *7309:A 0.000168415
2 *7308:Y 0.000168415
3 *7309:A *7310:A 2.80853e-05
4 *7307:A *7309:A 1.96517e-05
*RES
1 *7308:Y *7309:A 30.158 
*END

*D_NET *807 0.000306941
*CONN
*I *7310:A I *D sky130_fd_sc_hd__inv_1
*I *7309:Y O *D sky130_fd_sc_hd__inv_1
*CAP
1 *7310:A 0.000105079
2 *7309:Y 0.000105079
3 *7310:A *7311:A 6.86979e-05
4 *7309:A *7310:A 2.80853e-05
*RES
1 *7309:Y *7310:A 20.6982 
*END

*D_NET *808 0.000352143
*CONN
*I *7311:A I *D sky130_fd_sc_hd__inv_1
*I *7310:Y O *D sky130_fd_sc_hd__inv_1
*CAP
1 *7311:A 0.000116151
2 *7310:Y 0.000116151
3 *7311:A *7312:A 5.11426e-05
4 *7310:A *7311:A 6.86979e-05
*RES
1 *7310:Y *7311:A 21.1313 
*END

*D_NET *809 0.000329715
*CONN
*I *7312:A I *D sky130_fd_sc_hd__inv_1
*I *7311:Y O *D sky130_fd_sc_hd__inv_1
*CAP
1 *7312:A 0.000126511
2 *7311:Y 0.000126511
3 *7312:A *7283:A 2.55503e-05
4 *7311:A *7312:A 5.11426e-05
*RES
1 *7311:Y *7312:A 21.2563 
*END

*D_NET *810 0.000480568
*CONN
*I *7283:A I *D sky130_fd_sc_hd__inv_1
*I *7312:Y O *D sky130_fd_sc_hd__inv_1
*CAP
1 *7283:A 0.000167774
2 *7312:Y 0.000167774
3 *7284:A *7283:A 7.18982e-05
4 *7290:A *7283:A 0
5 *7291:A *7283:A 4.75723e-05
6 *7312:A *7283:A 2.55503e-05
*RES
1 *7312:Y *7283:A 30.2652 
*END

*D_NET *811 0.000984546
*CONN
*I *6629:A1 I *D sky130_fd_sc_hd__a22o_2
*I *7313:X O *D sky130_fd_sc_hd__buf_1
*CAP
1 *6629:A1 0.000395754
2 *7313:X 0.000395754
3 *6629:A2 *6629:A1 3.4911e-05
4 *149:57 *6629:A1 1.02132e-05
5 *149:61 *6629:A1 3.69047e-06
6 *149:84 *6629:A1 0.000144224
*RES
1 *7313:X *6629:A1 23.6714 
*END

*D_NET *812 0.00069082
*CONN
*I *7346:A I *D sky130_fd_sc_hd__nand2_1
*I *6528:X O *D sky130_fd_sc_hd__and3_2
*CAP
1 *7346:A 0.000285913
2 *6528:X 0.000285913
3 *7346:A *7325:A 8.73972e-05
4 *7346:A *7336:A 2.73592e-05
5 *7346:A *7346:B 4.23644e-06
*RES
1 *6528:X *7346:A 31.6357 
*END

*D_NET *813 0.000297466
*CONN
*I *7325:A I *D sky130_fd_sc_hd__inv_1
*I *7346:Y O *D sky130_fd_sc_hd__nand2_1
*CAP
1 *7325:A 6.05037e-05
2 *7346:Y 6.05037e-05
3 *7325:A *7336:A 3.59291e-05
4 *7325:A *7346:B 5.31321e-05
5 *7346:A *7325:A 8.73972e-05
*RES
1 *7346:Y *7325:A 20.6938 
*END

*D_NET *814 0.000158242
*CONN
*I *7316:A I *D sky130_fd_sc_hd__inv_1
*I *7315:Y O *D sky130_fd_sc_hd__inv_1
*CAP
1 *7316:A 3.16901e-05
2 *7315:Y 3.16901e-05
3 *7316:A *7315:A 9.48618e-05
*RES
1 *7315:Y *7316:A 19.4973 
*END

*D_NET *815 0.000443191
*CONN
*I *7317:A I *D sky130_fd_sc_hd__inv_1
*I *7316:Y O *D sky130_fd_sc_hd__inv_1
*CAP
1 *7317:A 0.00015317
2 *7316:Y 0.00015317
3 *7317:A *7315:A 7.82904e-05
4 *148:54 *7317:A 1.37493e-05
5 *411:78 *7317:A 4.48113e-05
*RES
1 *7316:Y *7317:A 30.2652 
*END

*D_NET *816 0.000119809
*CONN
*I *7318:A I *D sky130_fd_sc_hd__inv_1
*I *7317:Y O *D sky130_fd_sc_hd__inv_1
*CAP
1 *7318:A 3.40539e-05
2 *7317:Y 3.40539e-05
3 *148:54 *7318:A 5.17013e-05
*RES
1 *7317:Y *7318:A 19.4973 
*END

*D_NET *817 0.000690758
*CONN
*I *7319:A I *D sky130_fd_sc_hd__inv_1
*I *7318:Y O *D sky130_fd_sc_hd__inv_1
*CAP
1 *7319:A 0.000296795
2 *7318:Y 0.000296795
3 *7319:A *7320:A 2.80715e-05
4 *7319:A *7322:A 2.16394e-05
5 *148:54 *7319:A 1.93849e-05
6 *415:28 *7319:A 2.80715e-05
*RES
1 *7318:Y *7319:A 31.8009 
*END

*D_NET *818 0.000330133
*CONN
*I *7320:A I *D sky130_fd_sc_hd__inv_1
*I *7319:Y O *D sky130_fd_sc_hd__inv_1
*CAP
1 *7320:A 9.60165e-05
2 *7319:Y 9.60165e-05
3 *7319:A *7320:A 2.80715e-05
4 *415:28 *7320:A 0.000110029
*RES
1 *7319:Y *7320:A 20.8277 
*END

*D_NET *819 0.00158437
*CONN
*I *7321:A I *D sky130_fd_sc_hd__inv_1
*I *7345:A I *D sky130_fd_sc_hd__buf_1
*I *7320:Y O *D sky130_fd_sc_hd__inv_1
*CAP
1 *7321:A 0.000293254
2 *7345:A 0.000163455
3 *7320:Y 0
4 *819:4 0.00045671
5 *7321:A *7322:A 1.715e-05
6 *7345:A *6625:B2 0.000128396
7 *151:113 *7345:A 9.83442e-05
8 *411:78 *7345:A 0
9 *415:28 *7321:A 0.000348774
10 *415:28 *7345:A 7.82904e-05
*RES
1 *7320:Y *819:4 9.3 
2 *819:4 *7345:A 21.6304 
3 *819:4 *7321:A 14.2955 
*END

*D_NET *820 0.000483386
*CONN
*I *7322:A I *D sky130_fd_sc_hd__inv_1
*I *7321:Y O *D sky130_fd_sc_hd__inv_1
*CAP
1 *7322:A 0.000191724
2 *7321:Y 0.000191724
3 *7319:A *7322:A 2.16394e-05
4 *7321:A *7322:A 1.715e-05
5 *148:54 *7322:A 5.48859e-05
6 *415:28 *7322:A 6.26329e-06
*RES
1 *7321:Y *7322:A 31.3545 
*END

*D_NET *821 0.000135928
*CONN
*I *7323:A I *D sky130_fd_sc_hd__inv_1
*I *7322:Y O *D sky130_fd_sc_hd__inv_1
*CAP
1 *7323:A 5.28551e-05
2 *7322:Y 5.28551e-05
3 *7323:A *7326:A 1.37743e-05
4 *148:54 *7323:A 1.64433e-05
*RES
1 *7322:Y *7323:A 19.4973 
*END

*D_NET *822 0.000120088
*CONN
*I *7324:A I *D sky130_fd_sc_hd__inv_1
*I *7323:Y O *D sky130_fd_sc_hd__inv_1
*CAP
1 *7324:A 3.33546e-05
2 *7323:Y 3.33546e-05
3 *7324:A *7326:A 5.33783e-05
*RES
1 *7323:Y *7324:A 19.4973 
*END

*D_NET *823 0.00068516
*CONN
*I *7326:A I *D sky130_fd_sc_hd__inv_1
*I *7324:Y O *D sky130_fd_sc_hd__inv_1
*CAP
1 *7326:A 0.000285009
2 *7324:Y 0.000285009
3 *7326:A *7328:A 2.80853e-05
4 *7326:A *7329:A 1.07926e-05
5 *7323:A *7326:A 1.37743e-05
6 *7324:A *7326:A 5.33783e-05
7 *148:54 *7326:A 9.11048e-06
*RES
1 *7324:Y *7326:A 31.4973 
*END

*D_NET *824 0.000870867
*CONN
*I *7336:A I *D sky130_fd_sc_hd__inv_1
*I *7325:Y O *D sky130_fd_sc_hd__inv_1
*CAP
1 *7336:A 0.000166057
2 *7325:Y 0.000166057
3 *7336:A *7338:A 0.000113691
4 *7336:A *7346:B 1.00948e-05
5 *6528:B *7336:A 1.22995e-05
6 *6534:A *7336:A 0.000111776
7 *7325:A *7336:A 3.59291e-05
8 *7346:A *7336:A 2.73592e-05
9 *405:113 *7336:A 0.000227603
*RES
1 *7325:Y *7336:A 23.8455 
*END

*D_NET *825 0.00022945
*CONN
*I *7327:A I *D sky130_fd_sc_hd__inv_1
*I *7326:Y O *D sky130_fd_sc_hd__inv_1
*CAP
1 *7327:A 4.49577e-05
2 *7326:Y 4.49577e-05
3 *7327:A *7328:A 0.000139534
*RES
1 *7326:Y *7327:A 19.908 
*END

*D_NET *826 0.000596542
*CONN
*I *7328:A I *D sky130_fd_sc_hd__inv_1
*I *7327:Y O *D sky130_fd_sc_hd__inv_1
*CAP
1 *7328:A 0.000201532
2 *7327:Y 0.000201532
3 *7328:A *7329:A 2.58581e-05
4 *7326:A *7328:A 2.80853e-05
5 *7327:A *7328:A 0.000139534
*RES
1 *7327:Y *7328:A 22.4705 
*END

*D_NET *827 0.000562723
*CONN
*I *7329:A I *D sky130_fd_sc_hd__inv_1
*I *7328:Y O *D sky130_fd_sc_hd__inv_1
*CAP
1 *7329:A 0.000241148
2 *7328:Y 0.000241148
3 *7329:A *7330:A 3.00023e-05
4 *7329:A *7331:A 1.37743e-05
5 *6533:C *7329:A 0
6 *7326:A *7329:A 1.07926e-05
7 *7328:A *7329:A 2.58581e-05
*RES
1 *7328:Y *7329:A 30.9795 
*END

*D_NET *828 0.000353018
*CONN
*I *7330:A I *D sky130_fd_sc_hd__inv_1
*I *7329:Y O *D sky130_fd_sc_hd__inv_1
*CAP
1 *7330:A 4.54808e-05
2 *7329:Y 4.54808e-05
3 *7330:A *7331:A 5.35805e-05
4 *7330:A *7332:A 0.000166175
5 *7330:A *7333:A 1.22995e-05
6 *7329:A *7330:A 3.00023e-05
*RES
1 *7329:Y *7330:A 20.8277 
*END

*D_NET *829 0.000464068
*CONN
*I *7331:A I *D sky130_fd_sc_hd__inv_1
*I *7330:Y O *D sky130_fd_sc_hd__inv_1
*CAP
1 *7331:A 7.11166e-05
2 *7330:Y 7.11166e-05
3 *7331:A *7332:A 4.37558e-05
4 *7331:A *7333:A 0.000210724
5 *7329:A *7331:A 1.37743e-05
6 *7330:A *7331:A 5.35805e-05
*RES
1 *7330:Y *7331:A 21.5866 
*END

*D_NET *830 0.000864642
*CONN
*I *7332:A I *D sky130_fd_sc_hd__inv_1
*I *7331:Y O *D sky130_fd_sc_hd__inv_1
*CAP
1 *7332:A 0.000311537
2 *7331:Y 0.000311537
3 *7332:A *7333:A 3.16378e-05
4 *7330:A *7332:A 0.000166175
5 *7331:A *7332:A 4.37558e-05
*RES
1 *7331:Y *7332:A 23.8455 
*END

*D_NET *831 0.00101297
*CONN
*I *7333:A I *D sky130_fd_sc_hd__inv_1
*I *7332:Y O *D sky130_fd_sc_hd__inv_1
*CAP
1 *7333:A 0.000372347
2 *7332:Y 0.000372347
3 *7333:A *7334:A 1.36161e-05
4 *7330:A *7333:A 1.22995e-05
5 *7331:A *7333:A 0.000210724
6 *7332:A *7333:A 3.16378e-05
*RES
1 *7332:Y *7333:A 24.3545 
*END

*D_NET *832 0.000900852
*CONN
*I *7334:A I *D sky130_fd_sc_hd__inv_1
*I *7333:Y O *D sky130_fd_sc_hd__inv_1
*CAP
1 *7334:A 0.00023129
2 *7333:Y 0.00023129
3 *7334:A *7335:A 4.54318e-05
4 *6533:C *7334:A 7.83587e-05
5 *7333:A *7334:A 1.36161e-05
6 *405:113 *7334:A 0.000286194
7 *413:96 *7334:A 1.46717e-05
*RES
1 *7333:Y *7334:A 32.6848 
*END

*D_NET *833 0.000511132
*CONN
*I *7335:A I *D sky130_fd_sc_hd__inv_1
*I *7334:Y O *D sky130_fd_sc_hd__inv_1
*CAP
1 *7335:A 0.000217849
2 *7334:Y 0.000217849
3 *7335:A *7337:A 3.00023e-05
4 *7334:A *7335:A 4.54318e-05
5 *413:96 *7335:A 0
*RES
1 *7334:Y *7335:A 30.9795 
*END

*D_NET *834 0.000282139
*CONN
*I *7337:A I *D sky130_fd_sc_hd__inv_1
*I *7335:Y O *D sky130_fd_sc_hd__inv_1
*CAP
1 *7337:A 0.000112923
2 *7335:Y 0.000112923
3 *7337:A *7346:B 2.62908e-05
4 *7335:A *7337:A 3.00023e-05
*RES
1 *7335:Y *7337:A 20.8277 
*END

*D_NET *835 0.000913555
*CONN
*I *7338:A I *D sky130_fd_sc_hd__inv_1
*I *7336:Y O *D sky130_fd_sc_hd__inv_1
*CAP
1 *7338:A 0.000276512
2 *7336:Y 0.000276512
3 *7338:A *7339:A 5.7269e-05
4 *6528:B *7338:A 0.00016507
5 *7336:A *7338:A 0.000113691
6 *405:113 *7338:A 2.44999e-05
7 *411:78 *7338:A 0
*RES
1 *7336:Y *7338:A 33.2741 
*END

*D_NET *836 0.00043385
*CONN
*I *7346:B I *D sky130_fd_sc_hd__nand2_1
*I *7337:Y O *D sky130_fd_sc_hd__inv_1
*CAP
1 *7346:B 0.000170048
2 *7337:Y 0.000170048
3 *7325:A *7346:B 5.31321e-05
4 *7336:A *7346:B 1.00948e-05
5 *7337:A *7346:B 2.62908e-05
6 *7346:A *7346:B 4.23644e-06
*RES
1 *7337:Y *7346:B 21.3857 
*END

*D_NET *837 0.000306642
*CONN
*I *7339:A I *D sky130_fd_sc_hd__inv_1
*I *7338:Y O *D sky130_fd_sc_hd__inv_1
*CAP
1 *7339:A 0.000104323
2 *7338:Y 0.000104323
3 *7339:A *7340:A 4.0728e-05
4 *7338:A *7339:A 5.7269e-05
*RES
1 *7338:Y *7339:A 20.8991 
*END

*D_NET *838 0.000318063
*CONN
*I *7340:A I *D sky130_fd_sc_hd__inv_1
*I *7339:Y O *D sky130_fd_sc_hd__inv_1
*CAP
1 *7340:A 0.000123456
2 *7339:Y 0.000123456
3 *7340:A *7341:A 3.04226e-05
4 *7339:A *7340:A 4.0728e-05
*RES
1 *7339:Y *7340:A 21.1313 
*END

*D_NET *839 0.000429255
*CONN
*I *7341:A I *D sky130_fd_sc_hd__inv_1
*I *7340:Y O *D sky130_fd_sc_hd__inv_1
*CAP
1 *7341:A 0.000171345
2 *7340:Y 0.000171345
3 *7341:A *7342:A 2.80715e-05
4 *7341:A *7344:A 2.80715e-05
5 *7340:A *7341:A 3.04226e-05
6 *411:78 *7341:A 0
*RES
1 *7340:Y *7341:A 30.2652 
*END

*D_NET *840 0.000593079
*CONN
*I *7342:A I *D sky130_fd_sc_hd__inv_1
*I *7341:Y O *D sky130_fd_sc_hd__inv_1
*CAP
1 *7342:A 0.000205783
2 *7341:Y 0.000205783
3 *7342:A *7343:A 9.2765e-05
4 *7342:A *7344:A 6.06769e-05
5 *7341:A *7342:A 2.80715e-05
*RES
1 *7341:Y *7342:A 22.5152 
*END

*D_NET *841 0.000170545
*CONN
*I *7343:A I *D sky130_fd_sc_hd__inv_1
*I *7342:Y O *D sky130_fd_sc_hd__inv_1
*CAP
1 *7343:A 3.88898e-05
2 *7342:Y 3.88898e-05
3 *7342:A *7343:A 9.2765e-05
*RES
1 *7342:Y *7343:A 19.4973 
*END

*D_NET *842 0.000853933
*CONN
*I *7344:A I *D sky130_fd_sc_hd__inv_1
*I *7343:Y O *D sky130_fd_sc_hd__inv_1
*CAP
1 *7344:A 0.000355474
2 *7343:Y 0.000355474
3 *7344:A *7315:A 5.42373e-05
4 *7341:A *7344:A 2.80715e-05
5 *7342:A *7344:A 6.06769e-05
6 *411:78 *7344:A 0
*RES
1 *7343:Y *7344:A 34.0777 
*END

*D_NET *843 0.000609664
*CONN
*I *7315:A I *D sky130_fd_sc_hd__inv_1
*I *7344:Y O *D sky130_fd_sc_hd__inv_1
*CAP
1 *7315:A 0.000191137
2 *7344:Y 0.000191137
3 *7316:A *7315:A 9.48618e-05
4 *7317:A *7315:A 7.82904e-05
5 *7344:A *7315:A 5.42373e-05
*RES
1 *7344:Y *7315:A 22.5063 
*END

*D_NET *844 0.000397471
*CONN
*I *6629:B2 I *D sky130_fd_sc_hd__a22o_2
*I *7345:X O *D sky130_fd_sc_hd__buf_1
*CAP
1 *6629:B2 0.00015251
2 *7345:X 0.00015251
3 *6532:A *6629:B2 5.65955e-05
4 *6625:B1 *6629:B2 3.58558e-05
*RES
1 *7345:X *6629:B2 30.0821 
*END

*D_NET *845 0.000528846
*CONN
*I *7378:A I *D sky130_fd_sc_hd__nand2_1
*I *6530:X O *D sky130_fd_sc_hd__and3_2
*CAP
1 *7378:A 0.000177875
2 *6530:X 0.000177875
3 *7378:A *7357:A 4.22908e-05
4 *7378:A *7369:A 2.79827e-05
5 *7378:A *7378:B 7.86112e-05
6 *6530:B *7378:A 2.42119e-05
*RES
1 *6530:X *7378:A 22.0464 
*END

*D_NET *846 0.000208633
*CONN
*I *7357:A I *D sky130_fd_sc_hd__inv_1
*I *7378:Y O *D sky130_fd_sc_hd__nand2_1
*CAP
1 *7357:A 5.17048e-05
2 *7378:Y 5.17048e-05
3 *6530:B *7357:A 6.29324e-05
4 *7378:A *7357:A 4.22908e-05
*RES
1 *7378:Y *7357:A 20.2563 
*END

*D_NET *847 0.000799266
*CONN
*I *7348:A I *D sky130_fd_sc_hd__inv_1
*I *7347:Y O *D sky130_fd_sc_hd__inv_1
*CAP
1 *7348:A 0.000275628
2 *7347:Y 0.000275628
3 *7348:A *7349:A 5.94311e-05
4 *7348:A *7374:A 1.81818e-05
5 *7348:A *7375:A 6.47486e-05
6 *217:10 *7348:A 3.34672e-05
7 *405:28 *7348:A 7.21807e-05
*RES
1 *7347:Y *7348:A 32.0598 
*END

*D_NET *848 0.00040578
*CONN
*I *7349:A I *D sky130_fd_sc_hd__inv_1
*I *7348:Y O *D sky130_fd_sc_hd__inv_1
*CAP
1 *7349:A 5.39542e-05
2 *7348:Y 5.39542e-05
3 *7349:A *7350:A 6.4101e-05
4 *7349:A *7374:A 7.07239e-05
5 *7349:A *7375:A 0.000103616
6 *7348:A *7349:A 5.94311e-05
*RES
1 *7348:Y *7349:A 20.8277 
*END

*D_NET *849 0.000413122
*CONN
*I *7350:A I *D sky130_fd_sc_hd__inv_1
*I *7349:Y O *D sky130_fd_sc_hd__inv_1
*CAP
1 *7350:A 9.04304e-05
2 *7349:Y 9.04304e-05
3 *7350:A *7374:A 5.52291e-05
4 *7350:A *7375:A 0.000112931
5 *7349:A *7350:A 6.4101e-05
*RES
1 *7349:Y *7350:A 21.2563 
*END

*D_NET *850 0.000503521
*CONN
*I *7351:A I *D sky130_fd_sc_hd__inv_1
*I *7350:Y O *D sky130_fd_sc_hd__inv_1
*CAP
1 *7351:A 0.000168636
2 *7350:Y 0.000168636
3 *7351:A *7347:A 4.03318e-05
4 *7351:A *7352:A 2.3541e-05
5 *7351:A *7375:A 7.71367e-05
6 *405:28 *7351:A 2.524e-05
*RES
1 *7350:Y *7351:A 30.2205 
*END

*D_NET *851 0.000376464
*CONN
*I *7352:A I *D sky130_fd_sc_hd__inv_1
*I *7351:Y O *D sky130_fd_sc_hd__inv_1
*CAP
1 *7352:A 0.000118433
2 *7351:Y 0.000118433
3 *7351:A *7352:A 2.3541e-05
4 *405:28 *7352:A 0.000116058
*RES
1 *7351:Y *7352:A 21.2563 
*END

*D_NET *852 0.0008083
*CONN
*I *7377:A I *D sky130_fd_sc_hd__buf_1
*I *7353:A I *D sky130_fd_sc_hd__inv_1
*I *7352:Y O *D sky130_fd_sc_hd__inv_1
*CAP
1 *7377:A 0
2 *7353:A 3.36098e-05
3 *7352:Y 0.00023284
4 *852:12 0.00026645
5 *7353:A *7354:A 1.87618e-05
6 *852:12 *7354:A 0
7 *852:12 *7355:A 0
8 *405:28 *852:12 0.000114413
9 *409:38 *7353:A 6.29385e-05
10 *413:127 *852:12 7.92879e-05
*RES
1 *7352:Y *852:12 22.2196 
2 *852:12 *7353:A 10.358 
3 *852:12 *7377:A 9.3 
*END

*D_NET *853 0.000863679
*CONN
*I *7354:A I *D sky130_fd_sc_hd__inv_1
*I *7353:Y O *D sky130_fd_sc_hd__inv_1
*CAP
1 *7354:A 0.000334132
2 *7353:Y 0.000334132
3 *7354:A *7355:A 2.56601e-05
4 *7354:A *7358:A 1.96517e-05
5 *7353:A *7354:A 1.87618e-05
6 *204:10 *7354:A 0
7 *405:28 *7354:A 0.000110942
8 *409:38 *7354:A 2.03982e-05
9 *413:127 *7354:A 0
10 *852:12 *7354:A 0
*RES
1 *7353:Y *7354:A 32.9884 
*END

*D_NET *854 0.000793575
*CONN
*I *7355:A I *D sky130_fd_sc_hd__inv_1
*I *7354:Y O *D sky130_fd_sc_hd__inv_1
*CAP
1 *7355:A 0.000287904
2 *7354:Y 0.000287904
3 *7355:A *7356:A 0.000127439
4 *6557:A *7355:A 2.3541e-05
5 *7354:A *7355:A 2.56601e-05
6 *204:10 *7355:A 0
7 *405:28 *7355:A 4.11274e-05
8 *852:12 *7355:A 0
*RES
1 *7354:Y *7355:A 32.6491 
*END

*D_NET *855 0.000500198
*CONN
*I *7356:A I *D sky130_fd_sc_hd__inv_1
*I *7355:Y O *D sky130_fd_sc_hd__inv_1
*CAP
1 *7356:A 0.000113928
2 *7355:Y 0.000113928
3 *7356:A *7358:A 7.18982e-05
4 *6557:A *7356:A 3.47984e-05
5 *7355:A *7356:A 0.000127439
6 *409:38 *7356:A 3.82062e-05
*RES
1 *7355:Y *7356:A 30.2652 
*END

*D_NET *856 0.000341713
*CONN
*I *7358:A I *D sky130_fd_sc_hd__inv_1
*I *7356:Y O *D sky130_fd_sc_hd__inv_1
*CAP
1 *7358:A 7.94283e-05
2 *7356:Y 7.94283e-05
3 *7358:A *7359:A 5.63653e-05
4 *7358:A *7360:A 0
5 *7354:A *7358:A 1.96517e-05
6 *7356:A *7358:A 7.18982e-05
7 *409:38 *7358:A 3.49408e-05
*RES
1 *7356:Y *7358:A 20.6982 
*END

*D_NET *857 0.000164908
*CONN
*I *7368:A I *D sky130_fd_sc_hd__inv_1
*I *7357:Y O *D sky130_fd_sc_hd__inv_1
*CAP
1 *7368:A 5.46905e-05
2 *7357:Y 5.46905e-05
3 *6530:B *7368:A 5.55274e-05
*RES
1 *7357:Y *7368:A 19.908 
*END

*D_NET *858 0.00035554
*CONN
*I *7359:A I *D sky130_fd_sc_hd__inv_1
*I *7358:Y O *D sky130_fd_sc_hd__inv_1
*CAP
1 *7359:A 0.000121933
2 *7358:Y 0.000121933
3 *7359:A *7360:A 3.01867e-05
4 *7358:A *7359:A 5.63653e-05
5 *409:38 *7359:A 2.51217e-05
*RES
1 *7358:Y *7359:A 21.0643 
*END

*D_NET *859 0.000331203
*CONN
*I *7360:A I *D sky130_fd_sc_hd__inv_1
*I *7359:Y O *D sky130_fd_sc_hd__inv_1
*CAP
1 *7360:A 7.3547e-05
2 *7359:Y 7.3547e-05
3 *7360:A *7361:A 1.38679e-05
4 *7358:A *7360:A 0
5 *7359:A *7360:A 3.01867e-05
6 *409:38 *7360:A 0.000140055
*RES
1 *7359:Y *7360:A 20.8277 
*END

*D_NET *860 0.000888843
*CONN
*I *7361:A I *D sky130_fd_sc_hd__inv_1
*I *7360:Y O *D sky130_fd_sc_hd__inv_1
*CAP
1 *7361:A 0.000277905
2 *7360:Y 0.000277905
3 *7360:A *7361:A 1.38679e-05
4 *152:77 *7361:A 8.98131e-05
5 *405:28 *7361:A 2.79827e-05
6 *409:38 *7361:A 2.09082e-05
7 *409:108 *7361:A 0.000150618
8 *409:121 *7361:A 9.25014e-06
9 *414:93 *7361:A 2.05938e-05
*RES
1 *7360:Y *7361:A 32.2116 
*END

*D_NET *861 0.000171313
*CONN
*I *7362:A I *D sky130_fd_sc_hd__inv_1
*I *7361:Y O *D sky130_fd_sc_hd__inv_1
*CAP
1 *7362:A 3.94883e-05
2 *7361:Y 3.94883e-05
3 *405:28 *7362:A 9.23364e-05
*RES
1 *7361:Y *7362:A 19.4973 
*END

*D_NET *862 0.000679619
*CONN
*I *7363:A I *D sky130_fd_sc_hd__inv_1
*I *7362:Y O *D sky130_fd_sc_hd__inv_1
*CAP
1 *7363:A 0.000138784
2 *7362:Y 0.000138784
3 *7363:A *7364:A 2.79827e-05
4 *152:77 *7363:A 0.000128154
5 *405:28 *7363:A 0.000119475
6 *414:93 *7363:A 0.000126439
*RES
1 *7362:Y *7363:A 30.6759 
*END

*D_NET *863 0.000308038
*CONN
*I *7364:A I *D sky130_fd_sc_hd__inv_1
*I *7363:Y O *D sky130_fd_sc_hd__inv_1
*CAP
1 *7364:A 0.000133566
2 *7363:Y 0.000133566
3 *7364:A *7365:A 1.29225e-05
4 *7363:A *7364:A 2.79827e-05
*RES
1 *7363:Y *7364:A 20.8277 
*END

*D_NET *864 0.000468226
*CONN
*I *7365:A I *D sky130_fd_sc_hd__inv_1
*I *7364:Y O *D sky130_fd_sc_hd__inv_1
*CAP
1 *7365:A 9.96264e-05
2 *7364:Y 9.96264e-05
3 *7365:A *7366:A 2.79827e-05
4 *7364:A *7365:A 1.29225e-05
5 *152:77 *7365:A 0.000146474
6 *409:121 *7365:A 8.15939e-05
*RES
1 *7364:Y *7365:A 30.158 
*END

*D_NET *865 0.000374699
*CONN
*I *7366:A I *D sky130_fd_sc_hd__inv_1
*I *7365:Y O *D sky130_fd_sc_hd__inv_1
*CAP
1 *7366:A 0.000109331
2 *7365:Y 0.000109331
3 *7366:A *7367:A 0.000128053
4 *7365:A *7366:A 2.79827e-05
*RES
1 *7365:Y *7366:A 20.8277 
*END

*D_NET *866 0.000480156
*CONN
*I *7367:A I *D sky130_fd_sc_hd__inv_1
*I *7366:Y O *D sky130_fd_sc_hd__inv_1
*CAP
1 *7367:A 0.000167761
2 *7366:Y 0.000167761
3 *7367:A *7369:A 1.65822e-05
4 *7366:A *7367:A 0.000128053
*RES
1 *7366:Y *7367:A 21.5866 
*END

*D_NET *867 0.000547687
*CONN
*I *7369:A I *D sky130_fd_sc_hd__inv_1
*I *7367:Y O *D sky130_fd_sc_hd__inv_1
*CAP
1 *7369:A 0.000121681
2 *7367:Y 0.000121681
3 *6530:B *7369:A 8.30355e-06
4 *7367:A *7369:A 1.65822e-05
5 *7378:A *7369:A 2.79827e-05
6 *204:10 *7369:A 0.00012401
7 *414:93 *7369:A 0.000127446
*RES
1 *7367:Y *7369:A 30.2652 
*END

*D_NET *868 0.00057477
*CONN
*I *7370:A I *D sky130_fd_sc_hd__inv_1
*I *7368:Y O *D sky130_fd_sc_hd__inv_1
*CAP
1 *7370:A 0.000114918
2 *7368:Y 0.000114918
3 *7370:A *7371:A 0.000124126
4 *7370:A *7372:A 0.000164762
5 *6530:B *7370:A 5.60465e-05
*RES
1 *7368:Y *7370:A 21.9795 
*END

*D_NET *869 0.000136421
*CONN
*I *7378:B I *D sky130_fd_sc_hd__nand2_1
*I *7369:Y O *D sky130_fd_sc_hd__inv_1
*CAP
1 *7378:B 1.35737e-05
2 *7369:Y 1.35737e-05
3 *6530:B *7378:B 3.06628e-05
4 *7378:A *7378:B 7.86112e-05
*RES
1 *7369:Y *7378:B 19.3411 
*END

*D_NET *870 0.000341353
*CONN
*I *7371:A I *D sky130_fd_sc_hd__inv_1
*I *7370:Y O *D sky130_fd_sc_hd__inv_1
*CAP
1 *7371:A 7.26092e-05
2 *7370:Y 7.26092e-05
3 *6530:B *7371:A 7.20081e-05
4 *7370:A *7371:A 0.000124126
*RES
1 *7370:Y *7371:A 20.8277 
*END

*D_NET *871 0.000688366
*CONN
*I *7372:A I *D sky130_fd_sc_hd__inv_1
*I *7371:Y O *D sky130_fd_sc_hd__inv_1
*CAP
1 *7372:A 0.000249513
2 *7371:Y 0.000249513
3 *7372:A *7376:A 2.45766e-05
4 *7370:A *7372:A 0.000164762
5 *413:127 *7372:A 0
*RES
1 *7371:Y *7372:A 31.8723 
*END

*D_NET *872 0.000125096
*CONN
*I *7373:A I *D sky130_fd_sc_hd__inv_1
*I *7372:Y O *D sky130_fd_sc_hd__inv_1
*CAP
1 *7373:A 3.58591e-05
2 *7372:Y 3.58591e-05
3 *7373:A *7376:A 5.33783e-05
*RES
1 *7372:Y *7373:A 19.4973 
*END

*D_NET *873 0.0010158
*CONN
*I *7374:A I *D sky130_fd_sc_hd__inv_1
*I *7373:Y O *D sky130_fd_sc_hd__inv_1
*CAP
1 *7374:A 0.000371478
2 *7373:Y 0.000371478
3 *7374:A *7347:A 7.6644e-05
4 *7374:A *7375:A 1.87505e-05
5 *7374:A *7376:A 3.33174e-05
6 *7348:A *7374:A 1.81818e-05
7 *7349:A *7374:A 7.07239e-05
8 *7350:A *7374:A 5.52291e-05
*RES
1 *7373:Y *7374:A 33.283 
*END

*D_NET *874 0.00119776
*CONN
*I *7375:A I *D sky130_fd_sc_hd__inv_1
*I *7374:Y O *D sky130_fd_sc_hd__inv_1
*CAP
1 *7375:A 0.000403278
2 *7374:Y 0.000403278
3 *7375:A *7376:A 1.4024e-05
4 *7348:A *7375:A 6.47486e-05
5 *7349:A *7375:A 0.000103616
6 *7350:A *7375:A 0.000112931
7 *7351:A *7375:A 7.71367e-05
8 *7374:A *7375:A 1.87505e-05
*RES
1 *7374:Y *7375:A 25.8991 
*END

*D_NET *875 0.000743388
*CONN
*I *7376:A I *D sky130_fd_sc_hd__inv_1
*I *7375:Y O *D sky130_fd_sc_hd__inv_1
*CAP
1 *7376:A 0.000295055
2 *7375:Y 0.000295055
3 *7376:A *7347:A 2.79827e-05
4 *7372:A *7376:A 2.45766e-05
5 *7373:A *7376:A 5.33783e-05
6 *7374:A *7376:A 3.33174e-05
7 *7375:A *7376:A 1.4024e-05
8 *413:127 *7376:A 0
*RES
1 *7375:Y *7376:A 32.7116 
*END

*D_NET *876 0.000965526
*CONN
*I *7347:A I *D sky130_fd_sc_hd__inv_1
*I *7376:Y O *D sky130_fd_sc_hd__inv_1
*CAP
1 *7347:A 0.000240931
2 *7376:Y 0.000240931
3 *7351:A *7347:A 4.03318e-05
4 *7374:A *7347:A 7.6644e-05
5 *7376:A *7347:A 2.79827e-05
6 *405:28 *7347:A 2.524e-05
7 *413:127 *7347:A 0.000313465
*RES
1 *7376:Y *7347:A 32.6491 
*END

*D_NET *877 0.000241541
*CONN
*I *6630:B2 I *D sky130_fd_sc_hd__a221o_2
*I *7377:X O *D sky130_fd_sc_hd__buf_1
*CAP
1 *6630:B2 6.35323e-05
2 *7377:X 6.35323e-05
3 *216:16 *6630:B2 4.86656e-05
4 *217:10 *6630:B2 3.20571e-05
5 *409:38 *6630:B2 1.97502e-05
6 *409:47 *6630:B2 1.40034e-05
*RES
1 *7377:X *6630:B2 20.533 
*END

*D_NET *878 0.000334421
*CONN
*I *7410:A I *D sky130_fd_sc_hd__nand2_1
*I *6532:X O *D sky130_fd_sc_hd__and3_2
*CAP
1 *7410:A 4.47936e-05
2 *6532:X 4.47936e-05
3 *7410:A *7401:A 2.79509e-06
4 *7410:A *7410:B 7.24887e-05
5 *6532:A *7410:A 1.74352e-05
6 *6532:C *7410:A 0.000152115
*RES
1 *6532:X *7410:A 20.8143 
*END

*D_NET *879 0.000352362
*CONN
*I *7389:A I *D sky130_fd_sc_hd__inv_1
*I *7410:Y O *D sky130_fd_sc_hd__nand2_1
*CAP
1 *7389:A 0.000135632
2 *7410:Y 0.000135632
3 *7389:A *7400:A 2.55987e-05
4 *6532:B *7389:A 4.94362e-05
5 *149:49 *7389:A 6.06291e-06
*RES
1 *7410:Y *7389:A 30.1938 
*END

*D_NET *880 0.000155673
*CONN
*I *7380:A I *D sky130_fd_sc_hd__inv_1
*I *7379:Y O *D sky130_fd_sc_hd__inv_1
*CAP
1 *7380:A 7.78365e-05
2 *7379:Y 7.78365e-05
*RES
1 *7379:Y *7380:A 19.908 
*END

*D_NET *881 0.000106793
*CONN
*I *7381:A I *D sky130_fd_sc_hd__inv_1
*I *7380:Y O *D sky130_fd_sc_hd__inv_1
*CAP
1 *7381:A 5.33963e-05
2 *7380:Y 5.33963e-05
*RES
1 *7380:Y *7381:A 19.4973 
*END

*D_NET *882 0.000155673
*CONN
*I *7382:A I *D sky130_fd_sc_hd__inv_1
*I *7381:Y O *D sky130_fd_sc_hd__inv_1
*CAP
1 *7382:A 7.78365e-05
2 *7381:Y 7.78365e-05
*RES
1 *7381:Y *7382:A 19.908 
*END

*D_NET *883 0.000139942
*CONN
*I *7383:A I *D sky130_fd_sc_hd__inv_1
*I *7382:Y O *D sky130_fd_sc_hd__inv_1
*CAP
1 *7383:A 6.9971e-05
2 *7382:Y 6.9971e-05
*RES
1 *7382:Y *7383:A 19.4973 
*END

*D_NET *884 0.000108941
*CONN
*I *7384:A I *D sky130_fd_sc_hd__inv_1
*I *7383:Y O *D sky130_fd_sc_hd__inv_1
*CAP
1 *7384:A 5.44705e-05
2 *7383:Y 5.44705e-05
*RES
1 *7383:Y *7384:A 19.4973 
*END

*D_NET *885 0.000661365
*CONN
*I *7385:A I *D sky130_fd_sc_hd__inv_1
*I *7409:A I *D sky130_fd_sc_hd__buf_1
*I *7384:Y O *D sky130_fd_sc_hd__inv_1
*CAP
1 *7385:A 0.000247752
2 *7409:A 0
3 *7384:Y 7.01982e-05
4 *885:6 0.00031795
5 *7385:A *7386:A 2.54648e-05
6 *216:16 *7385:A 0
*RES
1 *7384:Y *885:6 10.4518 
2 *885:6 *7409:A 9.3 
3 *885:6 *7385:A 22.3402 
*END

*D_NET *886 0.000346717
*CONN
*I *7386:A I *D sky130_fd_sc_hd__inv_1
*I *7385:Y O *D sky130_fd_sc_hd__inv_1
*CAP
1 *7386:A 0.000136907
2 *7385:Y 0.000136907
3 *7386:A *7387:A 4.74372e-05
4 *7385:A *7386:A 2.54648e-05
*RES
1 *7385:Y *7386:A 21.3813 
*END

*D_NET *887 0.000350766
*CONN
*I *7387:A I *D sky130_fd_sc_hd__inv_1
*I *7386:Y O *D sky130_fd_sc_hd__inv_1
*CAP
1 *7387:A 0.000126326
2 *7386:Y 0.000126326
3 *7387:A *7388:A 5.06777e-05
4 *7386:A *7387:A 4.74372e-05
*RES
1 *7386:Y *7387:A 21.3813 
*END

*D_NET *888 0.000384662
*CONN
*I *7388:A I *D sky130_fd_sc_hd__inv_1
*I *7387:Y O *D sky130_fd_sc_hd__inv_1
*CAP
1 *7388:A 0.000152199
2 *7387:Y 0.000152199
3 *7388:A *7390:A 2.95872e-05
4 *7387:A *7388:A 5.06777e-05
*RES
1 *7387:Y *7388:A 21.3813 
*END

*D_NET *889 0.000314983
*CONN
*I *7390:A I *D sky130_fd_sc_hd__inv_1
*I *7388:Y O *D sky130_fd_sc_hd__inv_1
*CAP
1 *7390:A 0.00013435
2 *7388:Y 0.00013435
3 *7390:A *7391:A 1.66955e-05
4 *7388:A *7390:A 2.95872e-05
*RES
1 *7388:Y *7390:A 21.1313 
*END

*D_NET *890 0.000697632
*CONN
*I *7400:A I *D sky130_fd_sc_hd__inv_1
*I *7389:Y O *D sky130_fd_sc_hd__inv_1
*CAP
1 *7400:A 0.000132521
2 *7389:Y 0.000132521
3 *7400:A *7402:A 5.323e-05
4 *7400:A *7403:A 1.81707e-05
5 *7389:A *7400:A 2.55987e-05
6 *149:49 *7400:A 0.00033559
*RES
1 *7389:Y *7400:A 22.8188 
*END

*D_NET *891 0.000392299
*CONN
*I *7391:A I *D sky130_fd_sc_hd__inv_1
*I *7390:Y O *D sky130_fd_sc_hd__inv_1
*CAP
1 *7391:A 0.000169454
2 *7390:Y 0.000169454
3 *7391:A *7392:A 1.14548e-05
4 *7390:A *7391:A 1.66955e-05
5 *149:57 *7391:A 2.524e-05
6 *411:78 *7391:A 0
*RES
1 *7390:Y *7391:A 29.8098 
*END

*D_NET *892 0.00040316
*CONN
*I *7392:A I *D sky130_fd_sc_hd__inv_1
*I *7391:Y O *D sky130_fd_sc_hd__inv_1
*CAP
1 *7392:A 0.000137704
2 *7391:Y 0.000137704
3 *7391:A *7392:A 1.14548e-05
4 *149:57 *7392:A 0.000116298
*RES
1 *7391:Y *7392:A 21.1313 
*END

*D_NET *893 0.000598368
*CONN
*I *7393:A I *D sky130_fd_sc_hd__inv_1
*I *7392:Y O *D sky130_fd_sc_hd__inv_1
*CAP
1 *7393:A 8.75923e-05
2 *7392:Y 8.75923e-05
3 *7393:A *7394:A 0.000186669
4 *149:57 *7393:A 0.000236515
*RES
1 *7392:Y *7393:A 21.9527 
*END

*D_NET *894 0.000816557
*CONN
*I *7394:A I *D sky130_fd_sc_hd__inv_1
*I *7393:Y O *D sky130_fd_sc_hd__inv_1
*CAP
1 *7394:A 0.000291081
2 *7393:Y 0.000291081
3 *7394:A *7397:A 1.37743e-05
4 *7393:A *7394:A 0.000186669
5 *149:57 *7394:A 5.86723e-06
6 *151:113 *7394:A 2.80853e-05
7 *411:78 *7394:A 0
*RES
1 *7393:Y *7394:A 31.8009 
*END

*D_NET *895 0.000174798
*CONN
*I *7395:A I *D sky130_fd_sc_hd__inv_1
*I *7394:Y O *D sky130_fd_sc_hd__inv_1
*CAP
1 *7395:A 1.2849e-05
2 *7394:Y 1.2849e-05
3 *7395:A *7397:A 5.33783e-05
4 *151:113 *7395:A 9.57215e-05
*RES
1 *7394:Y *7395:A 19.4973 
*END

*D_NET *896 0.000186886
*CONN
*I *7396:A I *D sky130_fd_sc_hd__inv_1
*I *7395:Y O *D sky130_fd_sc_hd__inv_1
*CAP
1 *7396:A 2.26531e-05
2 *7395:Y 2.26531e-05
3 *7396:A *7397:A 4.88151e-05
4 *151:113 *7396:A 9.2765e-05
*RES
1 *7395:Y *7396:A 19.4973 
*END

*D_NET *897 0.000921468
*CONN
*I *7397:A I *D sky130_fd_sc_hd__inv_1
*I *7396:Y O *D sky130_fd_sc_hd__inv_1
*CAP
1 *7397:A 0.000356314
2 *7396:Y 0.000356314
3 *7397:A *7398:A 3.00023e-05
4 *7397:A *7448:A 2.8266e-06
5 *7394:A *7397:A 1.37743e-05
6 *7395:A *7397:A 5.33783e-05
7 *7396:A *7397:A 4.88151e-05
8 *151:90 *7397:A 0
9 *151:113 *7397:A 4.62699e-05
10 *411:78 *7397:A 0
11 *415:28 *7397:A 1.37743e-05
*RES
1 *7396:Y *7397:A 32.7295 
*END

*D_NET *898 0.000384773
*CONN
*I *7398:A I *D sky130_fd_sc_hd__inv_1
*I *7397:Y O *D sky130_fd_sc_hd__inv_1
*CAP
1 *7398:A 4.89769e-05
2 *7397:Y 4.89769e-05
3 *7398:A *7399:A 5.47661e-05
4 *7398:A *7449:A 0.000158186
5 *7397:A *7398:A 3.00023e-05
6 *415:28 *7398:A 4.38647e-05
*RES
1 *7397:Y *7398:A 20.8991 
*END

*D_NET *899 0.000717303
*CONN
*I *7399:A I *D sky130_fd_sc_hd__inv_1
*I *7398:Y O *D sky130_fd_sc_hd__inv_1
*CAP
1 *7399:A 0.000180909
2 *7398:Y 0.000180909
3 *7399:A *7401:A 5.47661e-05
4 *7399:A *7449:A 2.71004e-05
5 *6532:A *7399:A 3.36817e-05
6 *7398:A *7399:A 5.47661e-05
7 *151:90 *7399:A 0
8 *151:113 *7399:A 6.42215e-05
9 *411:78 *7399:A 0
10 *415:28 *7399:A 0.00012095
*RES
1 *7398:Y *7399:A 31.8277 
*END

*D_NET *900 0.000657259
*CONN
*I *7401:A I *D sky130_fd_sc_hd__inv_1
*I *7399:Y O *D sky130_fd_sc_hd__inv_1
*CAP
1 *7401:A 7.14336e-05
2 *7399:Y 7.14336e-05
3 *7401:A *7410:B 5.75696e-05
4 *6532:A *7401:A 0.000244527
5 *6532:C *7401:A 0.000131085
6 *7399:A *7401:A 5.47661e-05
7 *7410:A *7401:A 2.79509e-06
8 *151:113 *7401:A 2.36493e-05
*RES
1 *7399:Y *7401:A 22.0598 
*END

*D_NET *901 0.000125573
*CONN
*I *7402:A I *D sky130_fd_sc_hd__inv_1
*I *7400:Y O *D sky130_fd_sc_hd__inv_1
*CAP
1 *7402:A 3.61715e-05
2 *7400:Y 3.61715e-05
3 *7400:A *7402:A 5.323e-05
*RES
1 *7400:Y *7402:A 19.4973 
*END

*D_NET *902 0.000486337
*CONN
*I *7410:B I *D sky130_fd_sc_hd__nand2_1
*I *7401:Y O *D sky130_fd_sc_hd__inv_1
*CAP
1 *7410:B 5.89488e-05
2 *7401:Y 5.89488e-05
3 *6532:A *7410:B 0.000211957
4 *6532:C *7410:B 2.64233e-05
5 *7401:A *7410:B 5.75696e-05
6 *7410:A *7410:B 7.24887e-05
*RES
1 *7401:Y *7410:B 21.4304 
*END

*D_NET *903 0.000556123
*CONN
*I *7403:A I *D sky130_fd_sc_hd__inv_1
*I *7402:Y O *D sky130_fd_sc_hd__inv_1
*CAP
1 *7403:A 0.000168316
2 *7402:Y 0.000168316
3 *7403:A *7404:A 7.18982e-05
4 *7403:A *7406:A 3.69047e-06
5 *6532:B *7403:A 0.000125731
6 *7400:A *7403:A 1.81707e-05
*RES
1 *7402:Y *7403:A 30.6759 
*END

*D_NET *904 0.00060996
*CONN
*I *7404:A I *D sky130_fd_sc_hd__inv_1
*I *7403:Y O *D sky130_fd_sc_hd__inv_1
*CAP
1 *7404:A 0.000220628
2 *7403:Y 0.000220628
3 *7404:A *7405:A 9.26762e-05
4 *7404:A *7406:A 4.12921e-06
5 *7403:A *7404:A 7.18982e-05
*RES
1 *7403:Y *7404:A 22.5152 
*END

*D_NET *905 0.000171019
*CONN
*I *7405:A I *D sky130_fd_sc_hd__inv_1
*I *7404:Y O *D sky130_fd_sc_hd__inv_1
*CAP
1 *7405:A 3.91713e-05
2 *7404:Y 3.91713e-05
3 *7404:A *7405:A 9.26762e-05
*RES
1 *7404:Y *7405:A 19.4973 
*END

*D_NET *906 0.00042131
*CONN
*I *7406:A I *D sky130_fd_sc_hd__inv_1
*I *7405:Y O *D sky130_fd_sc_hd__inv_1
*CAP
1 *7406:A 0.000129364
2 *7405:Y 0.000129364
3 *6532:B *7406:A 0.000154762
4 *7403:A *7406:A 3.69047e-06
5 *7404:A *7406:A 4.12921e-06
*RES
1 *7405:Y *7406:A 30.158 
*END

*D_NET *907 0.000106793
*CONN
*I *7407:A I *D sky130_fd_sc_hd__inv_1
*I *7406:Y O *D sky130_fd_sc_hd__inv_1
*CAP
1 *7407:A 5.33963e-05
2 *7406:Y 5.33963e-05
*RES
1 *7406:Y *7407:A 19.4973 
*END

*D_NET *908 0.000106793
*CONN
*I *7408:A I *D sky130_fd_sc_hd__inv_1
*I *7407:Y O *D sky130_fd_sc_hd__inv_1
*CAP
1 *7408:A 5.33963e-05
2 *7407:Y 5.33963e-05
*RES
1 *7407:Y *7408:A 19.4973 
*END

*D_NET *909 0.000106793
*CONN
*I *7379:A I *D sky130_fd_sc_hd__inv_1
*I *7408:Y O *D sky130_fd_sc_hd__inv_1
*CAP
1 *7379:A 5.33963e-05
2 *7408:Y 5.33963e-05
*RES
1 *7408:Y *7379:A 19.4973 
*END

*D_NET *910 0.000518266
*CONN
*I *6626:A1 I *D sky130_fd_sc_hd__a221o_2
*I *7409:X O *D sky130_fd_sc_hd__buf_1
*CAP
1 *6626:A1 0.00021463
2 *7409:X 0.00021463
3 *6626:A1 *6626:B2 6.4752e-05
4 *6626:C1 *6626:A1 2.42538e-05
*RES
1 *7409:X *6626:A1 21.8143 
*END

*D_NET *911 0.000595071
*CONN
*I *7442:A I *D sky130_fd_sc_hd__nand2_1
*I *6533:X O *D sky130_fd_sc_hd__and3_2
*CAP
1 *7442:A 0.000214309
2 *6533:X 0.000214309
3 *7442:A *7421:A 4.22908e-05
4 *7442:A *7432:A 0.00010096
5 *7442:A *7433:A 0
6 *7442:A *7442:B 2.32013e-05
*RES
1 *6533:X *7442:A 22.8679 
*END

*D_NET *912 0.000257481
*CONN
*I *7421:A I *D sky130_fd_sc_hd__inv_1
*I *7442:Y O *D sky130_fd_sc_hd__nand2_1
*CAP
1 *7421:A 3.24735e-05
2 *7442:Y 3.24735e-05
3 *7421:A *7432:A 2.88594e-05
4 *7421:A *7433:A 1.42392e-06
5 *7421:A *7442:B 0.00011996
6 *7442:A *7421:A 4.22908e-05
*RES
1 *7442:Y *7421:A 20.2563 
*END

*D_NET *913 0.000297826
*CONN
*I *7412:A I *D sky130_fd_sc_hd__inv_1
*I *7411:Y O *D sky130_fd_sc_hd__inv_1
*CAP
1 *7412:A 0.000106386
2 *7411:Y 0.000106386
3 *7412:A *7411:A 5.87622e-05
4 *7412:A *7413:A 2.62908e-05
5 *7412:A *7440:A 0
*RES
1 *7411:Y *7412:A 20.8277 
*END

*D_NET *914 0.000825781
*CONN
*I *7413:A I *D sky130_fd_sc_hd__inv_1
*I *7412:Y O *D sky130_fd_sc_hd__inv_1
*CAP
1 *7413:A 0.00026744
2 *7412:Y 0.00026744
3 *7413:A *7415:A 8.30355e-06
4 *7412:A *7413:A 2.62908e-05
5 *405:95 *7413:A 0.000126439
6 *413:96 *7413:A 0.000129868
*RES
1 *7412:Y *7413:A 31.908 
*END

*D_NET *915 0.000130945
*CONN
*I *7414:A I *D sky130_fd_sc_hd__inv_1
*I *7413:Y O *D sky130_fd_sc_hd__inv_1
*CAP
1 *7414:A 4.94795e-05
2 *7413:Y 4.94795e-05
3 *7414:A *7415:A 3.19864e-05
*RES
1 *7413:Y *7414:A 19.4973 
*END

*D_NET *916 0.000816276
*CONN
*I *7415:A I *D sky130_fd_sc_hd__inv_1
*I *7414:Y O *D sky130_fd_sc_hd__inv_1
*CAP
1 *7415:A 0.000234946
2 *7414:Y 0.000234946
3 *7413:A *7415:A 8.30355e-06
4 *7414:A *7415:A 3.19864e-05
5 *405:95 *7415:A 0.000151333
6 *413:96 *7415:A 0.000154762
*RES
1 *7414:Y *7415:A 31.8009 
*END

*D_NET *917 0.000125872
*CONN
*I *7416:A I *D sky130_fd_sc_hd__inv_1
*I *7415:Y O *D sky130_fd_sc_hd__inv_1
*CAP
1 *7416:A 6.2936e-05
2 *7415:Y 6.2936e-05
*RES
1 *7415:Y *7416:A 19.4973 
*END

*D_NET *918 0.00113703
*CONN
*I *7417:A I *D sky130_fd_sc_hd__inv_1
*I *7441:A I *D sky130_fd_sc_hd__buf_1
*I *7416:Y O *D sky130_fd_sc_hd__inv_1
*CAP
1 *7417:A 1.57553e-05
2 *7441:A 0.00032756
3 *7416:Y 9.55048e-05
4 *918:6 0.00043882
5 *7441:A *6625:A1 5.17614e-05
6 *6526:B *7441:A 2.77258e-05
7 *6526:C *7441:A 2.89114e-05
8 *7314:A *7441:A 7.77652e-05
9 *405:89 *7441:A 7.32272e-05
10 *412:66 *7441:A 0
11 *412:77 *7441:A 0
*RES
1 *7416:Y *918:6 10.8625 
2 *918:6 *7441:A 24.7821 
3 *918:6 *7417:A 9.58125 
*END

*D_NET *919 0.000253433
*CONN
*I *7418:A I *D sky130_fd_sc_hd__inv_1
*I *7417:Y O *D sky130_fd_sc_hd__inv_1
*CAP
1 *7418:A 0.000126717
2 *7417:Y 0.000126717
*RES
1 *7417:Y *7418:A 20.7295 
*END

*D_NET *920 0.000731025
*CONN
*I *7419:A I *D sky130_fd_sc_hd__inv_1
*I *7418:Y O *D sky130_fd_sc_hd__inv_1
*CAP
1 *7419:A 0.000314414
2 *7418:Y 0.000314414
3 *7314:B *7419:A 0.000102197
*RES
1 *7418:Y *7419:A 32.2116 
*END

*D_NET *921 0.000106793
*CONN
*I *7420:A I *D sky130_fd_sc_hd__inv_1
*I *7419:Y O *D sky130_fd_sc_hd__inv_1
*CAP
1 *7420:A 5.33963e-05
2 *7419:Y 5.33963e-05
*RES
1 *7419:Y *7420:A 19.4973 
*END

*D_NET *922 0.000155673
*CONN
*I *7422:A I *D sky130_fd_sc_hd__inv_1
*I *7420:Y O *D sky130_fd_sc_hd__inv_1
*CAP
1 *7422:A 7.78365e-05
2 *7420:Y 7.78365e-05
*RES
1 *7420:Y *7422:A 19.908 
*END

*D_NET *923 0.000658791
*CONN
*I *7432:A I *D sky130_fd_sc_hd__inv_1
*I *7421:Y O *D sky130_fd_sc_hd__inv_1
*CAP
1 *7432:A 0.000257066
2 *7421:Y 0.000257066
3 *7432:A *7442:B 1.48401e-05
4 *7421:A *7432:A 2.88594e-05
5 *7442:A *7432:A 0.00010096
6 *412:66 *7432:A 0
*RES
1 *7421:Y *7432:A 31.4973 
*END

*D_NET *924 0.000379446
*CONN
*I *7423:A I *D sky130_fd_sc_hd__inv_1
*I *7422:Y O *D sky130_fd_sc_hd__inv_1
*CAP
1 *7423:A 0.000189723
2 *7422:Y 0.000189723
*RES
1 *7422:Y *7423:A 30.2652 
*END

*D_NET *925 0.000107081
*CONN
*I *7424:A I *D sky130_fd_sc_hd__inv_1
*I *7423:Y O *D sky130_fd_sc_hd__inv_1
*CAP
1 *7424:A 5.35405e-05
2 *7423:Y 5.35405e-05
*RES
1 *7423:Y *7424:A 19.4973 
*END

*D_NET *926 0.000410636
*CONN
*I *7425:A I *D sky130_fd_sc_hd__inv_1
*I *7424:Y O *D sky130_fd_sc_hd__inv_1
*CAP
1 *7425:A 0.000186971
2 *7424:Y 0.000186971
3 *7425:A *7426:A 2.524e-05
4 *7425:A *7427:A 1.14548e-05
*RES
1 *7424:Y *7425:A 30.1134 
*END

*D_NET *927 0.000322542
*CONN
*I *7426:A I *D sky130_fd_sc_hd__inv_1
*I *7425:Y O *D sky130_fd_sc_hd__inv_1
*CAP
1 *7426:A 0.000118306
2 *7425:Y 0.000118306
3 *7426:A *7427:A 6.069e-05
4 *7425:A *7426:A 2.524e-05
*RES
1 *7425:Y *7426:A 21.2563 
*END

*D_NET *928 0.000397741
*CONN
*I *7427:A I *D sky130_fd_sc_hd__inv_1
*I *7426:Y O *D sky130_fd_sc_hd__inv_1
*CAP
1 *7427:A 0.000155911
2 *7426:Y 0.000155911
3 *7427:A *7428:A 1.37743e-05
4 *7425:A *7427:A 1.14548e-05
5 *7426:A *7427:A 6.069e-05
*RES
1 *7426:Y *7427:A 21.5866 
*END

*D_NET *929 0.000622538
*CONN
*I *7428:A I *D sky130_fd_sc_hd__inv_1
*I *7427:Y O *D sky130_fd_sc_hd__inv_1
*CAP
1 *7428:A 0.000276999
2 *7427:Y 0.000276999
3 *7428:A *7429:A 5.47661e-05
4 *7427:A *7428:A 1.37743e-05
*RES
1 *7427:Y *7428:A 31.9348 
*END

*D_NET *930 0.000291801
*CONN
*I *7429:A I *D sky130_fd_sc_hd__inv_1
*I *7428:Y O *D sky130_fd_sc_hd__inv_1
*CAP
1 *7429:A 9.64609e-05
2 *7428:Y 9.64609e-05
3 *7429:A *7430:A 4.41131e-05
4 *7428:A *7429:A 5.47661e-05
*RES
1 *7428:Y *7429:A 20.8277 
*END

*D_NET *931 0.000311693
*CONN
*I *7430:A I *D sky130_fd_sc_hd__inv_1
*I *7429:Y O *D sky130_fd_sc_hd__inv_1
*CAP
1 *7430:A 0.000120645
2 *7429:Y 0.000120645
3 *7430:A *7431:A 2.62908e-05
4 *7429:A *7430:A 4.41131e-05
*RES
1 *7429:Y *7430:A 21.1313 
*END

*D_NET *932 0.000370565
*CONN
*I *7431:A I *D sky130_fd_sc_hd__inv_1
*I *7430:Y O *D sky130_fd_sc_hd__inv_1
*CAP
1 *7431:A 0.000160766
2 *7430:Y 0.000160766
3 *7431:A *7433:A 2.27416e-05
4 *7430:A *7431:A 2.62908e-05
*RES
1 *7430:Y *7431:A 21.475 
*END

*D_NET *933 0.000377873
*CONN
*I *7433:A I *D sky130_fd_sc_hd__inv_1
*I *7431:Y O *D sky130_fd_sc_hd__inv_1
*CAP
1 *7433:A 0.000167473
2 *7431:Y 0.000167473
3 *7433:A *7442:B 1.87618e-05
4 *7421:A *7433:A 1.42392e-06
5 *7431:A *7433:A 2.27416e-05
6 *7442:A *7433:A 0
*RES
1 *7431:Y *7433:A 21.5241 
*END

*D_NET *934 0.000106793
*CONN
*I *7434:A I *D sky130_fd_sc_hd__inv_1
*I *7432:Y O *D sky130_fd_sc_hd__inv_1
*CAP
1 *7434:A 5.33963e-05
2 *7432:Y 5.33963e-05
*RES
1 *7432:Y *7434:A 19.4973 
*END

*D_NET *935 0.000569611
*CONN
*I *7442:B I *D sky130_fd_sc_hd__nand2_1
*I *7433:Y O *D sky130_fd_sc_hd__inv_1
*CAP
1 *7442:B 0.000196424
2 *7433:Y 0.000196424
3 *7421:A *7442:B 0.00011996
4 *7432:A *7442:B 1.48401e-05
5 *7433:A *7442:B 1.87618e-05
6 *7442:A *7442:B 2.32013e-05
*RES
1 *7433:Y *7442:B 22.5375 
*END

*D_NET *936 0.000106793
*CONN
*I *7435:A I *D sky130_fd_sc_hd__inv_1
*I *7434:Y O *D sky130_fd_sc_hd__inv_1
*CAP
1 *7435:A 5.33963e-05
2 *7434:Y 5.33963e-05
*RES
1 *7434:Y *7435:A 19.4973 
*END

*D_NET *937 0.000592255
*CONN
*I *7436:A I *D sky130_fd_sc_hd__inv_1
*I *7435:Y O *D sky130_fd_sc_hd__inv_1
*CAP
1 *7436:A 0.000255897
2 *7435:Y 0.000255897
3 *7436:A *7437:A 8.04621e-05
4 *7436:A *7439:A 0
*RES
1 *7435:Y *7436:A 31.6402 
*END

*D_NET *938 0.000318044
*CONN
*I *7437:A I *D sky130_fd_sc_hd__inv_1
*I *7436:Y O *D sky130_fd_sc_hd__inv_1
*CAP
1 *7437:A 9.95881e-05
2 *7436:Y 9.95881e-05
3 *7437:A *7438:A 3.84054e-05
4 *7436:A *7437:A 8.04621e-05
*RES
1 *7436:Y *7437:A 20.8277 
*END

*D_NET *939 0.000358856
*CONN
*I *7438:A I *D sky130_fd_sc_hd__inv_1
*I *7437:Y O *D sky130_fd_sc_hd__inv_1
*CAP
1 *7438:A 0.000145082
2 *7437:Y 0.000145082
3 *7438:A *7439:A 3.02869e-05
4 *7438:A *7440:A 0
5 *7437:A *7438:A 3.84054e-05
*RES
1 *7437:Y *7438:A 21.1313 
*END

*D_NET *940 0.000308268
*CONN
*I *7439:A I *D sky130_fd_sc_hd__inv_1
*I *7438:Y O *D sky130_fd_sc_hd__inv_1
*CAP
1 *7439:A 0.000123847
2 *7438:Y 0.000123847
3 *7439:A *7411:A 0
4 *7439:A *7440:A 3.02869e-05
5 *7436:A *7439:A 0
6 *7438:A *7439:A 3.02869e-05
*RES
1 *7438:Y *7439:A 21.1313 
*END

*D_NET *941 0.000358367
*CONN
*I *7440:A I *D sky130_fd_sc_hd__inv_1
*I *7439:Y O *D sky130_fd_sc_hd__inv_1
*CAP
1 *7440:A 0.000148897
2 *7439:Y 0.000148897
3 *7440:A *7411:A 3.02869e-05
4 *7412:A *7440:A 0
5 *7438:A *7440:A 0
6 *7439:A *7440:A 3.02869e-05
*RES
1 *7439:Y *7440:A 21.1313 
*END

*D_NET *942 0.00033931
*CONN
*I *7411:A I *D sky130_fd_sc_hd__inv_1
*I *7440:Y O *D sky130_fd_sc_hd__inv_1
*CAP
1 *7411:A 0.000125131
2 *7440:Y 0.000125131
3 *7412:A *7411:A 5.87622e-05
4 *7439:A *7411:A 0
5 *7440:A *7411:A 3.02869e-05
*RES
1 *7440:Y *7411:A 21.2027 
*END

*D_NET *943 0.00094658
*CONN
*I *6625:A1 I *D sky130_fd_sc_hd__a22o_2
*I *7441:X O *D sky130_fd_sc_hd__buf_1
*CAP
1 *6625:A1 0.000374281
2 *7441:X 0.000374281
3 *6625:A1 *6625:B2 3.41517e-06
4 *6625:A2 *6625:A1 7.13226e-06
5 *7441:A *6625:A1 5.17614e-05
6 *151:113 *6625:A1 0.000128216
7 *405:89 *6625:A1 7.49387e-06
*RES
1 *7441:X *6625:A1 23.6714 
*END

*D_NET *944 0.000350537
*CONN
*I *7474:A I *D sky130_fd_sc_hd__nand2_1
*I *6534:X O *D sky130_fd_sc_hd__and3_2
*CAP
1 *7474:A 0.000138614
2 *6534:X 0.000138614
3 *6528:B *7474:A 0
4 *151:79 *7474:A 6.75007e-05
5 *151:90 *7474:A 5.80706e-06
6 *413:88 *7474:A 0
*RES
1 *6534:X *7474:A 30.1893 
*END

*D_NET *945 0.000500625
*CONN
*I *7453:A I *D sky130_fd_sc_hd__inv_1
*I *7474:Y O *D sky130_fd_sc_hd__nand2_1
*CAP
1 *7453:A 0.000123132
2 *7474:Y 0.000123132
3 *7453:A *7474:B 0
4 *6534:A *7453:A 5.52238e-05
5 *151:79 *7453:A 8.00806e-05
6 *151:90 *7453:A 4.56437e-05
7 *409:19 *7453:A 0
8 *411:46 *7453:A 7.34128e-05
*RES
1 *7474:Y *7453:A 30.7116 
*END

*D_NET *946 0.000356891
*CONN
*I *7444:A I *D sky130_fd_sc_hd__inv_1
*I *7443:Y O *D sky130_fd_sc_hd__inv_1
*CAP
1 *7444:A 0.000125403
2 *7443:Y 0.000125403
3 *7444:A *7445:A 2.80853e-05
4 *148:54 *7444:A 1.37743e-05
5 *151:90 *7444:A 6.42242e-05
*RES
1 *7443:Y *7444:A 29.8545 
*END

*D_NET *947 0.00036682
*CONN
*I *7445:A I *D sky130_fd_sc_hd__inv_1
*I *7444:Y O *D sky130_fd_sc_hd__inv_1
*CAP
1 *7445:A 6.53172e-05
2 *7444:Y 6.53172e-05
3 *7445:A *7446:A 0.0001344
4 *7444:A *7445:A 2.80853e-05
5 *148:44 *7445:A 9.58318e-06
6 *148:54 *7445:A 6.41166e-05
*RES
1 *7444:Y *7445:A 20.8277 
*END

*D_NET *948 0.000777885
*CONN
*I *7446:A I *D sky130_fd_sc_hd__inv_1
*I *7445:Y O *D sky130_fd_sc_hd__inv_1
*CAP
1 *7446:A 0.000207362
2 *7445:Y 0.000207362
3 *7446:A *7447:A 9.1061e-05
4 *7446:A *7448:A 8.56866e-05
5 *7445:A *7446:A 0.0001344
6 *148:54 *7446:A 5.20124e-05
*RES
1 *7445:Y *7446:A 23.6402 
*END

*D_NET *949 0.000354083
*CONN
*I *7447:A I *D sky130_fd_sc_hd__inv_1
*I *7446:Y O *D sky130_fd_sc_hd__inv_1
*CAP
1 *7447:A 5.04363e-05
2 *7446:Y 5.04363e-05
3 *7447:A *7448:A 8.21248e-06
4 *7446:A *7447:A 9.1061e-05
5 *148:54 *7447:A 0.000153937
*RES
1 *7446:Y *7447:A 20.8277 
*END

*D_NET *950 0.000571154
*CONN
*I *7448:A I *D sky130_fd_sc_hd__inv_1
*I *7447:Y O *D sky130_fd_sc_hd__inv_1
*CAP
1 *7448:A 0.000185425
2 *7447:Y 0.000185425
3 *7448:A *7449:A 1.37743e-05
4 *7397:A *7448:A 2.8266e-06
5 *7446:A *7448:A 8.56866e-05
6 *7447:A *7448:A 8.21248e-06
7 *411:78 *7448:A 7.60306e-05
8 *415:28 *7448:A 1.37743e-05
*RES
1 *7447:Y *7448:A 30.9795 
*END

*D_NET *951 0.00128816
*CONN
*I *7473:A I *D sky130_fd_sc_hd__buf_1
*I *7449:A I *D sky130_fd_sc_hd__inv_1
*I *7448:Y O *D sky130_fd_sc_hd__inv_1
*CAP
1 *7473:A 0.00014542
2 *7449:A 0.000303729
3 *7448:Y 0
4 *951:4 0.000449149
5 *7449:A *7450:A 5.42044e-05
6 *7398:A *7449:A 0.000158186
7 *7399:A *7449:A 2.71004e-05
8 *7448:A *7449:A 1.37743e-05
9 *415:28 *7449:A 8.28529e-05
10 *415:28 *7473:A 5.37454e-05
*RES
1 *7448:Y *951:4 9.3 
2 *951:4 *7449:A 15.4607 
3 *951:4 *7473:A 12.0054 
*END

*D_NET *952 0.000863525
*CONN
*I *7450:A I *D sky130_fd_sc_hd__inv_1
*I *7449:Y O *D sky130_fd_sc_hd__inv_1
*CAP
1 *7450:A 0.000351956
2 *7449:Y 0.000351956
3 *7450:A *7451:A 4.71464e-05
4 *7449:A *7450:A 5.42044e-05
5 *148:44 *7450:A 4.1452e-05
6 *151:90 *7450:A 0
7 *409:19 *7450:A 0
8 *415:28 *7450:A 1.68102e-05
*RES
1 *7449:Y *7450:A 32.5777 
*END

*D_NET *953 0.000332698
*CONN
*I *7451:A I *D sky130_fd_sc_hd__inv_1
*I *7450:Y O *D sky130_fd_sc_hd__inv_1
*CAP
1 *7451:A 0.00010675
2 *7450:Y 0.00010675
3 *7451:A *7452:A 2.77147e-05
4 *7451:A *7454:A 0
5 *7450:A *7451:A 4.71464e-05
6 *148:44 *7451:A 4.43371e-05
*RES
1 *7450:Y *7451:A 21.2563 
*END

*D_NET *954 0.000377814
*CONN
*I *7452:A I *D sky130_fd_sc_hd__inv_1
*I *7451:Y O *D sky130_fd_sc_hd__inv_1
*CAP
1 *7452:A 8.96143e-05
2 *7451:Y 8.96143e-05
3 *7452:A *7454:A 2.95948e-05
4 *7452:A *7455:A 0
5 *7451:A *7452:A 2.77147e-05
6 *148:44 *7452:A 0.000141276
*RES
1 *7451:Y *7452:A 21.1313 
*END

*D_NET *955 0.000367222
*CONN
*I *7454:A I *D sky130_fd_sc_hd__inv_1
*I *7452:Y O *D sky130_fd_sc_hd__inv_1
*CAP
1 *7454:A 0.000120619
2 *7452:Y 0.000120619
3 *7454:A *7455:A 3.02869e-05
4 *7454:A *7456:A 4.19258e-05
5 *7451:A *7454:A 0
6 *7452:A *7454:A 2.95948e-05
7 *148:44 *7454:A 2.41765e-05
*RES
1 *7452:Y *7454:A 21.3813 
*END

*D_NET *956 0.000410489
*CONN
*I *7464:A I *D sky130_fd_sc_hd__inv_1
*I *7453:Y O *D sky130_fd_sc_hd__inv_1
*CAP
1 *7464:A 0.000154154
2 *7453:Y 0.000154154
3 *7464:A *7468:A 6.69404e-05
4 *151:90 *7464:A 0
5 *409:19 *7464:A 0
6 *411:46 *7464:A 3.52408e-05
*RES
1 *7453:Y *7464:A 30.1134 
*END

*D_NET *957 0.000374218
*CONN
*I *7455:A I *D sky130_fd_sc_hd__inv_1
*I *7454:Y O *D sky130_fd_sc_hd__inv_1
*CAP
1 *7455:A 8.29709e-05
2 *7454:Y 8.29709e-05
3 *7455:A *7456:A 3.78438e-05
4 *7452:A *7455:A 0
5 *7454:A *7455:A 3.02869e-05
6 *148:44 *7455:A 0.000140146
*RES
1 *7454:Y *7455:A 21.1313 
*END

*D_NET *958 0.000606019
*CONN
*I *7456:A I *D sky130_fd_sc_hd__inv_1
*I *7455:Y O *D sky130_fd_sc_hd__inv_1
*CAP
1 *7456:A 0.000227071
2 *7455:Y 0.000227071
3 *7456:A *7457:A 2.80853e-05
4 *7456:A *7458:A 3.69047e-06
5 *7454:A *7456:A 4.19258e-05
6 *7455:A *7456:A 3.78438e-05
7 *408:32 *7456:A 0
8 *409:19 *7456:A 4.03318e-05
*RES
1 *7455:Y *7456:A 31.0866 
*END

*D_NET *959 0.000292786
*CONN
*I *7457:A I *D sky130_fd_sc_hd__inv_1
*I *7456:Y O *D sky130_fd_sc_hd__inv_1
*CAP
1 *7457:A 0.000121597
2 *7456:Y 0.000121597
3 *7457:A *7458:A 2.1507e-05
4 *7456:A *7457:A 2.80853e-05
*RES
1 *7456:Y *7457:A 20.8277 
*END

*D_NET *960 0.000435711
*CONN
*I *7458:A I *D sky130_fd_sc_hd__inv_1
*I *7457:Y O *D sky130_fd_sc_hd__inv_1
*CAP
1 *7458:A 0.000163485
2 *7457:Y 0.000163485
3 *7458:A *7459:A 3.00023e-05
4 *7456:A *7458:A 3.69047e-06
5 *7457:A *7458:A 2.1507e-05
6 *408:32 *7458:A 0
7 *409:19 *7458:A 5.35423e-05
*RES
1 *7457:Y *7458:A 30.5688 
*END

*D_NET *961 0.000290689
*CONN
*I *7459:A I *D sky130_fd_sc_hd__inv_1
*I *7458:Y O *D sky130_fd_sc_hd__inv_1
*CAP
1 *7459:A 0.000118808
2 *7458:Y 0.000118808
3 *7459:A *7460:A 2.30708e-05
4 *7458:A *7459:A 3.00023e-05
*RES
1 *7458:Y *7459:A 20.8277 
*END

*D_NET *962 0.000323572
*CONN
*I *7460:A I *D sky130_fd_sc_hd__inv_1
*I *7459:Y O *D sky130_fd_sc_hd__inv_1
*CAP
1 *7460:A 0.000121646
2 *7459:Y 0.000121646
3 *7460:A *7461:A 1.14548e-05
4 *7459:A *7460:A 2.30708e-05
5 *408:32 *7460:A 4.57538e-05
6 *409:19 *7460:A 0
*RES
1 *7459:Y *7460:A 29.8098 
*END

*D_NET *963 0.000380091
*CONN
*I *7461:A I *D sky130_fd_sc_hd__inv_1
*I *7460:Y O *D sky130_fd_sc_hd__inv_1
*CAP
1 *7461:A 0.0001758
2 *7460:Y 0.0001758
3 *7461:A *7462:A 1.70371e-05
4 *7460:A *7461:A 1.14548e-05
*RES
1 *7460:Y *7461:A 21.1313 
*END

*D_NET *964 0.000524036
*CONN
*I *7462:A I *D sky130_fd_sc_hd__inv_1
*I *7461:Y O *D sky130_fd_sc_hd__inv_1
*CAP
1 *7462:A 0.000180291
2 *7461:Y 0.000180291
3 *7461:A *7462:A 1.70371e-05
4 *408:32 *7462:A 4.98872e-05
5 *409:19 *7462:A 0
6 *411:46 *7462:A 9.65295e-05
*RES
1 *7461:Y *7462:A 30.9795 
*END

*D_NET *965 0.000125573
*CONN
*I *7463:A I *D sky130_fd_sc_hd__inv_1
*I *7462:Y O *D sky130_fd_sc_hd__inv_1
*CAP
1 *7463:A 3.61715e-05
2 *7462:Y 3.61715e-05
3 *411:46 *7463:A 5.323e-05
*RES
1 *7462:Y *7463:A 19.4973 
*END

*D_NET *966 0.000184546
*CONN
*I *7465:A I *D sky130_fd_sc_hd__inv_1
*I *7463:Y O *D sky130_fd_sc_hd__inv_1
*CAP
1 *7465:A 5.37091e-05
2 *7463:Y 5.37091e-05
3 *411:46 *7465:A 7.71279e-05
*RES
1 *7463:Y *7465:A 19.908 
*END

*D_NET *967 0.000468432
*CONN
*I *7466:A I *D sky130_fd_sc_hd__inv_1
*I *7464:Y O *D sky130_fd_sc_hd__inv_1
*CAP
1 *7466:A 0.000195046
2 *7464:Y 0.000195046
3 *7466:A *7467:A 4.95534e-05
4 *7466:A *7468:A 2.87866e-05
*RES
1 *7464:Y *7466:A 21.4348 
*END

*D_NET *968 0.000500573
*CONN
*I *7474:B I *D sky130_fd_sc_hd__nand2_1
*I *7465:Y O *D sky130_fd_sc_hd__inv_1
*CAP
1 *7474:B 0.000239957
2 *7465:Y 0.000239957
3 *7453:A *7474:B 0
4 *151:79 *7474:B 0
5 *409:19 *7474:B 0
6 *411:46 *7474:B 2.06583e-05
*RES
1 *7465:Y *7474:B 31.3411 
*END

*D_NET *969 0.000293592
*CONN
*I *7467:A I *D sky130_fd_sc_hd__inv_1
*I *7466:Y O *D sky130_fd_sc_hd__inv_1
*CAP
1 *7467:A 9.86705e-05
2 *7466:Y 9.86705e-05
3 *7467:A *7468:A 4.66976e-05
4 *7466:A *7467:A 4.95534e-05
*RES
1 *7466:Y *7467:A 20.6982 
*END

*D_NET *970 0.000737849
*CONN
*I *7468:A I *D sky130_fd_sc_hd__inv_1
*I *7467:Y O *D sky130_fd_sc_hd__inv_1
*CAP
1 *7468:A 0.000297712
2 *7467:Y 0.000297712
3 *7464:A *7468:A 6.69404e-05
4 *7466:A *7468:A 2.87866e-05
5 *7467:A *7468:A 4.66976e-05
6 *151:90 *7468:A 0
7 *409:19 *7468:A 0
*RES
1 *7467:Y *7468:A 32.667 
*END

*D_NET *971 0.000539051
*CONN
*I *7469:A I *D sky130_fd_sc_hd__inv_1
*I *7468:Y O *D sky130_fd_sc_hd__inv_1
*CAP
1 *7469:A 0.000208863
2 *7468:Y 0.000208863
3 *7469:A *7470:A 8.80016e-05
4 *7469:A *7471:A 3.33238e-05
*RES
1 *7468:Y *7469:A 21.8902 
*END

*D_NET *972 0.000388605
*CONN
*I *7470:A I *D sky130_fd_sc_hd__inv_1
*I *7469:Y O *D sky130_fd_sc_hd__inv_1
*CAP
1 *7470:A 0.00014329
2 *7469:Y 0.00014329
3 *7470:A *7471:A 1.4024e-05
4 *7469:A *7470:A 8.80016e-05
*RES
1 *7469:Y *7470:A 21.9482 
*END

*D_NET *973 0.00078876
*CONN
*I *7471:A I *D sky130_fd_sc_hd__inv_1
*I *7470:Y O *D sky130_fd_sc_hd__inv_1
*CAP
1 *7471:A 0.000284926
2 *7470:Y 0.000284926
3 *7471:A *7472:A 5.323e-05
4 *7469:A *7471:A 3.33238e-05
5 *7470:A *7471:A 1.4024e-05
6 *151:90 *7471:A 0.00011833
7 *409:19 *7471:A 0
*RES
1 *7470:Y *7471:A 33.0554 
*END

*D_NET *974 0.000119273
*CONN
*I *7472:A I *D sky130_fd_sc_hd__inv_1
*I *7471:Y O *D sky130_fd_sc_hd__inv_1
*CAP
1 *7472:A 3.30216e-05
2 *7471:Y 3.30216e-05
3 *7471:A *7472:A 5.323e-05
*RES
1 *7471:Y *7472:A 19.4973 
*END

*D_NET *975 0.000125836
*CONN
*I *7443:A I *D sky130_fd_sc_hd__inv_1
*I *7472:Y O *D sky130_fd_sc_hd__inv_1
*CAP
1 *7443:A 6.29179e-05
2 *7472:Y 6.29179e-05
*RES
1 *7472:Y *7443:A 19.4973 
*END

*D_NET *976 0.000822768
*CONN
*I *6625:B2 I *D sky130_fd_sc_hd__a22o_2
*I *7473:X O *D sky130_fd_sc_hd__buf_1
*CAP
1 *6625:B2 0.00027637
2 *7473:X 0.00027637
3 *6625:A1 *6625:B2 3.41517e-06
4 *7345:A *6625:B2 0.000128396
5 *151:113 *6625:B2 0.000138217
6 *411:78 *6625:B2 0
*RES
1 *7473:X *6625:B2 32.7786 
*END

*D_NET *977 0.00287607
*CONN
*I *7506:A I *D sky130_fd_sc_hd__nand2_1
*I *6535:X O *D sky130_fd_sc_hd__and3_2
*CAP
1 *7506:A 0.00111493
2 *6535:X 0.00111493
3 *7506:A *7485:A 2.77126e-05
4 *6616:A2 *7506:A 5.33005e-05
5 *7059:A *7506:A 0.000182434
6 *7060:A *7506:A 2.06461e-06
7 *7085:A *7506:A 8.30355e-06
8 *7086:A *7506:A 2.1825e-05
9 *7087:A *7506:A 0.000144591
10 *7088:A *7506:A 2.41765e-05
11 *412:81 *7506:A 0.000181803
*RES
1 *6535:X *7506:A 33.3143 
*END

*D_NET *978 0.00024381
*CONN
*I *7485:A I *D sky130_fd_sc_hd__inv_1
*I *7506:Y O *D sky130_fd_sc_hd__nand2_1
*CAP
1 *7485:A 0.000108049
2 *7506:Y 0.000108049
3 *7506:A *7485:A 2.77126e-05
*RES
1 *7506:Y *7485:A 20.667 
*END

*D_NET *979 0.000327178
*CONN
*I *7476:A I *D sky130_fd_sc_hd__inv_1
*I *7475:Y O *D sky130_fd_sc_hd__inv_1
*CAP
1 *7476:A 0.000119859
2 *7475:Y 0.000119859
3 *7476:A *7475:A 1.87618e-05
4 *7476:A *7477:A 6.86979e-05
*RES
1 *7475:Y *7476:A 21.1089 
*END

*D_NET *980 0.000385111
*CONN
*I *7477:A I *D sky130_fd_sc_hd__inv_1
*I *7476:Y O *D sky130_fd_sc_hd__inv_1
*CAP
1 *7477:A 0.000145061
2 *7476:Y 0.000145061
3 *7477:A *7475:A 0
4 *7477:A *7478:A 2.62908e-05
5 *7476:A *7477:A 6.86979e-05
*RES
1 *7476:Y *7477:A 21.542 
*END

*D_NET *981 0.000424108
*CONN
*I *7478:A I *D sky130_fd_sc_hd__inv_1
*I *7477:Y O *D sky130_fd_sc_hd__inv_1
*CAP
1 *7478:A 0.00018611
2 *7477:Y 0.00018611
3 *7478:A *7479:A 2.5596e-05
4 *7477:A *7478:A 2.62908e-05
*RES
1 *7477:Y *7478:A 21.8857 
*END

*D_NET *982 0.000506183
*CONN
*I *7479:A I *D sky130_fd_sc_hd__inv_1
*I *7478:Y O *D sky130_fd_sc_hd__inv_1
*CAP
1 *7479:A 0.00021291
2 *7478:Y 0.00021291
3 *7479:A *7480:A 5.47661e-05
4 *7478:A *7479:A 2.5596e-05
*RES
1 *7478:Y *7479:A 22.542 
*END

*D_NET *983 0.000284318
*CONN
*I *7480:A I *D sky130_fd_sc_hd__inv_1
*I *7479:Y O *D sky130_fd_sc_hd__inv_1
*CAP
1 *7480:A 0.000101631
2 *7479:Y 0.000101631
3 *7480:A *6626:B2 0
4 *7480:A *984:6 2.62908e-05
5 *7479:A *7480:A 5.47661e-05
*RES
1 *7479:Y *7480:A 20.8277 
*END

*D_NET *984 0.000914958
*CONN
*I *7481:A I *D sky130_fd_sc_hd__inv_1
*I *7505:A I *D sky130_fd_sc_hd__buf_1
*I *7480:Y O *D sky130_fd_sc_hd__inv_1
*CAP
1 *7481:A 0.000124478
2 *7505:A 0.000210864
3 *7480:Y 8.89028e-05
4 *984:6 0.000424245
5 *7505:A *6626:B2 4.01768e-05
6 *7480:A *984:6 2.62908e-05
*RES
1 *7480:Y *984:6 10.4518 
2 *984:6 *7505:A 12.2107 
3 *984:6 *7481:A 20.2241 
*END

*D_NET *985 0.000106793
*CONN
*I *7482:A I *D sky130_fd_sc_hd__inv_1
*I *7481:Y O *D sky130_fd_sc_hd__inv_1
*CAP
1 *7482:A 5.33963e-05
2 *7481:Y 5.33963e-05
*RES
1 *7481:Y *7482:A 19.4973 
*END

*D_NET *986 0.000155673
*CONN
*I *7483:A I *D sky130_fd_sc_hd__inv_1
*I *7482:Y O *D sky130_fd_sc_hd__inv_1
*CAP
1 *7483:A 7.78365e-05
2 *7482:Y 7.78365e-05
*RES
1 *7482:Y *7483:A 19.908 
*END

*D_NET *987 0.000106793
*CONN
*I *7484:A I *D sky130_fd_sc_hd__inv_1
*I *7483:Y O *D sky130_fd_sc_hd__inv_1
*CAP
1 *7484:A 5.33963e-05
2 *7483:Y 5.33963e-05
*RES
1 *7483:Y *7484:A 19.4973 
*END

*D_NET *988 0.000106793
*CONN
*I *7486:A I *D sky130_fd_sc_hd__inv_1
*I *7484:Y O *D sky130_fd_sc_hd__inv_1
*CAP
1 *7486:A 5.33963e-05
2 *7484:Y 5.33963e-05
*RES
1 *7484:Y *7486:A 19.4973 
*END

*D_NET *989 0.000486662
*CONN
*I *7496:A I *D sky130_fd_sc_hd__inv_1
*I *7485:Y O *D sky130_fd_sc_hd__inv_1
*CAP
1 *7496:A 0.000188813
2 *7485:Y 0.000188813
3 *7496:A *7491:A 7.18982e-05
4 *7496:A *7492:A 3.71381e-05
*RES
1 *7485:Y *7496:A 22.1045 
*END

*D_NET *990 0.000113128
*CONN
*I *7487:A I *D sky130_fd_sc_hd__inv_1
*I *7486:Y O *D sky130_fd_sc_hd__inv_1
*CAP
1 *7487:A 3.7518e-05
2 *7486:Y 3.7518e-05
3 *7487:A *7488:A 3.80922e-05
*RES
1 *7486:Y *7487:A 19.4973 
*END

*D_NET *991 0.000558405
*CONN
*I *7488:A I *D sky130_fd_sc_hd__inv_1
*I *7487:Y O *D sky130_fd_sc_hd__inv_1
*CAP
1 *7488:A 0.000260157
2 *7487:Y 0.000260157
3 *7487:A *7488:A 3.80922e-05
*RES
1 *7487:Y *7488:A 31.3902 
*END

*D_NET *992 0.000106793
*CONN
*I *7489:A I *D sky130_fd_sc_hd__inv_1
*I *7488:Y O *D sky130_fd_sc_hd__inv_1
*CAP
1 *7489:A 5.33963e-05
2 *7488:Y 5.33963e-05
*RES
1 *7488:Y *7489:A 19.4973 
*END

*D_NET *993 0.000106793
*CONN
*I *7490:A I *D sky130_fd_sc_hd__inv_1
*I *7489:Y O *D sky130_fd_sc_hd__inv_1
*CAP
1 *7490:A 5.33963e-05
2 *7489:Y 5.33963e-05
*RES
1 *7489:Y *7490:A 19.4973 
*END

*D_NET *994 0.000422569
*CONN
*I *7491:A I *D sky130_fd_sc_hd__inv_1
*I *7490:Y O *D sky130_fd_sc_hd__inv_1
*CAP
1 *7491:A 0.000175336
2 *7490:Y 0.000175336
3 *7491:A *7498:A 0
4 *7491:A *7506:B 0
5 *7496:A *7491:A 7.18982e-05
*RES
1 *7490:Y *7491:A 30.2652 
*END

*D_NET *995 0.00068065
*CONN
*I *7492:A I *D sky130_fd_sc_hd__inv_1
*I *7491:Y O *D sky130_fd_sc_hd__inv_1
*CAP
1 *7492:A 0.000306315
2 *7491:Y 0.000306315
3 *7492:A *7493:A 2.80853e-05
4 *7492:A *7498:A 2.79708e-06
5 *7496:A *7492:A 3.71381e-05
*RES
1 *7491:Y *7492:A 31.8009 
*END

*D_NET *996 0.000290344
*CONN
*I *7493:A I *D sky130_fd_sc_hd__inv_1
*I *7492:Y O *D sky130_fd_sc_hd__inv_1
*CAP
1 *7493:A 0.000109876
2 *7492:Y 0.000109876
3 *7493:A *7494:A 4.25058e-05
4 *7492:A *7493:A 2.80853e-05
*RES
1 *7492:Y *7493:A 20.8277 
*END

*D_NET *997 0.000311524
*CONN
*I *7494:A I *D sky130_fd_sc_hd__inv_1
*I *7493:Y O *D sky130_fd_sc_hd__inv_1
*CAP
1 *7494:A 0.000121364
2 *7493:Y 0.000121364
3 *7494:A *7495:A 2.62908e-05
4 *7494:A *7497:A 0
5 *7493:A *7494:A 4.25058e-05
*RES
1 *7493:Y *7494:A 21.1313 
*END

*D_NET *998 0.000330261
*CONN
*I *7495:A I *D sky130_fd_sc_hd__inv_1
*I *7494:Y O *D sky130_fd_sc_hd__inv_1
*CAP
1 *7495:A 0.000110717
2 *7494:Y 0.000110717
3 *7495:A *7497:A 8.25362e-05
4 *7494:A *7495:A 2.62908e-05
*RES
1 *7494:Y *7495:A 20.9705 
*END

*D_NET *999 0.000463845
*CONN
*I *7497:A I *D sky130_fd_sc_hd__inv_1
*I *7495:Y O *D sky130_fd_sc_hd__inv_1
*CAP
1 *7497:A 0.000181274
2 *7495:Y 0.000181274
3 *7497:A *7506:B 1.87618e-05
4 *7494:A *7497:A 0
5 *7495:A *7497:A 8.25362e-05
*RES
1 *7495:Y *7497:A 21.8455 
*END

*D_NET *1000 0.000309944
*CONN
*I *7498:A I *D sky130_fd_sc_hd__inv_1
*I *7496:Y O *D sky130_fd_sc_hd__inv_1
*CAP
1 *7498:A 0.000153573
2 *7496:Y 0.000153573
3 *7491:A *7498:A 0
4 *7492:A *7498:A 2.79708e-06
*RES
1 *7496:Y *7498:A 29.8098 
*END

*D_NET *1001 0.000574499
*CONN
*I *7506:B I *D sky130_fd_sc_hd__nand2_1
*I *7497:Y O *D sky130_fd_sc_hd__inv_1
*CAP
1 *7506:B 0.000277869
2 *7497:Y 0.000277869
3 *7491:A *7506:B 0
4 *7497:A *7506:B 1.87618e-05
*RES
1 *7497:Y *7506:B 31.1089 
*END

*D_NET *1002 0.000243331
*CONN
*I *7499:A I *D sky130_fd_sc_hd__inv_1
*I *7498:Y O *D sky130_fd_sc_hd__inv_1
*CAP
1 *7499:A 0.000121665
2 *7498:Y 0.000121665
*RES
1 *7498:Y *7499:A 20.7652 
*END

*D_NET *1003 0.000204553
*CONN
*I *7500:A I *D sky130_fd_sc_hd__inv_1
*I *7499:Y O *D sky130_fd_sc_hd__inv_1
*CAP
1 *7500:A 0.000102277
2 *7499:Y 0.000102277
*RES
1 *7499:Y *7500:A 20.3188 
*END

*D_NET *1004 0.00011979
*CONN
*I *7501:A I *D sky130_fd_sc_hd__inv_1
*I *7500:Y O *D sky130_fd_sc_hd__inv_1
*CAP
1 *7501:A 4.69332e-05
2 *7500:Y 4.69332e-05
3 *7501:A *7502:A 2.59235e-05
*RES
1 *7500:Y *7501:A 19.4973 
*END

*D_NET *1005 0.000533986
*CONN
*I *7502:A I *D sky130_fd_sc_hd__inv_1
*I *7501:Y O *D sky130_fd_sc_hd__inv_1
*CAP
1 *7502:A 0.000248304
2 *7501:Y 0.000248304
3 *7502:A *7503:A 1.14548e-05
4 *7501:A *7502:A 2.59235e-05
*RES
1 *7501:Y *7502:A 30.9348 
*END

*D_NET *1006 0.000313419
*CONN
*I *7503:A I *D sky130_fd_sc_hd__inv_1
*I *7502:Y O *D sky130_fd_sc_hd__inv_1
*CAP
1 *7503:A 0.000137837
2 *7502:Y 0.000137837
3 *7503:A *7504:A 2.62908e-05
4 *7502:A *7503:A 1.14548e-05
*RES
1 *7502:Y *7503:A 21.1313 
*END

*D_NET *1007 0.000539916
*CONN
*I *7504:A I *D sky130_fd_sc_hd__inv_1
*I *7503:Y O *D sky130_fd_sc_hd__inv_1
*CAP
1 *7504:A 0.000251085
2 *7503:Y 0.000251085
3 *7504:A *7475:A 1.14548e-05
4 *7503:A *7504:A 2.62908e-05
*RES
1 *7503:Y *7504:A 31.042 
*END

*D_NET *1008 0.000589312
*CONN
*I *7475:A I *D sky130_fd_sc_hd__inv_1
*I *7504:Y O *D sky130_fd_sc_hd__inv_1
*CAP
1 *7475:A 0.000279548
2 *7504:Y 0.000279548
3 *7476:A *7475:A 1.87618e-05
4 *7477:A *7475:A 0
5 *7504:A *7475:A 1.14548e-05
*RES
1 *7504:Y *7475:A 22.2116 
*END

*D_NET *1009 0.00176262
*CONN
*I *6626:B2 I *D sky130_fd_sc_hd__a221o_2
*I *7505:X O *D sky130_fd_sc_hd__buf_1
*CAP
1 *6626:B2 0.000610678
2 *7505:X 0.000610678
3 *6626:A1 *6626:B2 6.4752e-05
4 *6626:A2 *6626:B2 7.57716e-05
5 *6626:C1 *6626:B2 0.000360568
6 *7480:A *6626:B2 0
7 *7505:A *6626:B2 4.01768e-05
*RES
1 *7505:X *6626:B2 30.4214 
*END

*D_NET *1010 0.00314601
*CONN
*I *7538:A I *D sky130_fd_sc_hd__nand2_1
*I *6537:X O *D sky130_fd_sc_hd__and3_2
*CAP
1 *7538:A 0.00127178
2 *6537:X 0.00127178
3 *7538:A *7507:A 7.34801e-06
4 *7538:A *7517:A 2.89016e-05
5 *7538:A *7534:A 8.08022e-05
6 *7538:A *7535:A 3.11939e-05
7 *7538:A *7536:A 0.000151482
8 *7538:A *7538:B 5.80706e-06
9 *7538:A *7541:A 8.48822e-06
10 *7538:A *7542:A 3.80922e-05
11 *7538:A *7543:A 3.97566e-05
12 *7538:A *7569:A 0.000151061
13 *7538:A *1050:6 5.95076e-05
*RES
1 *6537:X *7538:A 44.7786 
*END

*D_NET *1011 0.000400692
*CONN
*I *7517:A I *D sky130_fd_sc_hd__inv_1
*I *7538:Y O *D sky130_fd_sc_hd__nand2_1
*CAP
1 *7517:A 0.000136809
2 *7538:Y 0.000136809
3 *7517:A *7534:A 2.80853e-05
4 *7517:A *7535:A 7.00869e-05
5 *7538:A *7517:A 2.89016e-05
*RES
1 *7538:Y *7517:A 21.4884 
*END

*D_NET *1012 0.000298913
*CONN
*I *7508:A I *D sky130_fd_sc_hd__inv_1
*I *7507:Y O *D sky130_fd_sc_hd__inv_1
*CAP
1 *7508:A 0.000102078
2 *7507:Y 0.000102078
3 *7508:A *7507:A 5.47661e-05
4 *7508:A *7509:A 3.99918e-05
*RES
1 *7507:Y *7508:A 20.8277 
*END

*D_NET *1013 0.000390553
*CONN
*I *7509:A I *D sky130_fd_sc_hd__inv_1
*I *7508:Y O *D sky130_fd_sc_hd__inv_1
*CAP
1 *7509:A 0.000147898
2 *7508:Y 0.000147898
3 *7509:A *7510:A 5.47661e-05
4 *7508:A *7509:A 3.99918e-05
*RES
1 *7508:Y *7509:A 21.2027 
*END

*D_NET *1014 0.000645258
*CONN
*I *7510:A I *D sky130_fd_sc_hd__inv_1
*I *7509:Y O *D sky130_fd_sc_hd__inv_1
*CAP
1 *7510:A 0.000267863
2 *7509:Y 0.000267863
3 *7510:A *7511:A 5.47661e-05
4 *7509:A *7510:A 5.47661e-05
*RES
1 *7509:Y *7510:A 32.4348 
*END

*D_NET *1015 0.000289837
*CONN
*I *7511:A I *D sky130_fd_sc_hd__inv_1
*I *7510:Y O *D sky130_fd_sc_hd__inv_1
*CAP
1 *7511:A 9.68389e-05
2 *7510:Y 9.68389e-05
3 *7511:A *7512:A 4.1393e-05
4 *7510:A *7511:A 5.47661e-05
*RES
1 *7510:Y *7511:A 20.8277 
*END

*D_NET *1016 0.000309729
*CONN
*I *7512:A I *D sky130_fd_sc_hd__inv_1
*I *7511:Y O *D sky130_fd_sc_hd__inv_1
*CAP
1 *7512:A 0.000121023
2 *7511:Y 0.000121023
3 *7512:A *1017:6 2.62908e-05
4 *7511:A *7512:A 4.1393e-05
*RES
1 *7511:Y *7512:A 21.1313 
*END

*D_NET *1017 0.000942057
*CONN
*I *7513:A I *D sky130_fd_sc_hd__inv_1
*I *7537:A I *D sky130_fd_sc_hd__buf_1
*I *7512:Y O *D sky130_fd_sc_hd__inv_1
*CAP
1 *7513:A 0.000182556
2 *7537:A 0.00016853
3 *7512:Y 9.1525e-05
4 *1017:6 0.000442611
5 *7537:A *6624:A1 3.05446e-05
6 *6628:A2 *7513:A 0
7 *7512:A *1017:6 2.62908e-05
*RES
1 *7512:Y *1017:6 10.8625 
2 *1017:6 *7537:A 12.2107 
3 *1017:6 *7513:A 21.4384 
*END

*D_NET *1018 0.000106793
*CONN
*I *7514:A I *D sky130_fd_sc_hd__inv_1
*I *7513:Y O *D sky130_fd_sc_hd__inv_1
*CAP
1 *7514:A 5.33963e-05
2 *7513:Y 5.33963e-05
*RES
1 *7513:Y *7514:A 19.4973 
*END

*D_NET *1019 0.000106793
*CONN
*I *7515:A I *D sky130_fd_sc_hd__inv_1
*I *7514:Y O *D sky130_fd_sc_hd__inv_1
*CAP
1 *7515:A 5.33963e-05
2 *7514:Y 5.33963e-05
*RES
1 *7514:Y *7515:A 19.4973 
*END

*D_NET *1020 0.000478921
*CONN
*I *7516:A I *D sky130_fd_sc_hd__inv_1
*I *7515:Y O *D sky130_fd_sc_hd__inv_1
*CAP
1 *7516:A 0.00022769
2 *7515:Y 0.00022769
3 *7516:A *7518:A 0
4 *7179:A *7516:A 2.3541e-05
*RES
1 *7515:Y *7516:A 31.3991 
*END

*D_NET *1021 0.00063181
*CONN
*I *7518:A I *D sky130_fd_sc_hd__inv_1
*I *7516:Y O *D sky130_fd_sc_hd__inv_1
*CAP
1 *7518:A 0.000292296
2 *7516:Y 0.000292296
3 *7179:A *7518:A 4.30377e-05
4 *7180:A *7518:A 4.18134e-06
5 *7516:A *7518:A 0
*RES
1 *7516:Y *7518:A 31.8009 
*END

*D_NET *1022 0.000255877
*CONN
*I *7528:A I *D sky130_fd_sc_hd__inv_1
*I *7517:Y O *D sky130_fd_sc_hd__inv_1
*CAP
1 *7528:A 7.80693e-05
2 *7517:Y 7.80693e-05
3 *7528:A *7530:A 7.38151e-05
4 *7528:A *7532:A 2.59235e-05
*RES
1 *7517:Y *7528:A 20.3188 
*END

*D_NET *1023 0.000155673
*CONN
*I *7519:A I *D sky130_fd_sc_hd__inv_1
*I *7518:Y O *D sky130_fd_sc_hd__inv_1
*CAP
1 *7519:A 7.78365e-05
2 *7518:Y 7.78365e-05
*RES
1 *7518:Y *7519:A 19.908 
*END

*D_NET *1024 0.000155673
*CONN
*I *7520:A I *D sky130_fd_sc_hd__inv_1
*I *7519:Y O *D sky130_fd_sc_hd__inv_1
*CAP
1 *7520:A 7.78365e-05
2 *7519:Y 7.78365e-05
*RES
1 *7519:Y *7520:A 19.908 
*END

*D_NET *1025 0.0001177
*CONN
*I *7521:A I *D sky130_fd_sc_hd__inv_1
*I *7520:Y O *D sky130_fd_sc_hd__inv_1
*CAP
1 *7521:A 5.19627e-05
2 *7520:Y 5.19627e-05
3 *7521:A *7526:A 1.37743e-05
*RES
1 *7520:Y *7521:A 19.4973 
*END

*D_NET *1026 0.000335665
*CONN
*I *7522:A I *D sky130_fd_sc_hd__inv_1
*I *7521:Y O *D sky130_fd_sc_hd__inv_1
*CAP
1 *7522:A 0.000129395
2 *7521:Y 0.000129395
3 *7522:A *7524:A 5.7661e-06
4 *7522:A *7525:A 2.3541e-05
5 *7522:A *7526:A 4.75679e-05
*RES
1 *7521:Y *7522:A 21.283 
*END

*D_NET *1027 0.00016283
*CONN
*I *7523:A I *D sky130_fd_sc_hd__inv_1
*I *7522:Y O *D sky130_fd_sc_hd__inv_1
*CAP
1 *7523:A 3.3554e-05
2 *7522:Y 3.3554e-05
3 *7523:A *7524:A 9.57215e-05
*RES
1 *7522:Y *7523:A 19.4973 
*END

*D_NET *1028 0.00080737
*CONN
*I *7524:A I *D sky130_fd_sc_hd__inv_1
*I *7523:Y O *D sky130_fd_sc_hd__inv_1
*CAP
1 *7524:A 0.000329812
2 *7523:Y 0.000329812
3 *7524:A *7525:A 4.6259e-05
4 *7279:A *7524:A 0
5 *7522:A *7524:A 5.7661e-06
6 *7523:A *7524:A 9.57215e-05
*RES
1 *7523:Y *7524:A 33.7205 
*END

*D_NET *1029 0.000407491
*CONN
*I *7525:A I *D sky130_fd_sc_hd__inv_1
*I *7524:Y O *D sky130_fd_sc_hd__inv_1
*CAP
1 *7525:A 0.000161808
2 *7524:Y 0.000161808
3 *7525:A *7526:A 1.40749e-05
4 *7522:A *7525:A 2.3541e-05
5 *7524:A *7525:A 4.6259e-05
*RES
1 *7524:Y *7525:A 30.1134 
*END

*D_NET *1030 0.000612416
*CONN
*I *7526:A I *D sky130_fd_sc_hd__inv_1
*I *7525:Y O *D sky130_fd_sc_hd__inv_1
*CAP
1 *7526:A 0.0002685
2 *7525:Y 0.0002685
3 *7521:A *7526:A 1.37743e-05
4 *7522:A *7526:A 4.75679e-05
5 *7525:A *7526:A 1.40749e-05
*RES
1 *7525:Y *7526:A 31.4973 
*END

*D_NET *1031 0.000107081
*CONN
*I *7527:A I *D sky130_fd_sc_hd__inv_1
*I *7526:Y O *D sky130_fd_sc_hd__inv_1
*CAP
1 *7527:A 5.35405e-05
2 *7526:Y 5.35405e-05
*RES
1 *7526:Y *7527:A 19.4973 
*END

*D_NET *1032 0.000333775
*CONN
*I *7529:A I *D sky130_fd_sc_hd__inv_1
*I *7527:Y O *D sky130_fd_sc_hd__inv_1
*CAP
1 *7529:A 0.000166888
2 *7527:Y 0.000166888
*RES
1 *7527:Y *7529:A 30.1134 
*END

*D_NET *1033 0.000539061
*CONN
*I *7530:A I *D sky130_fd_sc_hd__inv_1
*I *7528:Y O *D sky130_fd_sc_hd__inv_1
*CAP
1 *7530:A 0.00021686
2 *7528:Y 0.00021686
3 *7530:A *7531:A 1.66856e-05
4 *7530:A *7532:A 1.48401e-05
5 *7530:A *7538:B 0
6 *7528:A *7530:A 7.38151e-05
*RES
1 *7528:Y *7530:A 31.3455 
*END

*D_NET *1034 0.000363352
*CONN
*I *7538:B I *D sky130_fd_sc_hd__nand2_1
*I *7529:Y O *D sky130_fd_sc_hd__inv_1
*CAP
1 *7538:B 0.000178772
2 *7529:Y 0.000178772
3 *7538:B *7507:A 0
4 *7530:A *7538:B 0
5 *7538:A *7538:B 5.80706e-06
*RES
1 *7529:Y *7538:B 29.9839 
*END

*D_NET *1035 0.000617271
*CONN
*I *7531:A I *D sky130_fd_sc_hd__inv_1
*I *7530:Y O *D sky130_fd_sc_hd__inv_1
*CAP
1 *7531:A 0.000294323
2 *7530:Y 0.000294323
3 *7531:A *7532:A 1.19393e-05
4 *7530:A *7531:A 1.66856e-05
*RES
1 *7530:Y *7531:A 31.4973 
*END

*D_NET *1036 0.000830496
*CONN
*I *7532:A I *D sky130_fd_sc_hd__inv_1
*I *7531:Y O *D sky130_fd_sc_hd__inv_1
*CAP
1 *7532:A 0.000361513
2 *7531:Y 0.000361513
3 *7532:A *7533:A 5.47661e-05
4 *7532:A *7534:A 0
5 *7528:A *7532:A 2.59235e-05
6 *7530:A *7532:A 1.48401e-05
7 *7531:A *7532:A 1.19393e-05
*RES
1 *7531:Y *7532:A 33.0598 
*END

*D_NET *1037 0.000329874
*CONN
*I *7533:A I *D sky130_fd_sc_hd__inv_1
*I *7532:Y O *D sky130_fd_sc_hd__inv_1
*CAP
1 *7533:A 0.000110171
2 *7532:Y 0.000110171
3 *7533:A *7534:A 5.47661e-05
4 *7532:A *7533:A 5.47661e-05
*RES
1 *7532:Y *7533:A 20.8991 
*END

*D_NET *1038 0.000614892
*CONN
*I *7534:A I *D sky130_fd_sc_hd__inv_1
*I *7533:Y O *D sky130_fd_sc_hd__inv_1
*CAP
1 *7534:A 0.000211577
2 *7533:Y 0.000211577
3 *7534:A *7535:A 2.80853e-05
4 *7517:A *7534:A 2.80853e-05
5 *7532:A *7534:A 0
6 *7533:A *7534:A 5.47661e-05
7 *7538:A *7534:A 8.08022e-05
*RES
1 *7533:Y *7534:A 31.5866 
*END

*D_NET *1039 0.000529122
*CONN
*I *7535:A I *D sky130_fd_sc_hd__inv_1
*I *7534:Y O *D sky130_fd_sc_hd__inv_1
*CAP
1 *7535:A 0.000172495
2 *7534:Y 0.000172495
3 *7535:A *7507:A 0
4 *7535:A *7536:A 5.47661e-05
5 *7517:A *7535:A 7.00869e-05
6 *7534:A *7535:A 2.80853e-05
7 *7538:A *7535:A 3.11939e-05
*RES
1 *7534:Y *7535:A 22.1313 
*END

*D_NET *1040 0.000435819
*CONN
*I *7536:A I *D sky130_fd_sc_hd__inv_1
*I *7535:Y O *D sky130_fd_sc_hd__inv_1
*CAP
1 *7536:A 9.48809e-05
2 *7535:Y 9.48809e-05
3 *7536:A *7507:A 3.9809e-05
4 *7535:A *7536:A 5.47661e-05
5 *7538:A *7536:A 0.000151482
*RES
1 *7535:Y *7536:A 21.7205 
*END

*D_NET *1041 0.00054172
*CONN
*I *7507:A I *D sky130_fd_sc_hd__inv_1
*I *7536:Y O *D sky130_fd_sc_hd__inv_1
*CAP
1 *7507:A 0.000219898
2 *7536:Y 0.000219898
3 *7508:A *7507:A 5.47661e-05
4 *7535:A *7507:A 0
5 *7536:A *7507:A 3.9809e-05
6 *7538:A *7507:A 7.34801e-06
7 *7538:B *7507:A 0
*RES
1 *7536:Y *7507:A 31.542 
*END

*D_NET *1042 0.000751265
*CONN
*I *6624:A1 I *D sky130_fd_sc_hd__a221o_2
*I *7537:X O *D sky130_fd_sc_hd__buf_1
*CAP
1 *6624:A1 0.000356794
2 *7537:X 0.000356794
3 *6624:A2 *6624:A1 7.13226e-06
4 *7537:A *6624:A1 3.05446e-05
*RES
1 *7537:X *6624:A1 22.85 
*END

*D_NET *1043 0.000939806
*CONN
*I *7570:A I *D sky130_fd_sc_hd__nand2_1
*I *6538:X O *D sky130_fd_sc_hd__and3_2
*CAP
1 *7570:A 0.000438434
2 *6538:X 0.000438434
3 *7083:A *7570:A 6.29385e-05
*RES
1 *6538:X *7570:A 33.0643 
*END

*D_NET *1044 0.000625172
*CONN
*I *7549:A I *D sky130_fd_sc_hd__inv_1
*I *7570:Y O *D sky130_fd_sc_hd__nand2_1
*CAP
1 *7549:A 8.61606e-05
2 *7570:Y 8.61606e-05
3 *7549:A *7560:A 0.000170287
4 *7549:A *7561:A 0
5 *7549:A *7570:B 0.000282563
*RES
1 *7570:Y *7549:A 21.8991 
*END

*D_NET *1045 0.000929714
*CONN
*I *7540:A I *D sky130_fd_sc_hd__inv_1
*I *7539:Y O *D sky130_fd_sc_hd__inv_1
*CAP
1 *7540:A 0.000342846
2 *7539:Y 0.000342846
3 *7540:A *7539:A 4.37558e-05
4 *7540:A *7546:A 2.80853e-05
5 *7540:A *7547:A 0
6 *7540:A *7567:A 5.41794e-05
7 *7540:A *7568:A 0.000118
*RES
1 *7539:Y *7540:A 33.1223 
*END

*D_NET *1046 0.000449967
*CONN
*I *7541:A I *D sky130_fd_sc_hd__inv_1
*I *7540:Y O *D sky130_fd_sc_hd__inv_1
*CAP
1 *7541:A 0.000184655
2 *7540:Y 0.000184655
3 *7541:A *7543:A 2.80853e-05
4 *7541:A *7545:A 0
5 *7541:A *7546:A 4.40835e-05
6 *7538:A *7541:A 8.48822e-06
*RES
1 *7540:Y *7541:A 30.5688 
*END

*D_NET *1047 0.00016283
*CONN
*I *7542:A I *D sky130_fd_sc_hd__inv_1
*I *7541:Y O *D sky130_fd_sc_hd__inv_1
*CAP
1 *7542:A 1.45079e-05
2 *7541:Y 1.45079e-05
3 *7542:A *7543:A 9.57215e-05
4 *7538:A *7542:A 3.80922e-05
*RES
1 *7541:Y *7542:A 19.4973 
*END

*D_NET *1048 0.000805262
*CONN
*I *7543:A I *D sky130_fd_sc_hd__inv_1
*I *7542:Y O *D sky130_fd_sc_hd__inv_1
*CAP
1 *7543:A 0.000234352
2 *7542:Y 0.000234352
3 *7543:A *7544:A 9.57215e-05
4 *7543:A *7569:A 4.99195e-05
5 *7543:A *1050:6 2.7353e-05
6 *7538:A *7543:A 3.97566e-05
7 *7541:A *7543:A 2.80853e-05
8 *7542:A *7543:A 9.57215e-05
*RES
1 *7542:Y *7543:A 23.7473 
*END

*D_NET *1049 0.000227334
*CONN
*I *7544:A I *D sky130_fd_sc_hd__inv_1
*I *7543:Y O *D sky130_fd_sc_hd__inv_1
*CAP
1 *7544:A 1.12783e-05
2 *7543:Y 1.12783e-05
3 *7544:A *7569:A 3.52408e-05
4 *7544:A *1050:6 7.38151e-05
5 *7543:A *7544:A 9.57215e-05
*RES
1 *7543:Y *7544:A 19.4973 
*END

*D_NET *1050 0.000991007
*CONN
*I *7545:A I *D sky130_fd_sc_hd__inv_1
*I *7569:A I *D sky130_fd_sc_hd__buf_1
*I *7544:Y O *D sky130_fd_sc_hd__inv_1
*CAP
1 *7545:A 0.000178093
2 *7569:A 0.000100372
3 *7544:Y 1.85907e-05
4 *1050:6 0.000297055
5 *7538:A *7569:A 0.000151061
6 *7538:A *1050:6 5.95076e-05
7 *7541:A *7545:A 0
8 *7543:A *7569:A 4.99195e-05
9 *7543:A *1050:6 2.7353e-05
10 *7544:A *7569:A 3.52408e-05
11 *7544:A *1050:6 7.38151e-05
*RES
1 *7544:Y *1050:6 10.4518 
2 *1050:6 *7569:A 12.3179 
3 *1050:6 *7545:A 21.2598 
*END

*D_NET *1051 0.000383354
*CONN
*I *7546:A I *D sky130_fd_sc_hd__inv_1
*I *7545:Y O *D sky130_fd_sc_hd__inv_1
*CAP
1 *7546:A 0.000155593
2 *7545:Y 0.000155593
3 *7540:A *7546:A 2.80853e-05
4 *7541:A *7546:A 4.40835e-05
*RES
1 *7545:Y *7546:A 21.6938 
*END

*D_NET *1052 0.000451414
*CONN
*I *7547:A I *D sky130_fd_sc_hd__inv_1
*I *7546:Y O *D sky130_fd_sc_hd__inv_1
*CAP
1 *7547:A 0.000225707
2 *7546:Y 0.000225707
3 *7540:A *7547:A 0
*RES
1 *7546:Y *7547:A 30.6759 
*END

*D_NET *1053 0.000155673
*CONN
*I *7548:A I *D sky130_fd_sc_hd__inv_1
*I *7547:Y O *D sky130_fd_sc_hd__inv_1
*CAP
1 *7548:A 7.78365e-05
2 *7547:Y 7.78365e-05
*RES
1 *7547:Y *7548:A 19.908 
*END

*D_NET *1054 0.000106793
*CONN
*I *7550:A I *D sky130_fd_sc_hd__inv_1
*I *7548:Y O *D sky130_fd_sc_hd__inv_1
*CAP
1 *7550:A 5.33963e-05
2 *7548:Y 5.33963e-05
*RES
1 *7548:Y *7550:A 19.4973 
*END

*D_NET *1055 0.00038844
*CONN
*I *7560:A I *D sky130_fd_sc_hd__inv_1
*I *7549:Y O *D sky130_fd_sc_hd__inv_1
*CAP
1 *7560:A 9.23046e-05
2 *7549:Y 9.23046e-05
3 *7560:A *7562:A 1.4024e-05
4 *7560:A *7570:B 1.95199e-05
5 *7549:A *7560:A 0.000170287
*RES
1 *7549:Y *7560:A 21.2384 
*END

*D_NET *1056 0.000364953
*CONN
*I *7551:A I *D sky130_fd_sc_hd__inv_1
*I *7550:Y O *D sky130_fd_sc_hd__inv_1
*CAP
1 *7551:A 0.000182476
2 *7550:Y 0.000182476
*RES
1 *7550:Y *7551:A 30.1134 
*END

*D_NET *1057 0.000197871
*CONN
*I *7552:A I *D sky130_fd_sc_hd__inv_1
*I *7551:Y O *D sky130_fd_sc_hd__inv_1
*CAP
1 *7552:A 9.89354e-05
2 *7551:Y 9.89354e-05
*RES
1 *7551:Y *7552:A 20.2429 
*END

*D_NET *1058 0.000371018
*CONN
*I *7553:A I *D sky130_fd_sc_hd__inv_1
*I *7552:Y O *D sky130_fd_sc_hd__inv_1
*CAP
1 *7553:A 0.000172744
2 *7552:Y 0.000172744
3 *7553:A *7554:A 1.40749e-05
4 *7553:A *7555:A 1.14548e-05
*RES
1 *7552:Y *7553:A 29.8098 
*END

*D_NET *1059 0.00030376
*CONN
*I *7554:A I *D sky130_fd_sc_hd__inv_1
*I *7553:Y O *D sky130_fd_sc_hd__inv_1
*CAP
1 *7554:A 0.000117473
2 *7553:Y 0.000117473
3 *7554:A *7555:A 5.4738e-05
4 *7553:A *7554:A 1.40749e-05
*RES
1 *7553:Y *7554:A 21.1313 
*END

*D_NET *1060 0.000464341
*CONN
*I *7555:A I *D sky130_fd_sc_hd__inv_1
*I *7554:Y O *D sky130_fd_sc_hd__inv_1
*CAP
1 *7555:A 0.00019483
2 *7554:Y 0.00019483
3 *7555:A *7556:A 8.48822e-06
4 *7553:A *7555:A 1.14548e-05
5 *7554:A *7555:A 5.4738e-05
*RES
1 *7554:Y *7555:A 21.5866 
*END

*D_NET *1061 0.000577393
*CONN
*I *7556:A I *D sky130_fd_sc_hd__inv_1
*I *7555:Y O *D sky130_fd_sc_hd__inv_1
*CAP
1 *7556:A 0.000260879
2 *7555:Y 0.000260879
3 *7556:A *7557:A 4.71464e-05
4 *7555:A *7556:A 8.48822e-06
*RES
1 *7555:Y *7556:A 31.7563 
*END

*D_NET *1062 0.000329114
*CONN
*I *7557:A I *D sky130_fd_sc_hd__inv_1
*I *7556:Y O *D sky130_fd_sc_hd__inv_1
*CAP
1 *7557:A 0.000125636
2 *7556:Y 0.000125636
3 *7557:A *7558:A 3.06956e-05
4 *7556:A *7557:A 4.71464e-05
*RES
1 *7556:Y *7557:A 21.2563 
*END

*D_NET *1063 0.000308675
*CONN
*I *7558:A I *D sky130_fd_sc_hd__inv_1
*I *7557:Y O *D sky130_fd_sc_hd__inv_1
*CAP
1 *7558:A 0.000121674
2 *7557:Y 0.000121674
3 *7558:A *7559:A 3.46309e-05
4 *7557:A *7558:A 3.06956e-05
*RES
1 *7557:Y *7558:A 21.1313 
*END

*D_NET *1064 0.000356898
*CONN
*I *7559:A I *D sky130_fd_sc_hd__inv_1
*I *7558:Y O *D sky130_fd_sc_hd__inv_1
*CAP
1 *7559:A 0.000147988
2 *7558:Y 0.000147988
3 *7559:A *7561:A 2.62908e-05
4 *7558:A *7559:A 3.46309e-05
*RES
1 *7558:Y *7559:A 21.542 
*END

*D_NET *1065 0.000403231
*CONN
*I *7561:A I *D sky130_fd_sc_hd__inv_1
*I *7559:Y O *D sky130_fd_sc_hd__inv_1
*CAP
1 *7561:A 0.000175325
2 *7559:Y 0.000175325
3 *7561:A *7570:B 2.62908e-05
4 *7549:A *7561:A 0
5 *7559:A *7561:A 2.62908e-05
*RES
1 *7559:Y *7561:A 21.542 
*END

*D_NET *1066 0.000342016
*CONN
*I *7562:A I *D sky130_fd_sc_hd__inv_1
*I *7560:Y O *D sky130_fd_sc_hd__inv_1
*CAP
1 *7562:A 0.000163996
2 *7560:Y 0.000163996
3 *7560:A *7562:A 1.4024e-05
*RES
1 *7560:Y *7562:A 30.158 
*END

*D_NET *1067 0.00110509
*CONN
*I *7570:B I *D sky130_fd_sc_hd__nand2_1
*I *7561:Y O *D sky130_fd_sc_hd__inv_1
*CAP
1 *7570:B 0.000388359
2 *7561:Y 0.000388359
3 *7549:A *7570:B 0.000282563
4 *7560:A *7570:B 1.95199e-05
5 *7561:A *7570:B 2.62908e-05
*RES
1 *7561:Y *7570:B 24.1804 
*END

*D_NET *1068 0.000110544
*CONN
*I *7563:A I *D sky130_fd_sc_hd__inv_1
*I *7562:Y O *D sky130_fd_sc_hd__inv_1
*CAP
1 *7563:A 4.69067e-05
2 *7562:Y 4.69067e-05
3 *7563:A *7564:A 1.67305e-05
*RES
1 *7562:Y *7563:A 19.4973 
*END

*D_NET *1069 0.000443253
*CONN
*I *7564:A I *D sky130_fd_sc_hd__inv_1
*I *7563:Y O *D sky130_fd_sc_hd__inv_1
*CAP
1 *7564:A 0.000197373
2 *7563:Y 0.000197373
3 *7564:A *7566:A 2.80853e-05
4 *7564:A *7567:A 3.69047e-06
5 *7563:A *7564:A 1.67305e-05
*RES
1 *7563:Y *7564:A 30.2652 
*END

*D_NET *1070 0.000156494
*CONN
*I *7565:A I *D sky130_fd_sc_hd__inv_1
*I *7564:Y O *D sky130_fd_sc_hd__inv_1
*CAP
1 *7565:A 3.03862e-05
2 *7564:Y 3.03862e-05
3 *7565:A *7566:A 9.57215e-05
*RES
1 *7564:Y *7565:A 19.4973 
*END

*D_NET *1071 0.000614532
*CONN
*I *7566:A I *D sky130_fd_sc_hd__inv_1
*I *7565:Y O *D sky130_fd_sc_hd__inv_1
*CAP
1 *7566:A 0.000217174
2 *7565:Y 0.000217174
3 *7566:A *7567:A 5.63775e-05
4 *7564:A *7566:A 2.80853e-05
5 *7565:A *7566:A 9.57215e-05
*RES
1 *7565:Y *7566:A 22.8813 
*END

*D_NET *1072 0.000642745
*CONN
*I *7567:A I *D sky130_fd_sc_hd__inv_1
*I *7566:Y O *D sky130_fd_sc_hd__inv_1
*CAP
1 *7567:A 0.000243319
2 *7566:Y 0.000243319
3 *7567:A *7539:A 1.37743e-05
4 *7567:A *7568:A 2.80853e-05
5 *7540:A *7567:A 5.41794e-05
6 *7564:A *7567:A 3.69047e-06
7 *7566:A *7567:A 5.63775e-05
*RES
1 *7566:Y *7567:A 31.3902 
*END

*D_NET *1073 0.000362203
*CONN
*I *7568:A I *D sky130_fd_sc_hd__inv_1
*I *7567:Y O *D sky130_fd_sc_hd__inv_1
*CAP
1 *7568:A 8.374e-05
2 *7567:Y 8.374e-05
3 *7568:A *7539:A 4.8637e-05
4 *7540:A *7568:A 0.000118
5 *7567:A *7568:A 2.80853e-05
*RES
1 *7567:Y *7568:A 20.8277 
*END

*D_NET *1074 0.000470412
*CONN
*I *7539:A I *D sky130_fd_sc_hd__inv_1
*I *7568:Y O *D sky130_fd_sc_hd__inv_1
*CAP
1 *7539:A 0.000182123
2 *7568:Y 0.000182123
3 *7540:A *7539:A 4.37558e-05
4 *7567:A *7539:A 1.37743e-05
5 *7568:A *7539:A 4.8637e-05
*RES
1 *7568:Y *7539:A 21.5866 
*END

*D_NET *1075 0.000791166
*CONN
*I *6623:A1 I *D sky130_fd_sc_hd__a22o_2
*I *7569:X O *D sky130_fd_sc_hd__buf_1
*CAP
1 *6623:A1 0.000368202
2 *7569:X 0.000368202
3 *6623:A2 *6623:A1 1.57155e-05
4 *6624:C1 *6623:A1 3.90453e-05
*RES
1 *7569:X *6623:A1 33.5821 
*END

*D_NET *1076 0.00298431
*CONN
*I *6795:CLK I *D sky130_fd_sc_hd__dfrtp_2
*I *6633:X O *D sky130_fd_sc_hd__o21a_2
*CAP
1 *6795:CLK 0.00097511
2 *6633:X 0.00097511
3 *6544:B *6795:CLK 9.60337e-06
4 *6615:A2 *6795:CLK 0.000104177
5 *6622:A2 *6795:CLK 0.000122933
6 *6633:B1 *6795:CLK 0.000328538
7 *6925:A *6795:CLK 0.00018
8 *6926:A *6795:CLK 5.84171e-05
9 *7578:en *6795:CLK 0
10 *153:51 *6795:CLK 0.000122946
11 *153:57 *6795:CLK 8.01886e-05
12 *481:46 *6795:CLK 0
13 *532:10 *6795:CLK 2.72859e-05
*RES
1 *6633:X *6795:CLK 46.5821 
*END

*D_NET *1077 0.0013879
*CONN
*I *6504:A I *D sky130_fd_sc_hd__inv_2
*I *6964:A I *D sky130_fd_sc_hd__dlygate4sd3_1
*I *6835:Q O *D sky130_fd_sc_hd__dfrtp_2
*CAP
1 *6504:A 0.000251553
2 *6964:A 0.000304703
3 *6835:Q 0
4 *1077:4 0.000556256
5 *6707:A2 *6504:A 3.93346e-05
6 *6835:CLK *6504:A 5.5518e-05
7 *6835:D *6504:A 7.77751e-05
8 *6835:D *6964:A 0.000102765
9 *302:272 *6964:A 0
*RES
1 *6835:Q *1077:4 9.3 
2 *1077:4 *6964:A 22.5321 
3 *1077:4 *6504:A 13.9786 
*END

*D_NET *1078 0.00236786
*CONN
*I *6596:A1 I *D sky130_fd_sc_hd__o211a_2
*I *6968:A I *D sky130_fd_sc_hd__dlygate4sd3_1
*I *6703:A1 I *D sky130_fd_sc_hd__o21ai_2
*I *6836:Q O *D sky130_fd_sc_hd__dfrtp_2
*CAP
1 *6596:A1 0.000413101
2 *6968:A 0.000134485
3 *6703:A1 0.000187764
4 *6836:Q 0.000301323
5 *1078:24 0.000661146
6 *6596:A1 *6596:A2 2.98033e-05
7 *6596:A1 *6596:B1 1.15172e-05
8 *6596:C1 *6596:A1 2.89016e-05
9 *6703:B1 *6703:A1 0.000219818
10 *6704:C_N *6703:A1 1.24368e-05
11 *6708:B2 *6968:A 0.000273269
12 *6836:RESET_B *1078:24 3.71473e-05
13 *6980:A *6968:A 5.71472e-05
14 *439:43 *1078:24 0
*RES
1 *6836:Q *6703:A1 22.85 
2 *6836:Q *1078:24 19.9429 
3 *1078:24 *6968:A 12.7107 
4 *1078:24 *6596:A1 15.9295 
*END

*D_NET *1079 0.00255066
*CONN
*I *6978:A I *D sky130_fd_sc_hd__dlygate4sd3_1
*I *6596:A2 I *D sky130_fd_sc_hd__o211a_2
*I *6703:A2 I *D sky130_fd_sc_hd__o21ai_2
*I *6837:Q O *D sky130_fd_sc_hd__dfrtp_2
*CAP
1 *6978:A 0
2 *6596:A2 0.000214467
3 *6703:A2 1.86116e-05
4 *6837:Q 0.000168406
5 *1079:20 0.00043098
6 *1079:12 0.000366308
7 *6596:A2 *6596:B1 0.000132856
8 *6596:A1 *6596:A2 2.98033e-05
9 *6596:C1 *6596:A2 0
10 *6596:C1 *6703:A2 0.00014285
11 *6596:C1 *1079:20 0.000140933
12 *6597:C *6596:A2 4.46186e-06
13 *6702:A *1079:12 0.0002214
14 *6702:B *1079:12 0.000405727
15 *6703:B1 *6703:A2 0.000144773
16 *6703:B1 *1079:20 4.38128e-05
17 *6704:C_N *6596:A2 0
18 *6704:C_N *1079:20 0
19 *6709:A *1079:12 2.56694e-05
20 *199:33 *1079:20 0
21 *302:253 *6596:A2 5.95996e-05
*RES
1 *6837:Q *1079:12 23.7643 
2 *1079:12 *1079:20 12.9107 
3 *1079:20 *6703:A2 10.6571 
4 *1079:20 *6596:A2 22.8357 
5 *1079:12 *6978:A 9.3 
*END

*D_NET *1080 0.00013705
*CONN
*I *6982:A I *D sky130_fd_sc_hd__dlygate4sd3_1
*I *6838:Q O *D sky130_fd_sc_hd__dfrtp_2
*CAP
1 *6982:A 5.43237e-05
2 *6838:Q 5.43237e-05
3 *6838:RESET_B *6982:A 2.84026e-05
*RES
1 *6838:Q *6982:A 19.5464 
*END

*D_NET *1081 0.00451821
*CONN
*I *6712:A I *D sky130_fd_sc_hd__or4_2
*I *6596:B1 I *D sky130_fd_sc_hd__o211a_2
*I *6711:A I *D sky130_fd_sc_hd__nor3_2
*I *6994:A I *D sky130_fd_sc_hd__dlygate4sd3_1
*I *6839:Q O *D sky130_fd_sc_hd__dfrtp_2
*CAP
1 *6712:A 3.7452e-05
2 *6596:B1 0.000553508
3 *6711:A 0
4 *6994:A 0.000775088
5 *6839:Q 0.000394097
6 *1081:36 0.000776197
7 *1081:30 0.000641133
8 *6596:A1 *6596:B1 1.15172e-05
9 *6596:A2 *6596:B1 0.000132856
10 *6712:B *1081:36 0.000227539
11 *6712:D *1081:36 9.14762e-05
12 *6713:A2 *1081:36 9.90431e-05
13 *6714:A1 *6994:A 5.49489e-05
14 *6714:A1 *1081:30 0.000331632
15 *6714:A2 *6712:A 9.7049e-06
16 *6714:A2 *1081:30 0.000150373
17 *6714:B2 *6712:A 0.000106726
18 *6714:B2 *1081:30 3.48705e-05
19 *6714:B2 *1081:36 4.17014e-05
20 *6838:RESET_B *6994:A 4.83461e-05
*RES
1 *6839:Q *6994:A 32.7786 
2 *6994:A *1081:30 18.1929 
3 *1081:30 *1081:36 5.91071 
4 *1081:36 *6711:A 9.3 
5 *1081:36 *6596:B1 16.6393 
6 *1081:30 *6712:A 10.9786 
*END

*D_NET *1082 0.00447613
*CONN
*I *6701:A_N I *D sky130_fd_sc_hd__and2b_2
*I *6600:A I *D sky130_fd_sc_hd__and2_2
*I *6601:A I *D sky130_fd_sc_hd__nand2_2
*I *6646:A1 I *D sky130_fd_sc_hd__o31ai_2
*I *6872:Q O *D sky130_fd_sc_hd__dfrtp_2
*CAP
1 *6701:A_N 0.000606287
2 *6600:A 0
3 *6601:A 0
4 *6646:A1 0.000540268
5 *6872:Q 0.000227323
6 *1082:14 0.000607127
7 *1082:12 6.68591e-05
8 *1082:10 0.00083361
9 *6646:A1 *6612:A 9.25014e-06
10 *6646:A1 *6646:A2 0.000139907
11 *6600:B *6701:A_N 0.000223599
12 *6600:B *1082:10 9.25014e-06
13 *6609:A *1082:10 0.000196413
14 *6609:D *1082:10 0
15 *6611:A1 *1082:10 0
16 *6611:B1 *1082:10 3.79467e-05
17 *6612:B *6646:A1 5.59013e-05
18 *6644:A *6701:A_N 0.000399713
19 *6701:B *6701:A_N 7.43578e-06
20 *6798:D *6701:A_N 6.05161e-06
21 *6798:RESET_B *6701:A_N 4.09747e-05
22 *6799:RESET_B *6701:A_N 8.09146e-06
23 *221:24 *6701:A_N 0.000135773
24 *221:24 *1082:10 7.79781e-06
25 *222:12 *6646:A1 9.60875e-05
26 *302:299 *6646:A1 0.000116033
27 *302:299 *1082:14 7.48091e-05
28 *401:58 *6701:A_N 1.04707e-05
29 *433:21 *6701:A_N 0
30 *514:24 *6646:A1 1.91512e-05
*RES
1 *6872:Q *1082:10 18.8179 
2 *1082:10 *1082:12 4.5 
3 *1082:12 *1082:14 1.35714 
4 *1082:14 *6646:A1 26.05 
5 *1082:14 *6601:A 9.3 
6 *1082:12 *6600:A 9.3 
7 *1082:10 *6701:A_N 27.4607 
*END

*D_NET *1083 0.000910478
*CONN
*I *6646:A2 I *D sky130_fd_sc_hd__o31ai_2
*I *6612:A I *D sky130_fd_sc_hd__and2_2
*I *6873:Q O *D sky130_fd_sc_hd__dfrtp_2
*CAP
1 *6646:A2 0.000100545
2 *6612:A 5.09915e-05
3 *6873:Q 0.000114993
4 *1083:6 0.000266529
5 *6612:B *6612:A 6.30196e-05
6 *6646:A1 *6612:A 9.25014e-06
7 *6646:A1 *6646:A2 0.000139907
8 *6873:RESET_B *1083:6 6.05161e-06
9 *302:299 *6646:A2 6.444e-05
10 *302:299 *1083:6 2.72695e-05
11 *514:24 *6612:A 6.74815e-05
*RES
1 *6873:Q *1083:6 10.6571 
2 *1083:6 *6612:A 19.9429 
3 *1083:6 *6646:A2 11.925 
*END

*D_NET *1084 0.017118
*CONN
*I *6599:A I *D sky130_fd_sc_hd__nand2_2
*I *6700:A I *D sky130_fd_sc_hd__nor2_2
*I *6598:A I *D sky130_fd_sc_hd__and2_2
*I *6715:A1 I *D sky130_fd_sc_hd__a21oi_2
*I *6642:A1 I *D sky130_fd_sc_hd__a21oi_2
*I *6874:Q O *D sky130_fd_sc_hd__dfrtp_2
*CAP
1 *6599:A 1.83888e-05
2 *6700:A 0
3 *6598:A 3.88931e-05
4 *6715:A1 0
5 *6642:A1 0.000291135
6 *6874:Q 0.000897083
7 *1084:32 0.000947277
8 *1084:28 0.00238469
9 *1084:22 0.00416178
10 *1084:12 0.00265588
11 *1084:8 0.00109922
12 *6598:B *6598:A 5.04841e-06
13 *6598:B *1084:28 9.43891e-05
14 *6610:A2 *1084:8 7.49499e-05
15 *6642:A2 *6642:A1 0.000606655
16 *6643:B *6642:A1 3.69047e-06
17 *6700:B *1084:12 0.00010478
18 *6700:B *1084:22 1.789e-05
19 *6715:A2 *6642:A1 1.00733e-05
20 *6733:A1 *1084:32 1.98839e-05
21 *6733:A2 *1084:32 1.82609e-05
22 *6733:B1 *1084:32 0.000137561
23 *6733:B2 *1084:28 2.56597e-05
24 *6733:B2 *1084:32 5.63225e-05
25 *6757:A *1084:28 5.22828e-05
26 *6759:A *1084:22 3.39935e-05
27 *6775:CLK *1084:22 0.000349482
28 *6775:D *1084:22 9.46929e-05
29 *6775:RESET_B *1084:22 2.85262e-05
30 *6788:CLK *1084:28 5.52238e-05
31 *6789:CLK *1084:28 0.00010096
32 *6800:D *1084:22 0.000103564
33 *6874:CLK *1084:8 8.60345e-05
34 *6874:RESET_B *1084:8 0.000136638
35 *6918:A *1084:12 1.32056e-05
36 *6918:A *1084:22 7.18353e-06
37 *6991:A *1084:28 0.000133328
38 *7022:A *1084:22 5.03772e-05
39 *186:70 *6642:A1 2.89016e-05
40 *302:181 *1084:22 3.42164e-05
41 *302:181 *1084:28 0.000518089
42 *396:57 *1084:28 0.000624791
43 *426:10 *6642:A1 6.2198e-05
44 *475:78 *6642:A1 1.56e-05
45 *475:78 *1084:32 1.51455e-05
46 *504:76 *1084:28 0.000514764
47 *507:38 *1084:22 0.00038926
*RES
1 *6874:Q *1084:8 20.5321 
2 *1084:8 *1084:12 3.42857 
3 *1084:12 *1084:22 45.8571 
4 *1084:22 *1084:28 27.7857 
5 *1084:28 *1084:32 8.25 
6 *1084:32 *6642:A1 16.9786 
7 *1084:32 *6715:A1 9.3 
8 *1084:28 *6598:A 10.0321 
9 *1084:12 *6700:A 9.3 
10 *1084:8 *6599:A 9.72857 
*END

*D_NET *1085 0.00530964
*CONN
*I *6608:A I *D sky130_fd_sc_hd__nand3_2
*I *6647:S I *D sky130_fd_sc_hd__mux2_1
*I *6607:A I *D sky130_fd_sc_hd__nand2_2
*I *6648:A I *D sky130_fd_sc_hd__or2_2
*I *6651:A1 I *D sky130_fd_sc_hd__a31o_2
*I *6655:A I *D sky130_fd_sc_hd__and4_2
*I *6814:Q O *D sky130_fd_sc_hd__dfrtp_2
*CAP
1 *6608:A 8.32273e-05
2 *6647:S 9.20558e-05
3 *6607:A 4.69497e-05
4 *6648:A 0
5 *6651:A1 0.000142758
6 *6655:A 0
7 *6814:Q 0.00025928
8 *1085:20 0.000434354
9 *1085:16 0.000596649
10 *1085:8 0.000771914
11 *1085:6 0.000854474
12 *6608:A *6608:B 0.000128154
13 *6608:A *1093:8 9.71197e-05
14 *6651:A1 *6651:A2 3.80981e-05
15 *6651:A1 *6655:C 5.71472e-05
16 *6651:A1 *1092:22 1.69961e-05
17 *1085:16 *1092:18 7.6644e-05
18 *1085:20 *6655:C 7.03295e-05
19 *1085:20 *6655:D 5.52238e-05
20 *1085:20 *1092:18 1.21289e-05
21 *1085:20 *1092:20 0.000288952
22 *6649:A1 *6607:A 5.71472e-05
23 *6649:A1 *1085:16 0.00018372
24 *6649:A3 *1085:16 0.000100831
25 *6649:A3 *1085:20 3.18676e-05
26 *6649:B1 *1085:16 0
27 *6814:RESET_B *1085:8 0.000180861
28 *6820:CLK *1085:16 0
29 *197:10 *6608:A 5.52302e-05
30 *227:10 *1085:20 0.000290158
31 *305:83 *6607:A 0.00010096
32 *305:83 *1085:8 4.8843e-05
33 *397:10 *6608:A 6.42242e-05
34 *435:73 *6647:S 7.33405e-05
*RES
1 *6814:Q *1085:6 12.3 
2 *1085:6 *1085:8 6.28571 
3 *1085:8 *1085:16 12.8214 
4 *1085:16 *1085:20 10.4107 
5 *1085:20 *6655:A 9.3 
6 *1085:20 *6651:A1 10.9071 
7 *1085:16 *6648:A 9.3 
8 *1085:8 *6607:A 10.9786 
9 *1085:6 *6647:S 20.2464 
10 *6651:A1 *6608:A 30.1893 
*END

*D_NET *1086 0.00559109
*CONN
*I *6678:A I *D sky130_fd_sc_hd__or2_2
*I *6677:A I *D sky130_fd_sc_hd__nand2_2
*I *6605:B I *D sky130_fd_sc_hd__or4b_2
*I *6680:D I *D sky130_fd_sc_hd__and4_2
*I *6684:A1 I *D sky130_fd_sc_hd__a31o_2
*I *6995:A I *D sky130_fd_sc_hd__dlygate4sd3_1
*I *6824:Q O *D sky130_fd_sc_hd__dfrtp_2
*CAP
1 *6678:A 0
2 *6677:A 8.23976e-05
3 *6605:B 0.000535012
4 *6680:D 0.000278543
5 *6684:A1 0
6 *6995:A 0.00033243
7 *6824:Q 9.94834e-05
8 *1086:77 0.000257496
9 *1086:32 0.000859219
10 *1086:23 0.000184869
11 *1086:8 0.000396019
12 *6677:A *1100:22 0
13 *6680:D *6680:A 2.44318e-05
14 *6680:D *6680:B 0.00010096
15 *6680:D *6680:C 0.000403656
16 *6678:B *6677:A 5.97623e-05
17 *6678:B *6995:A 0
18 *6679:A1 *6605:B 0
19 *6679:A1 *6677:A 5.41794e-05
20 *6679:A1 *6680:D 2.66026e-05
21 *6679:A3 *6677:A 7.83366e-05
22 *6679:B1 *6995:A 0
23 *6679:B1 *1086:23 0
24 *6679:B2 *6995:A 0.000104974
25 *6683:A2 *6680:D 0
26 *6683:A2 *1086:23 1.69115e-05
27 *6684:A2 *6995:A 0
28 *6684:A2 *1086:8 5.33005e-05
29 *6684:A2 *1086:23 0.000267814
30 *6684:B1 *1086:23 3.92854e-05
31 *6684:B1 *1086:32 1.76039e-05
32 *6819:D *6605:B 6.5185e-05
33 *6824:D *1086:8 9.80173e-05
34 *6824:RESET_B *6605:B 0.000272837
35 *6824:RESET_B *6995:A 3.82605e-05
36 *6824:RESET_B *1086:23 4.98055e-06
37 *6824:RESET_B *1086:32 2.37761e-05
38 *6916:A *6605:B 0.000356022
39 *304:26 *1086:77 0.000227322
40 *392:10 *6605:B 0
41 *392:10 *6680:D 8.07879e-05
42 *434:44 *6605:B 0.000150618
*RES
1 *6824:Q *1086:8 15.5679 
2 *1086:8 *6995:A 17.3179 
3 *1086:8 *1086:23 3.76786 
4 *1086:23 *6684:A1 13.8 
5 *1086:23 *1086:32 1.03571 
6 *1086:32 *6680:D 29.1571 
7 *1086:32 *6605:B 24.7821 
8 *6995:A *1086:77 13.55 
9 *1086:77 *6677:A 20.55 
10 *1086:77 *6678:A 9.3 
*END

*D_NET *1087 0.00291177
*CONN
*I *6605:A I *D sky130_fd_sc_hd__or4b_2
*I *6680:C I *D sky130_fd_sc_hd__and4_2
*I *6999:A I *D sky130_fd_sc_hd__dlygate4sd3_1
*I *6825:Q O *D sky130_fd_sc_hd__dfrtp_2
*CAP
1 *6605:A 0.000376164
2 *6680:C 0.00022558
3 *6999:A 2.53004e-05
4 *6825:Q 0
5 *1087:10 0.000346957
6 *1087:6 0.000472241
7 *6605:A *6605:C 7.50697e-05
8 *6680:C *6680:A 0.00014183
9 *6680:D *6680:C 0.000403656
10 *6683:A2 *6680:C 0.00018318
11 *6824:RESET_B *6605:A 0
12 *6824:RESET_B *1087:10 0
13 *6825:D *6680:C 0.000126639
14 *6825:D *6999:A 2.89016e-05
15 *6825:D *1087:10 0.000101545
16 *247:8 *6680:C 0.000303747
17 *247:8 *6999:A 0.00010096
18 *398:14 *6605:A 0
19 *434:44 *6605:A 0
*RES
1 *6825:Q *1087:6 13.8 
2 *1087:6 *1087:10 6.44643 
3 *1087:10 *6999:A 10.2464 
4 *1087:10 *6680:C 17.2286 
5 *1087:6 *6605:A 20.7643 
*END

*D_NET *1088 0.00427123
*CONN
*I *6606:A I *D sky130_fd_sc_hd__or4_2
*I *6685:B1 I *D sky130_fd_sc_hd__o21a_2
*I *6691:B I *D sky130_fd_sc_hd__and4_2
*I *6688:B I *D sky130_fd_sc_hd__nand3_2
*I *6687:A1 I *D sky130_fd_sc_hd__a21o_2
*I *6500:A I *D sky130_fd_sc_hd__inv_2
*I *6826:Q O *D sky130_fd_sc_hd__dfrtp_2
*CAP
1 *6606:A 0.000168075
2 *6685:B1 0.000169818
3 *6691:B 0
4 *6688:B 8.09585e-05
5 *6687:A1 3.92359e-05
6 *6500:A 1.40568e-05
7 *6826:Q 0.000148894
8 *1088:56 0.00040134
9 *1088:47 0.000164103
10 *1088:34 0.000238453
11 *1088:21 0.000262007
12 *1088:10 0.000328882
13 *6606:A *6606:B 7.83659e-05
14 *6688:B *1089:35 3.93247e-05
15 *6688:B *1089:46 0.00022138
16 *1088:47 *1089:46 1.5424e-05
17 *1088:56 *6605:C 4.43256e-05
18 *6620:A1 *1088:10 3.18676e-05
19 *6682:A_N *6685:B1 0.000117378
20 *6685:A1 *6606:A 0
21 *6685:A1 *6685:B1 5.83233e-05
22 *6685:A1 *1088:34 6.8646e-06
23 *6686:A1 *6500:A 2.89016e-05
24 *6686:A2 *1088:21 0
25 *6686:A3 *6500:A 5.52238e-05
26 *6686:A3 *1088:10 3.17148e-05
27 *6686:A3 *1088:21 0.000388146
28 *6686:B1 *1088:21 5.01117e-05
29 *6688:C *6688:B 3.72693e-05
30 *6688:C *1088:34 9.22948e-05
31 *6688:C *1088:47 5.33005e-05
32 *6691:D *6685:B1 3.25078e-05
33 *6691:D *1088:56 5.03772e-05
34 *6825:RESET_B *6687:A1 5.52238e-05
35 *6826:RESET_B *1088:10 0
36 *6826:RESET_B *1088:21 0
37 *205:32 *6606:A 1.08359e-05
38 *205:32 *6685:B1 0.000157221
39 *205:32 *1088:10 0
40 *205:32 *1088:47 0.000229456
41 *205:32 *1088:56 9.90367e-05
42 *246:18 *1088:21 4.49293e-05
43 *246:18 *1088:34 9.25014e-06
44 *304:10 *6606:A 0
45 *304:14 *6606:A 0
46 *304:14 *6685:B1 0
47 *304:20 *6685:B1 0
48 *428:77 *1088:21 1.76135e-05
49 *428:77 *1088:34 6.39901e-05
50 *428:85 *1088:21 0.000134748
*RES
1 *6826:Q *1088:10 16.2821 
2 *1088:10 *6500:A 14.3357 
3 *1088:10 *1088:21 5.58929 
4 *1088:21 *6687:A1 14.3357 
5 *1088:21 *1088:34 6.14286 
6 *1088:34 *6688:B 11.925 
7 *1088:34 *1088:47 2.58929 
8 *1088:47 *6691:B 9.3 
9 *1088:47 *1088:56 6.26786 
10 *1088:56 *6685:B1 18.4786 
11 *1088:56 *6606:A 16.6571 
*END

*D_NET *1089 0.00555764
*CONN
*I *6687:B1 I *D sky130_fd_sc_hd__a21o_2
*I *6605:C I *D sky130_fd_sc_hd__or4b_2
*I *6691:A I *D sky130_fd_sc_hd__and4_2
*I *6688:A I *D sky130_fd_sc_hd__nand3_2
*I *6993:A I *D sky130_fd_sc_hd__dlygate4sd3_1
*I *6827:Q O *D sky130_fd_sc_hd__dfrtp_2
*CAP
1 *6687:B1 0
2 *6605:C 0.000734656
3 *6691:A 0
4 *6688:A 2.37601e-05
5 *6993:A 0
6 *6827:Q 0.000168252
7 *1089:46 0.000841912
8 *1089:35 0.000268063
9 *1089:25 0.000410792
10 *1089:16 0.000441998
11 *6605:C *6976:A 0
12 *6605:A *6605:C 7.50697e-05
13 *6614:B2 *1089:16 0
14 *6686:A2 *1089:16 0
15 *6688:B *1089:35 3.93247e-05
16 *6688:B *1089:46 0.00022138
17 *6688:C *1089:35 0
18 *6689:A2 *6688:A 7.17136e-05
19 *6689:A2 *1089:35 6.58154e-05
20 *6691:D *6605:C 1.53376e-05
21 *6819:CLK *6605:C 0.000122101
22 *6819:D *6605:C 0.000149489
23 *6827:RESET_B *1089:16 1.72894e-05
24 *205:32 *6605:C 0.000173328
25 *205:32 *6688:A 2.95641e-05
26 *205:32 *1089:46 0.000367446
27 *251:6 *6688:A 5.71472e-05
28 *253:14 *6605:C 0.000274288
29 *253:14 *1089:46 0.00014183
30 *398:34 *1089:25 0.000274294
31 *398:55 *1089:16 0
32 *398:55 *1089:25 0.000359997
33 *428:77 *1089:35 0.000117903
34 *428:85 *1089:35 3.51442e-05
35 *1088:47 *1089:46 1.5424e-05
36 *1088:56 *6605:C 4.43256e-05
*RES
1 *6827:Q *1089:16 21.1393 
2 *1089:16 *6993:A 9.3 
3 *1089:16 *1089:25 6.71429 
4 *1089:25 *1089:35 12.3214 
5 *1089:35 *6688:A 10.6571 
6 *1089:35 *1089:46 4.55357 
7 *1089:46 *6691:A 9.3 
8 *1089:46 *6605:C 30.7821 
9 *1089:25 *6687:B1 9.3 
*END

*D_NET *1090 0.00316147
*CONN
*I *6606:C I *D sky130_fd_sc_hd__or4_2
*I *6502:A I *D sky130_fd_sc_hd__inv_2
*I *6970:A I *D sky130_fd_sc_hd__dlygate4sd3_1
*I *6828:Q O *D sky130_fd_sc_hd__dfrtp_2
*CAP
1 *6606:C 0.000306707
2 *6502:A 6.07004e-06
3 *6970:A 6.20939e-05
4 *6828:Q 9.37071e-05
5 *1090:25 0.000494631
6 *1090:6 0.000337654
7 *6690:A1 *1090:25 5.71472e-05
8 *6690:A2 *6970:A 0.00012401
9 *6692:B1 *6502:A 2.20256e-05
10 *6692:B1 *6606:C 0.000274288
11 *6692:B1 *1090:25 3.12417e-05
12 *6692:B2 *1090:25 5.03772e-05
13 *6693:A2 *6606:C 0.000102659
14 *6693:A2 *1090:25 7.22199e-05
15 *6694:A2 *6606:C 5.58941e-05
16 *6828:D *1090:6 0.00014183
17 *6829:D *6606:C 3.18676e-05
18 *6829:RESET_B *6606:C 4.43142e-05
19 *6916:A *6606:C 0.000353086
20 *195:10 *6606:C 9.90431e-05
21 *222:12 *6970:A 1.31516e-05
22 *253:14 *6606:C 0.000263103
23 *381:65 *6606:C 6.8646e-06
24 *398:68 *6970:A 7.50697e-05
25 *428:75 *1090:6 1.39726e-05
26 *428:77 *6606:C 2.84398e-05
*RES
1 *6828:Q *1090:6 11.0679 
2 *1090:6 *6970:A 20.2464 
3 *1090:6 *1090:25 3.97321 
4 *1090:25 *6502:A 9.8 
5 *1090:25 *6606:C 27.8089 
*END

*D_NET *1091 0.00147759
*CONN
*I *6693:B1 I *D sky130_fd_sc_hd__o21a_2
*I *6501:A I *D sky130_fd_sc_hd__inv_2
*I *6606:B I *D sky130_fd_sc_hd__or4_2
*I *6829:Q O *D sky130_fd_sc_hd__dfrtp_2
*CAP
1 *6693:B1 8.17894e-05
2 *6501:A 0
3 *6606:B 0.000185666
4 *6829:Q 0.000155705
5 *1091:23 8.17894e-05
6 *1091:10 0.000341371
7 *6606:A *6606:B 7.83659e-05
8 *6693:A2 *6693:B1 5.62995e-05
9 *6694:A1 *6693:B1 1.39726e-05
10 *195:10 *6606:B 5.33005e-05
11 *304:8 *1091:10 4.06782e-05
12 *304:10 *6606:B 8.32497e-05
13 *304:10 *1091:10 1.19309e-05
14 *381:65 *6693:B1 0.00014285
15 *381:73 *6606:B 9.25014e-06
16 *381:73 *1091:10 0.000141375
*RES
1 *6829:Q *1091:10 16.6929 
2 *1091:10 *6606:B 17.4964 
3 *1091:10 *1091:23 4.5 
4 *1091:23 *6501:A 9.3 
5 *1091:23 *6693:B1 11.4964 
*END

*D_NET *1092 0.00413302
*CONN
*I *6997:A I *D sky130_fd_sc_hd__dlygate4sd3_1
*I *6607:B I *D sky130_fd_sc_hd__nand2_2
*I *6648:B I *D sky130_fd_sc_hd__or2_2
*I *6655:B I *D sky130_fd_sc_hd__and4_2
*I *6608:B I *D sky130_fd_sc_hd__nand3_2
*I *6651:A2 I *D sky130_fd_sc_hd__a31o_2
*I *6815:Q O *D sky130_fd_sc_hd__dfrtp_2
*CAP
1 *6997:A 0
2 *6607:B 0
3 *6648:B 2.23854e-05
4 *6655:B 0
5 *6608:B 3.89994e-05
6 *6651:A2 7.64583e-05
7 *6815:Q 0.000237456
8 *1092:22 0.000237487
9 *1092:20 0.000738439
10 *1092:18 0.000822368
11 *1092:12 0.000313541
12 *1092:10 0.000367423
13 *6608:B *1093:16 0.000128154
14 *1092:20 *6655:C 4.18895e-05
15 *1092:20 *6655:D 2.89016e-05
16 *1092:22 *6655:C 0.000142856
17 *6608:A *6608:B 0.000128154
18 *6649:A3 *1092:18 0.000121042
19 *6649:B1 *1092:12 0
20 *6649:B2 *1092:12 0
21 *6651:A1 *6651:A2 3.80981e-05
22 *6651:A1 *1092:22 1.69961e-05
23 *6814:RESET_B *1092:10 0.000138106
24 *6820:CLK *1092:12 0
25 *6820:CLK *1092:18 0
26 *305:83 *1092:10 4.38511e-05
27 *305:83 *1092:12 7.26935e-05
28 *1085:16 *1092:18 7.6644e-05
29 *1085:20 *1092:18 1.21289e-05
30 *1085:20 *1092:20 0.000288952
*RES
1 *6815:Q *1092:10 17.6214 
2 *1092:10 *1092:12 2.85714 
3 *1092:12 *1092:18 7.5 
4 *1092:18 *1092:20 8.33929 
5 *1092:20 *1092:22 1.76786 
6 *1092:22 *6651:A2 11.1036 
7 *1092:22 *6608:B 19.9429 
8 *1092:20 *6655:B 9.3 
9 *1092:18 *6648:B 9.72857 
10 *1092:12 *6607:B 13.8 
11 *1092:10 *6997:A 13.8 
*END

*D_NET *1093 0.00122794
*CONN
*I *6608:C I *D sky130_fd_sc_hd__nand3_2
*I *6655:C I *D sky130_fd_sc_hd__and4_2
*I *6651:B1 I *D sky130_fd_sc_hd__a31o_2
*I *6816:Q O *D sky130_fd_sc_hd__dfrtp_2
*CAP
1 *6608:C 0
2 *6655:C 3.29797e-05
3 *6651:B1 0
4 *6816:Q 0.000170088
5 *1093:16 0.000153241
6 *1093:8 0.000290349
7 *6608:A *1093:8 9.71197e-05
8 *6608:B *1093:16 0.000128154
9 *6651:A1 *6655:C 5.71472e-05
10 *197:10 *1093:8 4.37835e-05
11 *397:10 *1093:16 0
12 *397:82 *1093:16 0
13 *397:92 *1093:16 0
14 *1085:20 *6655:C 7.03295e-05
15 *1092:20 *6655:C 4.18895e-05
16 *1092:22 *6655:C 0.000142856
*RES
1 *6816:Q *1093:8 12.7286 
2 *1093:8 *1093:16 11.4821 
3 *1093:16 *6651:B1 9.3 
4 *1093:16 *6655:C 11.0679 
5 *1093:8 *6608:C 9.3 
*END

*D_NET *1094 0.00370328
*CONN
*I *6655:D I *D sky130_fd_sc_hd__and4_2
*I *6604:A I *D sky130_fd_sc_hd__or4_2
*I *6989:A I *D sky130_fd_sc_hd__dlygate4sd3_1
*I *6653:A I *D sky130_fd_sc_hd__nor2_2
*I *6817:Q O *D sky130_fd_sc_hd__dfrtp_2
*CAP
1 *6655:D 0.000239983
2 *6604:A 0
3 *6989:A 0
4 *6653:A 0.000348448
5 *6817:Q 0.000181049
6 *1094:42 0.000506389
7 *1094:16 0.00046168
8 *1094:12 0.000560686
9 *6655:D *6604:B 2.27416e-05
10 *6655:D *1095:10 0
11 *6604:D *6655:D 2.8266e-06
12 *6604:D *1094:42 5.52238e-05
13 *6653:B *6653:A 1.02504e-05
14 *6654:A1 *6653:A 0.000146591
15 *6654:A1 *1094:16 0.000224583
16 *6654:A1 *1094:42 9.60939e-05
17 *6817:D *6653:A 5.35217e-05
18 *6817:RESET_B *1094:12 6.60933e-05
19 *6818:RESET_B *6655:D 0.000241198
20 *193:18 *6655:D 9.81098e-05
21 *193:18 *1094:42 1.33343e-05
22 *397:12 *6655:D 0
23 *397:12 *1094:12 0.000176226
24 *397:92 *6655:D 0.000114121
25 *1085:20 *6655:D 5.52238e-05
26 *1092:20 *6655:D 2.89016e-05
*RES
1 *6817:Q *1094:12 21.9071 
2 *1094:12 *1094:16 2.60714 
3 *1094:16 *6653:A 25.4429 
4 *1094:16 *6989:A 9.3 
5 *1094:12 *1094:42 4.66071 
6 *1094:42 *6604:A 9.3 
7 *1094:42 *6655:D 24.3536 
*END

*D_NET *1095 0.00412981
*CONN
*I *6656:A I *D sky130_fd_sc_hd__nand2_2
*I *6657:A I *D sky130_fd_sc_hd__or2_2
*I *6996:A I *D sky130_fd_sc_hd__dlygate4sd3_1
*I *6604:B I *D sky130_fd_sc_hd__or4_2
*I *6660:A I *D sky130_fd_sc_hd__and3_2
*I *6659:A1 I *D sky130_fd_sc_hd__a21o_2
*I *6667:A I *D sky130_fd_sc_hd__and4_2
*I *6818:Q O *D sky130_fd_sc_hd__dfrtp_2
*CAP
1 *6656:A 0.000157736
2 *6657:A 0
3 *6996:A 0
4 *6604:B 0.000179904
5 *6660:A 2.03441e-05
6 *6659:A1 7.05118e-05
7 *6667:A 5.39817e-05
8 *6818:Q 0.000228349
9 *1095:63 0.000369785
10 *1095:54 0.000333
11 *1095:43 0.000300856
12 *1095:27 0.000300423
13 *1095:12 0.000401762
14 *1095:10 0.000366562
15 *6660:A *1096:42 0
16 *6667:A *6667:B 5.52238e-05
17 *1095:27 *6667:B 4.69993e-05
18 *6604:C *1095:10 0
19 *6604:C *1095:12 0
20 *6604:D *6667:A 0
21 *6604:D *1095:10 0
22 *6604:D *1095:12 0
23 *6655:D *6604:B 2.27416e-05
24 *6655:D *1095:10 0
25 *6658:A2 *6656:A 1.24368e-05
26 *6658:A3 *6656:A 0.000130294
27 *6658:A3 *1095:63 2.44318e-05
28 *6658:B2 *1095:63 7.50473e-05
29 *6660:C *6659:A1 2.89016e-05
30 *6660:C *6660:A 5.7661e-06
31 *6660:C *1095:27 4.72917e-05
32 *6665:B1 *6656:A 0
33 *6818:RESET_B *1095:10 5.52302e-05
34 *6820:D *6656:A 0
35 *193:18 *6604:B 5.19842e-06
36 *227:12 *6656:A 1.00375e-05
37 *227:14 *6656:A 4.1331e-06
38 *227:45 *6659:A1 3.18676e-05
39 *231:26 *6667:A 5.33005e-05
40 *231:26 *1095:27 9.90367e-05
41 *381:135 *6656:A 1.56e-05
42 *397:92 *1095:10 7.03295e-05
43 *397:101 *6656:A 2.89114e-05
44 *439:60 *6667:A 5.41794e-05
45 *439:60 *1095:10 0.00020112
46 *439:60 *1095:12 0.000268514
*RES
1 *6818:Q *1095:10 18.1214 
2 *1095:10 *1095:12 3.46429 
3 *1095:12 *6667:A 15.0679 
4 *1095:12 *1095:27 7.5 
5 *1095:27 *6659:A1 10.2464 
6 *1095:27 *6660:A 9.72857 
7 *1095:10 *1095:43 4.5 
8 *1095:43 *6604:B 11.4786 
9 *1095:43 *1095:54 1.67857 
10 *1095:54 *6996:A 9.3 
11 *1095:54 *1095:63 4.25 
12 *1095:63 *6657:A 9.3 
13 *1095:63 *6656:A 21.6214 
*END

*D_NET *1096 0.00427477
*CONN
*I *6659:B1 I *D sky130_fd_sc_hd__a21o_2
*I *6667:B I *D sky130_fd_sc_hd__and4_2
*I *6660:B I *D sky130_fd_sc_hd__and3_2
*I *6976:A I *D sky130_fd_sc_hd__dlygate4sd3_1
*I *6605:D_N I *D sky130_fd_sc_hd__or4b_2
*I *6819:Q O *D sky130_fd_sc_hd__dfrtp_2
*CAP
1 *6659:B1 0
2 *6667:B 0.000167462
3 *6660:B 3.49772e-05
4 *6976:A 0.000232075
5 *6605:D_N 0.000182723
6 *6819:Q 6.33143e-05
7 *1096:46 0.000344287
8 *1096:42 0.000429631
9 *1096:12 0.000500904
10 *1096:10 0.000437204
11 *6605:C *6976:A 0
12 *6606:D *6605:D_N 4.01768e-05
13 *6660:A *1096:42 0
14 *6660:C *6667:B 1.33343e-05
15 *6660:C *1096:42 0
16 *6660:C *1096:46 0.000128496
17 *6662:A1 *1096:42 0.00014285
18 *6662:A2 *1096:42 0.00014183
19 *6662:B1 *6976:A 0
20 *6662:B1 *1096:42 3.33238e-05
21 *6662:B2 *6976:A 0
22 *6667:A *6667:B 5.52238e-05
23 *6817:D *6976:A 0
24 *6819:D *1096:10 8.00806e-05
25 *6916:A *6605:D_N 0.00048939
26 *6916:A *1096:10 0.00010326
27 *6916:A *1096:12 0.000214198
28 *6916:A *1096:42 1.98839e-05
29 *227:45 *1096:46 9.90431e-05
30 *231:26 *6667:B 9.61553e-05
31 *434:44 *6976:A 0.000177948
32 *1095:27 *6667:B 4.69993e-05
*RES
1 *6819:Q *1096:10 19.9429 
2 *1096:10 *1096:12 2.17857 
3 *1096:12 *6605:D_N 14.3714 
4 *1096:12 *6976:A 23.2821 
5 *1096:10 *1096:42 6.05357 
6 *1096:42 *1096:46 3.01786 
7 *1096:46 *6660:B 10.0321 
8 *1096:46 *6667:B 13.1393 
9 *1096:42 *6659:B1 9.3 
*END

*D_NET *1097 0.00524581
*CONN
*I *6998:A I *D sky130_fd_sc_hd__dlygate4sd3_1
*I *6664:A I *D sky130_fd_sc_hd__or2_2
*I *6663:A I *D sky130_fd_sc_hd__nand2_2
*I *6666:A1 I *D sky130_fd_sc_hd__a21o_2
*I *6667:D I *D sky130_fd_sc_hd__and4_2
*I *6602:B I *D sky130_fd_sc_hd__nand2_2
*I *6820:Q O *D sky130_fd_sc_hd__dfrtp_2
*CAP
1 *6998:A 2.85542e-05
2 *6664:A 0.000100922
3 *6663:A 0
4 *6666:A1 0
5 *6667:D 0
6 *6602:B 7.10953e-05
7 *6820:Q 0.000601039
8 *1097:53 0.000123309
9 *1097:28 0.000548745
10 *1097:26 0.000767174
11 *1097:20 0.000517775
12 *1097:10 0.000835457
13 *6602:B *6602:A 6.74911e-05
14 *6664:B *6664:A 0.00013017
15 *6664:B *1097:53 5.49544e-05
16 *6665:A1 *1097:10 0
17 *6665:A2 *1097:20 2.56694e-05
18 *6665:A2 *1097:53 3.69047e-06
19 *6665:A3 *6998:A 7.57394e-05
20 *6665:B1 *1097:10 0
21 *6665:B2 *6998:A 0.000141734
22 *6821:RESET_B *1097:20 0
23 *231:26 *1097:26 4.38128e-05
24 *231:26 *1097:28 0.000752267
25 *231:39 *1097:26 0.000356207
26 *439:60 *6602:B 0
*RES
1 *6820:Q *1097:10 20.9071 
2 *1097:10 *1097:20 4.17857 
3 *1097:20 *1097:26 9.14286 
4 *1097:26 *1097:28 7.10714 
5 *1097:28 *6602:B 19.9429 
6 *1097:28 *6667:D 9.3 
7 *1097:26 *6666:A1 9.3 
8 *1097:20 *1097:53 5.03571 
9 *1097:53 *6663:A 9.3 
10 *1097:53 *6664:A 11.4786 
11 *1097:10 *6998:A 15.1571 
*END

*D_NET *1098 0.00382554
*CONN
*I *6666:B1 I *D sky130_fd_sc_hd__a21o_2
*I *6602:A I *D sky130_fd_sc_hd__nand2_2
*I *6667:C I *D sky130_fd_sc_hd__and4_2
*I *6979:A I *D sky130_fd_sc_hd__dlygate4sd3_1
*I *6821:Q O *D sky130_fd_sc_hd__dfrtp_2
*CAP
1 *6666:B1 0
2 *6602:A 8.23724e-05
3 *6667:C 4.64099e-05
4 *6979:A 8.41547e-05
5 *6821:Q 0.000443671
6 *1098:31 0.000303867
7 *1098:29 0.000551546
8 *1098:8 0.000904287
9 *6602:B *6602:A 6.74911e-05
10 *6670:A2 *1098:31 1.92905e-05
11 *6670:B2 *6979:A 7.70035e-05
12 *6670:B2 *1098:29 2.27129e-05
13 *6821:CLK *6979:A 0
14 *6821:CLK *1098:29 0
15 *6821:RESET_B *1098:29 0
16 *227:14 *6602:A 8.9163e-05
17 *231:26 *6667:C 0.00014285
18 *231:26 *1098:29 0.000144773
19 *231:26 *1098:31 0.000578042
20 *231:39 *1098:29 0.000219064
21 *236:10 *6667:C 5.30637e-06
22 *236:10 *1098:31 4.35336e-05
23 *439:60 *6602:A 0
*RES
1 *6821:Q *1098:8 18.8536 
2 *1098:8 *6979:A 15.4429 
3 *1098:8 *1098:29 12.5714 
4 *1098:29 *1098:31 5.46429 
5 *1098:31 *6667:C 10.6571 
6 *1098:31 *6602:A 20.55 
7 *1098:29 *6666:B1 9.3 
*END

*D_NET *1099 0.00490155
*CONN
*I *6672:A1 I *D sky130_fd_sc_hd__o21ai_2
*I *6671:A I *D sky130_fd_sc_hd__and3_2
*I *6603:B I *D sky130_fd_sc_hd__nand2_2
*I *6680:B I *D sky130_fd_sc_hd__and4_2
*I *6673:B1 I *D sky130_fd_sc_hd__a2bb2o_2
*I *6822:Q O *D sky130_fd_sc_hd__dfrtp_2
*CAP
1 *6672:A1 6.80561e-05
2 *6671:A 0
3 *6603:B 1.99857e-05
4 *6680:B 0.000226169
5 *6673:B1 0.000777638
6 *6822:Q 0.000748088
7 *1099:34 0.000568084
8 *1099:32 0.000545255
9 *1099:24 0.000320931
10 *6603:B *6680:A 1.04232e-05
11 *6680:B *6680:A 8.18698e-05
12 *1099:34 *6680:A 2.89016e-05
13 *6671:C *1099:32 5.52302e-05
14 *6672:A2 *6672:A1 1.41029e-05
15 *6673:A1_N *1099:32 2.0887e-05
16 *6673:A2_N *6672:A1 0.000121573
17 *6673:A2_N *1099:32 5.33005e-05
18 *6673:B2 *6673:B1 3.57366e-05
19 *6673:B2 *1099:24 1.92905e-05
20 *6673:B2 *1099:32 3.11255e-05
21 *6674:A *1099:34 0.000188586
22 *6674:B *1099:32 0.000181335
23 *6674:B *1099:34 9.61455e-05
24 *6675:B1 *6672:A1 1.76039e-05
25 *6680:D *6680:B 0.00010096
26 *6822:D *6673:B1 2.31176e-05
27 *6822:D *1099:24 8.46829e-05
28 *6822:D *1099:32 0.000221634
29 *239:6 *1099:32 0.000186662
30 *397:44 *6672:A1 5.41797e-05
*RES
1 *6822:Q *6673:B1 27.9214 
2 *6673:B1 *1099:24 10.2464 
3 *1099:24 *1099:32 6.44643 
4 *1099:32 *1099:34 5.875 
5 *1099:34 *6680:B 12.7286 
6 *1099:34 *6603:B 9.72857 
7 *1099:32 *6671:A 9.3 
8 *1099:24 *6672:A1 20.2464 
*END

*D_NET *1100 0.00328594
*CONN
*I *6675:A1 I *D sky130_fd_sc_hd__o21ai_2
*I *6676:B1 I *D sky130_fd_sc_hd__a2bb2o_2
*I *6680:A I *D sky130_fd_sc_hd__and4_2
*I *6603:A I *D sky130_fd_sc_hd__nand2_2
*I *6823:Q O *D sky130_fd_sc_hd__dfrtp_2
*CAP
1 *6675:A1 2.52948e-05
2 *6676:B1 0
3 *6680:A 0.000179016
4 *6603:A 0
5 *6823:Q 0.000117287
6 *1100:22 0.000752689
7 *1100:14 0.000678773
8 *1100:10 0.000247683
9 *6603:B *6680:A 1.04232e-05
10 *6676:A2_N *6675:A1 5.33005e-05
11 *6676:A2_N *1100:14 0.000230475
12 *6676:A2_N *1100:22 9.77274e-05
13 *6676:B2 *1100:10 0
14 *6677:A *1100:22 0
15 *6679:A1 *1100:22 0
16 *6680:B *6680:A 8.18698e-05
17 *6680:C *6680:A 0.00014183
18 *6680:D *6680:A 2.44318e-05
19 *6681:C *6680:A 5.62995e-05
20 *6823:D *1100:22 0.000186669
21 *6823:RESET_B *1100:10 0.000148903
22 *241:12 *1100:22 5.31127e-06
23 *241:16 *1100:22 0.000219055
24 *439:60 *1100:22 0
25 *1099:34 *6680:A 2.89016e-05
*RES
1 *6823:Q *1100:10 20.8536 
2 *1100:10 *1100:14 2.60714 
3 *1100:14 *1100:22 20.1607 
4 *1100:22 *6603:A 9.3 
5 *1100:22 *6680:A 13.9607 
6 *1100:14 *6676:B1 9.3 
7 *1100:10 *6675:A1 9.83571 
*END

*D_NET *1101 0.00195974
*CONN
*I *7020:A I *D sky130_fd_sc_hd__dlygate4sd3_1
*I *6875:Q O *D sky130_fd_sc_hd__dfrtp_2
*CAP
1 *7020:A 0.000322687
2 *6875:Q 0.000322687
3 *6565:A *7020:A 0
4 *6850:CLK *7020:A 0
5 *6875:RESET_B *7020:A 0.000315179
6 *7029:A *7020:A 0.000186669
7 *40:16 *7020:A 0.000438788
8 *302:119 *7020:A 7.77751e-05
9 *302:123 *7020:A 0.000100625
10 *302:130 *7020:A 9.7659e-05
11 *302:135 *7020:A 9.76689e-05
12 *310:63 *7020:A 0
*RES
1 *6875:Q *7020:A 37.9571 
*END

*D_NET *1102 0.00266636
*CONN
*I *7019:A I *D sky130_fd_sc_hd__dlygate4sd3_1
*I *6876:Q O *D sky130_fd_sc_hd__dfrtp_2
*CAP
1 *7019:A 0.000835207
2 *6876:Q 0.000835207
3 *6876:RESET_B *7019:A 9.23759e-05
4 *6877:CLK *7019:A 1.56e-05
5 *6879:CLK *7019:A 0.000624791
6 *314:60 *7019:A 0.000263181
*RES
1 *6876:Q *7019:A 33.1357 
*END

*D_NET *1103 0.00349746
*CONN
*I *7015:A I *D sky130_fd_sc_hd__dlygate4sd3_1
*I *6877:Q O *D sky130_fd_sc_hd__dfrtp_2
*CAP
1 *7015:A 0.000754896
2 *6877:Q 0.000754896
3 *7015:A *7001:A 0.000571631
4 *6884:D *7015:A 0.000361216
5 *6888:D *7015:A 0.000657368
6 *6906:A *7015:A 7.40737e-05
7 *302:40 *7015:A 0.000175885
8 *314:27 *7015:A 0
9 *316:6 *7015:A 9.58126e-05
10 *417:79 *7015:A 5.16779e-05
*RES
1 *6877:Q *7015:A 46.8321 
*END

*D_NET *1104 0.00211018
*CONN
*I *7017:A I *D sky130_fd_sc_hd__dlygate4sd3_1
*I *6878:Q O *D sky130_fd_sc_hd__dfrtp_2
*CAP
1 *7017:A 0.000569213
2 *6878:Q 0.000569213
3 *7017:A *7025:A 2.59093e-05
4 *6878:CLK *7017:A 0.000131385
5 *6878:D *7017:A 0.000367396
6 *6878:RESET_B *7017:A 0
7 *6885:D *7017:A 7.43578e-06
8 *313:30 *7017:A 0.000164787
9 *417:79 *7017:A 7.70134e-05
10 *440:19 *7017:A 0.000197829
*RES
1 *6878:Q *7017:A 41.1536 
*END

*D_NET *1105 0.00191911
*CONN
*I *7021:A I *D sky130_fd_sc_hd__dlygate4sd3_1
*I *6879:Q O *D sky130_fd_sc_hd__dfrtp_2
*CAP
1 *7021:A 0.000638636
2 *6879:Q 0.000638636
3 *6879:CLK *7021:A 0.000164566
4 *7036:A *7021:A 0.000137261
5 *313:63 *7021:A 0.000171745
6 *442:24 *7021:A 0.000168266
*RES
1 *6879:Q *7021:A 37.9571 
*END

*D_NET *1106 0.000417755
*CONN
*I *7003:A I *D sky130_fd_sc_hd__dlygate4sd3_1
*I *6880:Q O *D sky130_fd_sc_hd__dfrtp_2
*CAP
1 *7003:A 9.35664e-05
2 *6880:Q 9.35664e-05
3 *151:8 *7003:A 6.74911e-05
4 *440:19 *7003:A 3.32631e-05
5 *479:48 *7003:A 0.000129868
*RES
1 *6880:Q *7003:A 30.1893 
*END

*D_NET *1107 0.00310504
*CONN
*I *7001:A I *D sky130_fd_sc_hd__dlygate4sd3_1
*I *6881:Q O *D sky130_fd_sc_hd__dfrtp_2
*CAP
1 *7001:A 0.000985205
2 *6881:Q 0.000985205
3 *6881:D *7001:A 0.000265384
4 *7015:A *7001:A 0.000571631
5 *302:31 *7001:A 7.09928e-05
6 *302:33 *7001:A 8.90877e-05
7 *302:38 *7001:A 2.41598e-05
8 *302:40 *7001:A 5.33334e-05
9 *316:6 *7001:A 4.60311e-05
10 *316:10 *7001:A 1.40131e-05
*RES
1 *6881:Q *7001:A 35.4929 
*END

*D_NET *1108 0.00310047
*CONN
*I *6563:B I *D sky130_fd_sc_hd__nand2b_2
*I *7024:A I *D sky130_fd_sc_hd__dlygate4sd3_1
*I *6882:Q O *D sky130_fd_sc_hd__dfrtp_2
*CAP
1 *6563:B 0.000118772
2 *7024:A 0.000378104
3 *6882:Q 9.69555e-05
4 *1108:10 0.000593831
5 *6563:A_N *6563:B 5.33005e-05
6 *6636:A0 *7024:A 0.000123295
7 *6636:A1 *1108:10 0.000128146
8 *6719:A2 *7024:A 0.000360311
9 *6727:B2 *7024:A 0.000112563
10 *6850:RESET_B *6563:B 2.04825e-05
11 *6850:RESET_B *7024:A 8.2958e-06
12 *6850:RESET_B *1108:10 0.000162565
13 *6852:RESET_B *6563:B 0.000265453
14 *6882:RESET_B *7024:A 0
15 *6882:RESET_B *1108:10 0
16 *6889:D *7024:A 7.29646e-05
17 *303:10 *6563:B 0.00017973
18 *311:18 *1108:10 5.33005e-05
19 *337:24 *7024:A 9.24825e-05
20 *359:41 *7024:A 0.000151181
21 *423:10 *7024:A 2.15258e-05
22 *423:17 *7024:A 9.2769e-05
23 *440:55 *7024:A 1.21384e-05
24 *504:76 *7024:A 2.30116e-06
*RES
1 *6882:Q *1108:10 16.4339 
2 *1108:10 *7024:A 23.4696 
3 *1108:10 *6563:B 17.5054 
*END

*D_NET *1109 0.00326842
*CONN
*I *6950:A I *D sky130_fd_sc_hd__dlygate4sd3_1
*I *6884:Q O *D sky130_fd_sc_hd__dfrtp_2
*CAP
1 *6950:A 0.0011272
2 *6884:Q 0.0011272
3 *6834:RESET_B *6950:A 0
4 *6884:RESET_B *6950:A 0.000138106
5 *302:78 *6950:A 6.76645e-05
6 *313:20 *6950:A 0.000653364
7 *314:19 *6950:A 0.000154891
*RES
1 *6884:Q *6950:A 44.8143 
*END

*D_NET *1110 0.0015349
*CONN
*I *7026:A I *D sky130_fd_sc_hd__dlygate4sd3_1
*I *6885:Q O *D sky130_fd_sc_hd__dfrtp_2
*CAP
1 *7026:A 0.000426932
2 *6885:Q 0.000426932
3 *6696:A0 *7026:A 0.000143928
4 *6696:A1 *7026:A 0.000122159
5 *6831:D *7026:A 0.000276211
6 *6831:RESET_B *7026:A 0
7 *6949:A *7026:A 0
8 *475:146 *7026:A 0.000104611
9 *478:10 *7026:A 3.41261e-05
*RES
1 *6885:Q *7026:A 37.6714 
*END

*D_NET *1111 0.000782957
*CONN
*I *6948:A I *D sky130_fd_sc_hd__dlygate4sd3_1
*I *6886:Q O *D sky130_fd_sc_hd__dfrtp_2
*CAP
1 *6948:A 0.000220856
2 *6886:Q 0.000220856
3 *6697:A1 *6948:A 0
4 *7588:A *6948:A 0
5 *480:35 *6948:A 0.000341246
*RES
1 *6886:Q *6948:A 32.2071 
*END

*D_NET *1112 0.00066681
*CONN
*I *7025:A I *D sky130_fd_sc_hd__dlygate4sd3_1
*I *6887:Q O *D sky130_fd_sc_hd__dfrtp_2
*CAP
1 *7025:A 0.000254182
2 *6887:Q 0.000254182
3 *6878:RESET_B *7025:A 5.048e-05
4 *7017:A *7025:A 2.59093e-05
5 *313:30 *7025:A 7.83659e-05
6 *313:51 *7025:A 3.69047e-06
7 *335:16 *7025:A 0
*RES
1 *6887:Q *7025:A 31.4214 
*END
